*SPEF "ieee 1481-1999"
*DESIGN "team_04"
*DATE "16:21:10 Saturday April 25, 2026"
*VENDOR "The OpenROAD Project"
*PROGRAM "OpenROAD"
*VERSION "edf00dff99f6c40d67a30c0e22a8191c5d2ed9d6"
*DESIGN_FLOW "NAME_SCOPE LOCAL" "PIN_CAP NONE"
*DIVIDER /
*DELIMITER :
*BUS_DELIMITER []
*T_UNIT 1 NS
*C_UNIT 1 PF
*R_UNIT 1 OHM
*L_UNIT 1 HENRY

*NAME_MAP
*1 clk
*2 en
*3 gpio_in[0]
*4 gpio_in[10]
*5 gpio_in[11]
*6 gpio_in[12]
*7 gpio_in[13]
*8 gpio_in[14]
*9 gpio_in[15]
*10 gpio_in[16]
*11 gpio_in[17]
*12 gpio_in[18]
*13 gpio_in[19]
*14 gpio_in[1]
*15 gpio_in[20]
*16 gpio_in[21]
*17 gpio_in[22]
*18 gpio_in[23]
*19 gpio_in[24]
*20 gpio_in[25]
*21 gpio_in[26]
*22 gpio_in[27]
*23 gpio_in[28]
*24 gpio_in[29]
*25 gpio_in[2]
*26 gpio_in[30]
*27 gpio_in[31]
*28 gpio_in[32]
*29 gpio_in[33]
*30 gpio_in[3]
*31 gpio_in[4]
*32 gpio_in[5]
*33 gpio_in[6]
*34 gpio_in[7]
*35 gpio_in[8]
*36 gpio_in[9]
*37 net94
*38 net66
*39 net67
*40 net68
*41 net69
*42 net70
*43 net71
*44 net98
*45 net99
*46 net100
*47 net101
*48 net95
*49 net102
*50 net103
*51 net104
*52 net105
*53 net106
*54 net107
*55 net108
*56 net109
*57 net110
*58 net111
*59 net96
*60 net112
*61 net113
*62 net114
*63 net115
*64 net97
*65 net60
*66 net61
*67 net62
*68 net63
*69 net64
*70 net65
*71 net72
*72 gpio_out[10]
*73 gpio_out[11]
*74 gpio_out[12]
*75 gpio_out[13]
*76 gpio_out[14]
*77 net118
*78 net76
*79 net77
*80 net78
*81 net79
*82 net73
*83 net80
*84 net81
*85 net82
*86 net83
*87 net84
*88 net85
*89 net86
*90 net87
*91 net88
*92 net89
*93 net74
*94 net90
*95 net91
*96 net92
*97 net93
*98 net75
*99 gpio_out[4]
*100 gpio_out[5]
*101 net116
*102 net117
*103 gpio_out[8]
*104 gpio_out[9]
*105 nrst
*108 STOPWATCH_INST\.D0_AN_0
*109 STOPWATCH_INST\.bcd_num\[0\]
*110 STOPWATCH_INST\.bcd_num\[1\]
*111 STOPWATCH_INST\.bcd_num\[2\]
*112 STOPWATCH_INST\.bcd_num\[3\]
*113 STOPWATCH_INST\.bcd_num\[4\]
*114 STOPWATCH_INST\.bcd_num\[5\]
*115 STOPWATCH_INST\.bcd_num\[6\]
*116 STOPWATCH_INST\.bcd_num\[7\]
*117 STOPWATCH_INST\.clock_div\.cycles\[0\]
*118 STOPWATCH_INST\.clock_div\.cycles\[10\]
*119 STOPWATCH_INST\.clock_div\.cycles\[11\]
*120 STOPWATCH_INST\.clock_div\.cycles\[12\]
*121 STOPWATCH_INST\.clock_div\.cycles\[13\]
*122 STOPWATCH_INST\.clock_div\.cycles\[14\]
*123 STOPWATCH_INST\.clock_div\.cycles\[15\]
*124 STOPWATCH_INST\.clock_div\.cycles\[16\]
*125 STOPWATCH_INST\.clock_div\.cycles\[17\]
*126 STOPWATCH_INST\.clock_div\.cycles\[18\]
*127 STOPWATCH_INST\.clock_div\.cycles\[19\]
*128 STOPWATCH_INST\.clock_div\.cycles\[1\]
*129 STOPWATCH_INST\.clock_div\.cycles\[20\]
*130 STOPWATCH_INST\.clock_div\.cycles\[21\]
*131 STOPWATCH_INST\.clock_div\.cycles\[22\]
*132 STOPWATCH_INST\.clock_div\.cycles\[23\]
*133 STOPWATCH_INST\.clock_div\.cycles\[24\]
*134 STOPWATCH_INST\.clock_div\.cycles\[25\]
*135 STOPWATCH_INST\.clock_div\.cycles\[26\]
*136 STOPWATCH_INST\.clock_div\.cycles\[27\]
*137 STOPWATCH_INST\.clock_div\.cycles\[28\]
*138 STOPWATCH_INST\.clock_div\.cycles\[29\]
*139 STOPWATCH_INST\.clock_div\.cycles\[2\]
*140 STOPWATCH_INST\.clock_div\.cycles\[30\]
*141 STOPWATCH_INST\.clock_div\.cycles\[31\]
*142 STOPWATCH_INST\.clock_div\.cycles\[3\]
*143 STOPWATCH_INST\.clock_div\.cycles\[4\]
*144 STOPWATCH_INST\.clock_div\.cycles\[5\]
*145 STOPWATCH_INST\.clock_div\.cycles\[6\]
*146 STOPWATCH_INST\.clock_div\.cycles\[7\]
*147 STOPWATCH_INST\.clock_div\.cycles\[8\]
*148 STOPWATCH_INST\.clock_div\.cycles\[9\]
*149 STOPWATCH_INST\.clock_div\.n_rst
*150 STOPWATCH_INST\.clock_div\.second_tick
*151 STOPWATCH_INST\.digit_scanner\.ctrl
*152 STOPWATCH_INST\.digit_scanner\.period_counter\[0\]
*153 STOPWATCH_INST\.digit_scanner\.period_counter\[10\]
*154 STOPWATCH_INST\.digit_scanner\.period_counter\[11\]
*155 STOPWATCH_INST\.digit_scanner\.period_counter\[12\]
*156 STOPWATCH_INST\.digit_scanner\.period_counter\[13\]
*157 STOPWATCH_INST\.digit_scanner\.period_counter\[14\]
*158 STOPWATCH_INST\.digit_scanner\.period_counter\[15\]
*159 STOPWATCH_INST\.digit_scanner\.period_counter\[1\]
*160 STOPWATCH_INST\.digit_scanner\.period_counter\[2\]
*161 STOPWATCH_INST\.digit_scanner\.period_counter\[3\]
*162 STOPWATCH_INST\.digit_scanner\.period_counter\[4\]
*163 STOPWATCH_INST\.digit_scanner\.period_counter\[5\]
*164 STOPWATCH_INST\.digit_scanner\.period_counter\[6\]
*165 STOPWATCH_INST\.digit_scanner\.period_counter\[7\]
*166 STOPWATCH_INST\.digit_scanner\.period_counter\[8\]
*167 STOPWATCH_INST\.digit_scanner\.period_counter\[9\]
*168 STOPWATCH_INST\.fsm_inst1\.currentState\[0\]
*169 STOPWATCH_INST\.fsm_inst1\.currentState\[1\]
*170 STOPWATCH_INST\.fsm_inst1\.nextState\[0\]
*171 STOPWATCH_INST\.fsm_inst1\.nextState\[1\]
*172 STOPWATCH_INST\.sync_clear\.q
*173 STOPWATCH_INST\.sync_clear\.sync_1
*174 STOPWATCH_INST\.sync_clear\.sync_2
*175 STOPWATCH_INST\.sync_one\.q
*176 STOPWATCH_INST\.sync_one\.sync_1
*177 STOPWATCH_INST\.sync_one\.sync_2
*178 STOPWATCH_INST\.sync_pause\.q
*179 STOPWATCH_INST\.sync_pause\.sync_1
*180 STOPWATCH_INST\.sync_pause\.sync_2
*181 STOPWATCH_INST\.sync_ten\.q
*182 STOPWATCH_INST\.sync_ten\.sync_1
*183 STOPWATCH_INST\.sync_ten\.sync_2
*184 _0000_
*185 _0001_
*186 _0002_
*187 _0003_
*188 _0004_
*189 _0005_
*190 _0006_
*191 _0007_
*192 _0008_
*193 _0009_
*194 _0010_
*195 _0011_
*196 _0012_
*197 _0013_
*198 _0014_
*199 _0015_
*200 _0016_
*201 _0017_
*202 _0018_
*203 _0019_
*204 _0020_
*205 _0021_
*206 _0022_
*207 _0023_
*208 _0024_
*209 _0025_
*210 _0026_
*211 _0027_
*212 _0028_
*213 _0029_
*214 _0030_
*215 _0031_
*216 _0032_
*217 _0033_
*218 _0034_
*219 _0035_
*220 _0036_
*221 _0037_
*222 _0038_
*223 _0039_
*224 _0040_
*225 _0041_
*226 _0042_
*227 _0043_
*228 _0044_
*229 _0045_
*230 _0046_
*231 _0047_
*232 _0048_
*233 _0049_
*234 _0050_
*235 _0051_
*236 _0052_
*237 _0053_
*238 _0054_
*239 _0055_
*240 _0056_
*241 _0057_
*242 _0058_
*243 _0059_
*244 _0060_
*245 _0061_
*246 _0062_
*247 _0063_
*248 _0064_
*249 _0065_
*250 _0066_
*251 _0067_
*252 _0068_
*253 _0069_
*254 _0070_
*255 _0071_
*256 _0072_
*257 _0073_
*258 _0074_
*259 _0075_
*260 _0076_
*261 _0077_
*262 _0078_
*263 _0079_
*264 _0080_
*265 _0081_
*266 _0082_
*267 _0083_
*268 _0084_
*269 _0085_
*270 _0086_
*271 _0087_
*272 _0088_
*273 _0089_
*274 _0090_
*275 _0091_
*276 _0092_
*277 _0093_
*278 _0094_
*279 _0095_
*280 _0096_
*281 _0097_
*282 _0098_
*283 _0099_
*284 _0100_
*285 _0101_
*286 _0102_
*287 _0103_
*288 _0104_
*289 _0105_
*290 _0106_
*291 _0107_
*292 _0108_
*293 _0109_
*294 _0110_
*295 _0111_
*296 _0112_
*297 _0113_
*298 _0114_
*299 _0115_
*300 _0116_
*301 _0117_
*302 _0118_
*303 _0119_
*304 _0120_
*305 _0121_
*306 _0122_
*307 _0123_
*308 _0124_
*309 _0125_
*310 _0126_
*311 _0127_
*312 _0128_
*313 _0129_
*314 _0130_
*315 _0131_
*316 _0132_
*317 _0133_
*318 _0134_
*319 _0135_
*320 _0136_
*321 _0137_
*322 _0138_
*323 _0139_
*324 _0140_
*325 _0141_
*326 _0142_
*327 _0143_
*328 _0144_
*329 _0145_
*330 _0146_
*331 _0147_
*332 _0148_
*333 _0149_
*334 _0150_
*335 _0151_
*336 _0152_
*337 _0153_
*338 _0154_
*339 _0155_
*340 _0156_
*341 _0157_
*342 _0158_
*343 _0159_
*344 _0160_
*345 _0161_
*346 _0162_
*347 _0163_
*348 _0164_
*349 _0165_
*350 _0166_
*351 _0167_
*352 _0168_
*353 _0169_
*354 _0170_
*355 _0171_
*356 _0172_
*357 _0173_
*358 _0174_
*359 _0175_
*360 _0176_
*361 _0177_
*362 _0178_
*363 _0179_
*364 _0180_
*365 _0181_
*366 _0182_
*367 _0183_
*368 _0184_
*369 _0185_
*370 _0186_
*371 _0187_
*372 _0188_
*373 _0189_
*374 _0190_
*375 _0191_
*376 _0192_
*377 _0193_
*378 _0194_
*379 _0195_
*380 _0196_
*381 _0197_
*382 _0198_
*383 _0199_
*384 _0200_
*385 _0201_
*386 _0202_
*387 _0203_
*388 _0204_
*389 _0205_
*390 _0206_
*391 _0207_
*392 _0208_
*393 _0209_
*394 _0210_
*395 _0211_
*396 _0212_
*397 _0213_
*398 _0214_
*399 _0215_
*400 _0216_
*401 _0217_
*402 _0218_
*403 _0219_
*404 _0220_
*405 _0221_
*406 _0222_
*407 _0223_
*408 _0224_
*409 _0225_
*410 _0226_
*411 _0227_
*412 _0228_
*413 _0229_
*414 _0230_
*415 _0231_
*416 _0232_
*417 _0233_
*418 _0234_
*419 _0235_
*420 _0236_
*421 _0237_
*422 _0238_
*423 _0239_
*424 _0240_
*425 _0241_
*426 _0242_
*427 _0243_
*428 _0244_
*429 _0245_
*430 _0246_
*431 _0247_
*432 _0248_
*433 _0249_
*434 _0250_
*435 _0251_
*436 _0252_
*437 _0253_
*438 _0254_
*439 _0255_
*440 _0256_
*441 _0257_
*442 _0258_
*443 _0259_
*444 _0260_
*445 _0261_
*446 _0262_
*447 _0263_
*448 _0264_
*449 _0265_
*450 _0266_
*451 _0267_
*452 _0268_
*453 _0269_
*454 _0270_
*455 _0271_
*456 _0272_
*457 _0273_
*458 _0274_
*459 _0275_
*460 _0276_
*461 _0277_
*462 _0278_
*463 _0279_
*464 _0280_
*465 _0281_
*466 _0282_
*467 _0283_
*468 _0284_
*469 _0285_
*470 _0286_
*471 _0287_
*472 _0288_
*473 _0289_
*474 _0290_
*475 _0291_
*476 _0292_
*477 _0293_
*478 _0294_
*479 _0295_
*480 _0296_
*481 _0297_
*482 _0298_
*483 _0299_
*484 _0300_
*485 _0301_
*486 _0302_
*487 _0303_
*488 _0304_
*489 _0305_
*490 _0306_
*491 _0307_
*492 _0308_
*493 _0309_
*494 _0310_
*495 _0311_
*496 _0312_
*497 _0313_
*498 _0314_
*499 _0315_
*500 _0316_
*501 _0317_
*502 _0318_
*503 _0319_
*504 _0320_
*505 _0321_
*506 _0322_
*507 _0323_
*508 _0324_
*509 _0325_
*510 _0326_
*511 _0327_
*512 _0328_
*513 _0329_
*514 _0330_
*515 _0331_
*516 _0332_
*517 _0333_
*518 _0334_
*519 _0335_
*520 _0336_
*521 _0337_
*522 _0338_
*523 _0339_
*524 _0340_
*525 _0341_
*526 _0342_
*527 _0343_
*528 _0344_
*529 _0345_
*530 _0346_
*531 _0347_
*532 _0348_
*533 _0349_
*534 _0350_
*535 _0351_
*536 _0352_
*537 _0353_
*538 _0354_
*539 _0355_
*540 _0356_
*541 _0357_
*542 _0358_
*543 _0359_
*544 _0360_
*545 _0361_
*546 _0362_
*547 _0363_
*548 _0364_
*549 _0365_
*550 _0366_
*551 _0367_
*552 _0368_
*553 _0369_
*554 _0370_
*555 _0371_
*556 _0372_
*557 _0373_
*558 _0374_
*559 _0375_
*560 _0376_
*561 _0377_
*562 _0378_
*563 _0379_
*564 _0380_
*565 _0381_
*566 _0382_
*567 _0383_
*568 _0384_
*569 _0385_
*570 _0386_
*571 _0387_
*572 _0388_
*573 _0389_
*574 _0390_
*575 _0391_
*576 _0392_
*577 _0393_
*578 _0394_
*579 _0395_
*580 _0396_
*581 _0397_
*582 _0398_
*583 _0399_
*584 _0400_
*585 _0401_
*586 _0402_
*587 _0403_
*588 _0404_
*589 _0405_
*590 _0406_
*591 _0407_
*592 _0408_
*593 _0409_
*594 _0410_
*595 _0411_
*596 _0412_
*597 _0413_
*598 _0414_
*599 _0415_
*600 _0416_
*601 _0417_
*602 _0418_
*603 _0419_
*604 _0420_
*605 _0421_
*606 _0422_
*607 _0423_
*608 _0424_
*609 _0425_
*610 _0426_
*611 _0427_
*612 _0428_
*613 _0429_
*614 _0430_
*615 _0431_
*616 _0432_
*617 _0433_
*618 _0434_
*619 _0435_
*620 _0436_
*621 _0437_
*622 _0438_
*623 _0439_
*624 _0440_
*625 _0441_
*626 _0442_
*627 _0443_
*628 _0444_
*629 _0445_
*630 _0446_
*631 _0447_
*632 _0448_
*633 _0449_
*634 _0450_
*635 _0451_
*636 _0452_
*637 _0453_
*638 _0454_
*639 _0455_
*640 _0456_
*641 _0457_
*642 _0458_
*643 _0459_
*644 _0460_
*645 _0461_
*646 _0462_
*647 _0463_
*648 _0464_
*649 _0465_
*650 _0466_
*651 _0467_
*652 _0468_
*653 _0469_
*654 _0470_
*655 _0471_
*656 _0472_
*657 _0473_
*658 _0474_
*659 _0475_
*660 _0476_
*661 _0477_
*662 _0478_
*663 _0479_
*664 _0480_
*665 _0481_
*666 _0482_
*667 _0483_
*668 _0484_
*669 _0485_
*670 _0486_
*671 _0487_
*672 _0488_
*673 _0489_
*674 _0490_
*675 _0491_
*676 _0492_
*677 _0493_
*678 _0494_
*679 _0495_
*680 _0496_
*681 _0497_
*682 _0498_
*683 _0499_
*684 _0500_
*685 _0501_
*686 _0502_
*687 _0503_
*688 _0504_
*689 _0505_
*690 _0506_
*691 _0507_
*692 _0508_
*693 _0509_
*694 _0510_
*695 _0511_
*696 _0512_
*697 _0513_
*698 _0514_
*699 _0515_
*700 _0516_
*701 _0517_
*702 _0518_
*703 _0519_
*704 _0520_
*705 _0521_
*706 _0522_
*707 _0523_
*708 _0524_
*709 _0525_
*710 _0526_
*711 _0527_
*712 _0528_
*713 _0529_
*714 _0530_
*715 _0531_
*716 _0532_
*717 _0533_
*718 _0534_
*719 _0535_
*720 _0536_
*721 _0537_
*722 _0538_
*723 _0539_
*724 _0540_
*725 _0541_
*726 _0542_
*727 _0543_
*728 _0544_
*729 _0545_
*730 _0546_
*731 _0547_
*732 _0548_
*733 _0549_
*734 _0550_
*735 _0551_
*736 _0552_
*737 _0553_
*738 _0554_
*739 _0555_
*740 _0556_
*741 _0557_
*742 _0558_
*743 _0559_
*744 _0560_
*745 _0561_
*746 _0562_
*747 _0563_
*748 _0564_
*749 _0565_
*750 _0566_
*751 _0567_
*752 _0568_
*753 _0569_
*754 _0570_
*755 _0571_
*756 _0572_
*757 _0573_
*758 _0574_
*759 _0575_
*760 _0576_
*761 _0577_
*762 _0578_
*763 _0579_
*764 _0580_
*765 _0581_
*766 _0582_
*767 _0583_
*768 _0584_
*769 _0585_
*770 _0586_
*771 _0587_
*772 _0588_
*773 _0589_
*774 _0590_
*775 _0591_
*776 _0592_
*777 _0593_
*778 _0594_
*779 _0595_
*780 _0596_
*781 _0597_
*782 _0598_
*783 _0599_
*784 _0600_
*785 _0601_
*786 _0602_
*787 _0603_
*788 _0604_
*789 _0605_
*790 _0606_
*791 _0607_
*792 _0608_
*793 _0609_
*794 _0610_
*795 _0611_
*796 _0612_
*797 _0613_
*798 _0614_
*799 _0615_
*800 _0616_
*801 _0617_
*802 _0618_
*803 _0619_
*804 _0620_
*805 _0621_
*806 _0622_
*807 _0623_
*808 _0624_
*809 _0625_
*810 _0626_
*811 _0627_
*812 _0628_
*813 _0629_
*814 _0630_
*815 _0631_
*816 _0632_
*817 _0633_
*818 _0634_
*819 _0635_
*820 _0636_
*821 _0637_
*822 _0638_
*823 _0639_
*824 _0640_
*825 _0641_
*826 _0642_
*827 _0643_
*828 _0644_
*829 _0645_
*830 _0646_
*831 _0647_
*832 _0648_
*833 _0649_
*834 _0650_
*835 _0651_
*836 _0652_
*837 _0653_
*838 _0654_
*839 _0655_
*840 _0656_
*841 _0657_
*842 _0658_
*843 _0659_
*844 _0660_
*845 _0661_
*846 _0662_
*847 _0663_
*848 _0664_
*849 _0665_
*850 _0666_
*851 _0667_
*852 _0668_
*853 _0669_
*854 _0670_
*855 _0671_
*856 _0672_
*857 _0673_
*858 _0674_
*859 _0675_
*860 _0676_
*861 _0677_
*862 _0678_
*863 _0679_
*864 _0680_
*865 _0681_
*866 _0682_
*867 _0683_
*868 _0684_
*869 _0685_
*870 _0686_
*871 _0687_
*872 _0688_
*873 _0689_
*874 _0690_
*875 _0691_
*876 _0692_
*877 _0693_
*878 _0694_
*879 _0695_
*880 _0696_
*881 _0697_
*882 _0698_
*883 _0699_
*884 _0700_
*885 _0701_
*886 _0702_
*887 _0703_
*888 _0704_
*889 _0705_
*890 _0706_
*891 _0707_
*892 _0708_
*893 _0709_
*894 _0710_
*895 _0711_
*896 _0712_
*897 _0713_
*898 _0714_
*899 _0715_
*900 _0716_
*901 _0717_
*902 _0718_
*903 _0719_
*904 _0720_
*905 _0721_
*906 _0722_
*907 _0723_
*908 _0724_
*909 _0725_
*910 _0726_
*911 _0727_
*912 _0728_
*913 _0729_
*914 _0730_
*915 _0731_
*916 _0732_
*917 _0733_
*918 _0734_
*919 _0735_
*920 _0736_
*921 _0737_
*922 _0738_
*923 _0739_
*924 _0740_
*925 _0741_
*926 _0742_
*927 _0743_
*928 _0744_
*929 _0745_
*930 _0746_
*931 _0747_
*932 _0748_
*933 _0749_
*934 _0750_
*935 _0751_
*936 _0752_
*937 _0753_
*938 _0754_
*939 _0755_
*940 _0756_
*941 _0757_
*942 _0758_
*943 _0759_
*944 _0760_
*945 _0761_
*946 _0762_
*947 _0763_
*948 _0764_
*949 _0765_
*950 _0766_
*951 _0767_
*952 _0768_
*953 _0769_
*954 _0770_
*955 _0771_
*956 _0772_
*957 _0773_
*958 _0774_
*959 _0775_
*960 _0776_
*961 _0777_
*962 _0778_
*963 _0779_
*964 _0780_
*965 _0781_
*966 _0782_
*967 clknet_0_clk
*968 clknet_3_0__leaf_clk
*969 clknet_3_1__leaf_clk
*970 clknet_3_2__leaf_clk
*971 clknet_3_3__leaf_clk
*972 clknet_3_4__leaf_clk
*973 clknet_3_5__leaf_clk
*974 clknet_3_6__leaf_clk
*975 clknet_3_7__leaf_clk
*976 net1
*977 net10
*978 net11
*979 net119
*980 net12
*981 net120
*982 net121
*983 net122
*984 net123
*985 net124
*986 net125
*987 net126
*988 net127
*989 net128
*990 net129
*991 net13
*992 net130
*993 net131
*994 net132
*995 net133
*996 net134
*997 net135
*998 net136
*999 net137
*1000 net138
*1001 net139
*1002 net14
*1003 net140
*1004 net141
*1005 net142
*1006 net15
*1007 net153
*1008 net154
*1009 net155
*1010 net156
*1011 net157
*1012 net158
*1013 net159
*1014 net16
*1015 net160
*1016 net161
*1017 net162
*1018 net163
*1019 net164
*1020 net165
*1021 net166
*1022 net167
*1023 net168
*1024 net169
*1025 net17
*1026 net170
*1027 net171
*1028 net172
*1029 net173
*1030 net174
*1031 net175
*1032 net176
*1033 net177
*1034 net178
*1035 net179
*1036 net18
*1037 net180
*1038 net181
*1039 net182
*1040 net183
*1041 net184
*1042 net19
*1043 net2
*1044 net20
*1045 net21
*1046 net22
*1047 net23
*1048 net24
*1049 net25
*1050 net26
*1051 net27
*1052 net28
*1053 net29
*1054 net3
*1055 net30
*1056 net31
*1057 net32
*1058 net33
*1059 net34
*1060 net35
*1061 net36
*1062 net37
*1063 net38
*1064 net39
*1065 net4
*1066 net40
*1067 net41
*1068 net42
*1069 net43
*1070 net44
*1071 net45
*1072 net46
*1073 net47
*1074 net48
*1075 net49
*1076 net5
*1077 net50
*1078 net51
*1079 net52
*1080 net53
*1081 net54
*1082 net55
*1083 net56
*1084 net57
*1085 net58
*1086 net59
*1087 net6
*1088 net7
*1089 net8
*1090 net9
*1091 ANTENNA__0946__A
*1092 ANTENNA__0946__Y
*1093 ANTENNA__1435__A
*1094 ANTENNA__1438__B1
*1095 ANTENNA__1459__B1
*1096 ANTENNA__1460__A1
*1097 ANTENNA__1463__B1
*1098 ANTENNA__1480__B1
*1099 ANTENNA__1512__C1
*1100 ANTENNA__1529__A1
*1101 ANTENNA__1539__C1
*1102 ANTENNA__1543__B1
*1103 ANTENNA__1550__B1
*1104 ANTENNA__1560__C1
*1105 ANTENNA__1563__B1
*1106 ANTENNA__1567__A1
*1107 ANTENNA__1570__A1
*1108 ANTENNA__1572__B1
*1109 ANTENNA__1574__C1
*1110 ANTENNA__1575__A1_N
*1111 ANTENNA__1592__RESET_B
*1112 ANTENNA__1635__RESET_B
*1113 ANTENNA_clkbuf_0_clk_A
*1114 ANTENNA_clkbuf_0_clk_X
*1115 ANTENNA_clkbuf_3_0__f_clk_A
*1116 ANTENNA_clkbuf_3_1__f_clk_A
*1117 ANTENNA_clkbuf_3_2__f_clk_A
*1118 ANTENNA_clkbuf_3_3__f_clk_A
*1119 ANTENNA_clkbuf_3_4__f_clk_A
*1120 ANTENNA_clkbuf_3_5__f_clk_A
*1121 ANTENNA_clkbuf_3_6__f_clk_A
*1122 ANTENNA_clkbuf_3_7__f_clk_A
*1123 ANTENNA_fanout35_A
*1124 ANTENNA_fanout36_X
*1125 ANTENNA_fanout53_A
*1126 ANTENNA_fanout55_A
*1127 ANTENNA_fanout56_A
*1128 ANTENNA_fanout57_A
*1129 ANTENNA_fanout58_A
*1130 ANTENNA_fanout59_X
*1131 ANTENNA_input1_A
*1132 ANTENNA_input2_A
*1133 ANTENNA_input3_A
*1134 ANTENNA_input4_A
*1135 ANTENNA_input5_A
*1136 ANTENNA_input6_A
*1137 FILLER_0_117
*1138 FILLER_0_141
*1139 FILLER_0_145
*1140 FILLER_0_150
*1141 FILLER_0_162
*1142 FILLER_0_166
*1143 FILLER_0_169
*1144 FILLER_0_181
*1145 FILLER_0_189
*1146 FILLER_0_19
*1147 FILLER_0_191
*1148 FILLER_0_195
*1149 FILLER_0_197
*1150 FILLER_0_202
*1151 FILLER_0_209
*1152 FILLER_0_216
*1153 FILLER_0_223
*1154 FILLER_0_225
*1155 FILLER_0_23
*1156 FILLER_0_233
*1157 FILLER_0_237
*1158 FILLER_0_245
*1159 FILLER_0_247
*1160 FILLER_0_251
*1161 FILLER_0_253
*1162 FILLER_0_258
*1163 FILLER_0_27
*1164 FILLER_0_270
*1165 FILLER_0_278
*1166 FILLER_0_281
*1167 FILLER_0_289
*1168 FILLER_0_36
*1169 FILLER_0_45
*1170 FILLER_0_54
*1171 FILLER_0_60
*1172 FILLER_0_72
*1173 FILLER_0_85
*1174 FILLER_10_101
*1175 FILLER_10_105
*1176 FILLER_10_107
*1177 FILLER_10_111
*1178 FILLER_10_123
*1179 FILLER_10_137
*1180 FILLER_10_139
*1181 FILLER_10_141
*1182 FILLER_10_149
*1183 FILLER_10_180
*1184 FILLER_10_209
*1185 FILLER_10_219
*1186 FILLER_10_223
*1187 FILLER_10_23
*1188 FILLER_10_233
*1189 FILLER_10_237
*1190 FILLER_10_258
*1191 FILLER_10_27
*1192 FILLER_10_270
*1193 FILLER_10_282
*1194 FILLER_10_294
*1195 FILLER_10_65
*1196 FILLER_10_71
*1197 FILLER_10_83
*1198 FILLER_10_85
*1199 FILLER_10_89
*1200 FILLER_11_101
*1201 FILLER_11_136
*1202 FILLER_11_148
*1203 FILLER_11_160
*1204 FILLER_11_175
*1205 FILLER_11_197
*1206 FILLER_11_202
*1207 FILLER_11_209
*1208 FILLER_11_213
*1209 FILLER_11_222
*1210 FILLER_11_225
*1211 FILLER_11_229
*1212 FILLER_11_234
*1213 FILLER_11_242
*1214 FILLER_11_246
*1215 FILLER_11_270
*1216 FILLER_11_278
*1217 FILLER_11_281
*1218 FILLER_11_293
*1219 FILLER_11_295
*1220 FILLER_11_52
*1221 FILLER_11_57
*1222 FILLER_11_65
*1223 FILLER_11_73
*1224 FILLER_11_77
*1225 FILLER_11_8
*1226 FILLER_11_82
*1227 FILLER_11_84
*1228 FILLER_11_90
*1229 FILLER_11_94
*1230 FILLER_12_108
*1231 FILLER_12_141
*1232 FILLER_12_145
*1233 FILLER_12_147
*1234 FILLER_12_15
*1235 FILLER_12_155
*1236 FILLER_12_165
*1237 FILLER_12_169
*1238 FILLER_12_171
*1239 FILLER_12_177
*1240 FILLER_12_19
*1241 FILLER_12_217
*1242 FILLER_12_250
*1243 FILLER_12_256
*1244 FILLER_12_260
*1245 FILLER_12_262
*1246 FILLER_12_276
*1247 FILLER_12_288
*1248 FILLER_12_29
*1249 FILLER_12_3
*1250 FILLER_12_83
*1251 FILLER_13_104
*1252 FILLER_13_155
*1253 FILLER_13_165
*1254 FILLER_13_167
*1255 FILLER_13_190
*1256 FILLER_13_202
*1257 FILLER_13_217
*1258 FILLER_13_221
*1259 FILLER_13_223
*1260 FILLER_13_225
*1261 FILLER_13_229
*1262 FILLER_13_23
*1263 FILLER_13_234
*1264 FILLER_13_253
*1265 FILLER_13_261
*1266 FILLER_13_272
*1267 FILLER_13_281
*1268 FILLER_13_293
*1269 FILLER_13_297
*1270 FILLER_13_44
*1271 FILLER_13_57
*1272 FILLER_13_59
*1273 FILLER_13_71
*1274 FILLER_13_73
*1275 FILLER_14_133
*1276 FILLER_14_137
*1277 FILLER_14_139
*1278 FILLER_14_153
*1279 FILLER_14_165
*1280 FILLER_14_192
*1281 FILLER_14_205
*1282 FILLER_14_209
*1283 FILLER_14_223
*1284 FILLER_14_227
*1285 FILLER_14_236
*1286 FILLER_14_238
*1287 FILLER_14_24
*1288 FILLER_14_249
*1289 FILLER_14_251
*1290 FILLER_14_253
*1291 FILLER_14_265
*1292 FILLER_14_291
*1293 FILLER_14_3
*1294 FILLER_14_37
*1295 FILLER_14_41
*1296 FILLER_14_43
*1297 FILLER_14_85
*1298 FILLER_14_87
*1299 FILLER_15_113
*1300 FILLER_15_128
*1301 FILLER_15_13
*1302 FILLER_15_152
*1303 FILLER_15_164
*1304 FILLER_15_184
*1305 FILLER_15_221
*1306 FILLER_15_223
*1307 FILLER_15_239
*1308 FILLER_15_25
*1309 FILLER_15_257
*1310 FILLER_15_274
*1311 FILLER_15_278
*1312 FILLER_15_295
*1313 FILLER_15_32
*1314 FILLER_15_57
*1315 FILLER_15_64
*1316 FILLER_15_68
*1317 FILLER_15_70
*1318 FILLER_15_75
*1319 FILLER_16_115
*1320 FILLER_16_119
*1321 FILLER_16_122
*1322 FILLER_16_131
*1323 FILLER_16_139
*1324 FILLER_16_141
*1325 FILLER_16_145
*1326 FILLER_16_147
*1327 FILLER_16_163
*1328 FILLER_16_194
*1329 FILLER_16_206
*1330 FILLER_16_208
*1331 FILLER_16_218
*1332 FILLER_16_222
*1333 FILLER_16_225
*1334 FILLER_16_229
*1335 FILLER_16_238
*1336 FILLER_16_247
*1337 FILLER_16_251
*1338 FILLER_16_253
*1339 FILLER_16_255
*1340 FILLER_16_272
*1341 FILLER_16_280
*1342 FILLER_16_292
*1343 FILLER_16_66
*1344 FILLER_16_74
*1345 FILLER_16_83
*1346 FILLER_17_111
*1347 FILLER_17_113
*1348 FILLER_17_124
*1349 FILLER_17_132
*1350 FILLER_17_141
*1351 FILLER_17_163
*1352 FILLER_17_167
*1353 FILLER_17_169
*1354 FILLER_17_181
*1355 FILLER_17_190
*1356 FILLER_17_223
*1357 FILLER_17_23
*1358 FILLER_17_250
*1359 FILLER_17_298
*1360 FILLER_17_54
*1361 FILLER_17_6
*1362 FILLER_17_80
*1363 FILLER_17_94
*1364 FILLER_18_115
*1365 FILLER_18_13
*1366 FILLER_18_131
*1367 FILLER_18_156
*1368 FILLER_18_158
*1369 FILLER_18_194
*1370 FILLER_18_197
*1371 FILLER_18_20
*1372 FILLER_18_201
*1373 FILLER_18_228
*1374 FILLER_18_240
*1375 FILLER_18_253
*1376 FILLER_18_265
*1377 FILLER_18_267
*1378 FILLER_18_27
*1379 FILLER_18_273
*1380 FILLER_18_275
*1381 FILLER_18_280
*1382 FILLER_18_37
*1383 FILLER_18_5
*1384 FILLER_18_53
*1385 FILLER_19_100
*1386 FILLER_19_110
*1387 FILLER_19_113
*1388 FILLER_19_123
*1389 FILLER_19_135
*1390 FILLER_19_206
*1391 FILLER_19_212
*1392 FILLER_19_220
*1393 FILLER_19_237
*1394 FILLER_19_244
*1395 FILLER_19_262
*1396 FILLER_19_268
*1397 FILLER_19_298
*1398 FILLER_19_3
*1399 FILLER_19_5
*1400 FILLER_19_74
*1401 FILLER_1_106
*1402 FILLER_1_120
*1403 FILLER_1_122
*1404 FILLER_1_130
*1405 FILLER_1_137
*1406 FILLER_1_167
*1407 FILLER_1_169
*1408 FILLER_1_204
*1409 FILLER_1_216
*1410 FILLER_1_225
*1411 FILLER_1_237
*1412 FILLER_1_249
*1413 FILLER_1_261
*1414 FILLER_1_273
*1415 FILLER_1_277
*1416 FILLER_1_279
*1417 FILLER_1_281
*1418 FILLER_1_6
*1419 FILLER_1_77
*1420 FILLER_1_85
*1421 FILLER_1_87
*1422 FILLER_20_115
*1423 FILLER_20_123
*1424 FILLER_20_138
*1425 FILLER_20_141
*1426 FILLER_20_143
*1427 FILLER_20_158
*1428 FILLER_20_180
*1429 FILLER_20_184
*1430 FILLER_20_19
*1431 FILLER_20_192
*1432 FILLER_20_216
*1433 FILLER_20_224
*1434 FILLER_20_271
*1435 FILLER_20_297
*1436 FILLER_20_41
*1437 FILLER_20_64
*1438 FILLER_20_83
*1439 FILLER_20_96
*1440 FILLER_21_105
*1441 FILLER_21_109
*1442 FILLER_21_111
*1443 FILLER_21_113
*1444 FILLER_21_125
*1445 FILLER_21_129
*1446 FILLER_21_151
*1447 FILLER_21_161
*1448 FILLER_21_169
*1449 FILLER_21_177
*1450 FILLER_21_179
*1451 FILLER_21_198
*1452 FILLER_21_202
*1453 FILLER_21_209
*1454 FILLER_21_219
*1455 FILLER_21_223
*1456 FILLER_21_232
*1457 FILLER_21_250
*1458 FILLER_21_258
*1459 FILLER_21_265
*1460 FILLER_21_281
*1461 FILLER_21_291
*1462 FILLER_21_297
*1463 FILLER_21_3
*1464 FILLER_21_30
*1465 FILLER_21_54
*1466 FILLER_21_57
*1467 FILLER_21_59
*1468 FILLER_21_80
*1469 FILLER_21_84
*1470 FILLER_21_86
*1471 FILLER_22_130
*1472 FILLER_22_138
*1473 FILLER_22_141
*1474 FILLER_22_15
*1475 FILLER_22_158
*1476 FILLER_22_172
*1477 FILLER_22_185
*1478 FILLER_22_197
*1479 FILLER_22_201
*1480 FILLER_22_251
*1481 FILLER_22_253
*1482 FILLER_22_255
*1483 FILLER_22_269
*1484 FILLER_22_27
*1485 FILLER_22_277
*1486 FILLER_22_281
*1487 FILLER_22_29
*1488 FILLER_22_3
*1489 FILLER_22_47
*1490 FILLER_22_74
*1491 FILLER_22_90
*1492 FILLER_23_103
*1493 FILLER_23_110
*1494 FILLER_23_113
*1495 FILLER_23_142
*1496 FILLER_23_146
*1497 FILLER_23_158
*1498 FILLER_23_167
*1499 FILLER_23_169
*1500 FILLER_23_200
*1501 FILLER_23_208
*1502 FILLER_23_210
*1503 FILLER_23_222
*1504 FILLER_23_243
*1505 FILLER_23_256
*1506 FILLER_23_268
*1507 FILLER_23_270
*1508 FILLER_23_275
*1509 FILLER_23_297
*1510 FILLER_23_3
*1511 FILLER_23_30
*1512 FILLER_23_60
*1513 FILLER_23_64
*1514 FILLER_23_7
*1515 FILLER_23_88
*1516 FILLER_24_108
*1517 FILLER_24_120
*1518 FILLER_24_127
*1519 FILLER_24_139
*1520 FILLER_24_141
*1521 FILLER_24_15
*1522 FILLER_24_153
*1523 FILLER_24_178
*1524 FILLER_24_190
*1525 FILLER_24_194
*1526 FILLER_24_220
*1527 FILLER_24_228
*1528 FILLER_24_243
*1529 FILLER_24_251
*1530 FILLER_24_267
*1531 FILLER_24_27
*1532 FILLER_24_279
*1533 FILLER_24_283
*1534 FILLER_24_287
*1535 FILLER_24_3
*1536 FILLER_24_36
*1537 FILLER_24_40
*1538 FILLER_24_53
*1539 FILLER_24_57
*1540 FILLER_24_59
*1541 FILLER_24_70
*1542 FILLER_25_107
*1543 FILLER_25_113
*1544 FILLER_25_117
*1545 FILLER_25_119
*1546 FILLER_25_133
*1547 FILLER_25_137
*1548 FILLER_25_15
*1549 FILLER_25_159
*1550 FILLER_25_167
*1551 FILLER_25_169
*1552 FILLER_25_177
*1553 FILLER_25_179
*1554 FILLER_25_188
*1555 FILLER_25_192
*1556 FILLER_25_196
*1557 FILLER_25_204
*1558 FILLER_25_213
*1559 FILLER_25_221
*1560 FILLER_25_223
*1561 FILLER_25_232
*1562 FILLER_25_240
*1563 FILLER_25_247
*1564 FILLER_25_253
*1565 FILLER_25_27
*1566 FILLER_25_295
*1567 FILLER_25_3
*1568 FILLER_25_45
*1569 FILLER_25_79
*1570 FILLER_25_92
*1571 FILLER_26_120
*1572 FILLER_26_141
*1573 FILLER_26_15
*1574 FILLER_26_153
*1575 FILLER_26_165
*1576 FILLER_26_167
*1577 FILLER_26_194
*1578 FILLER_26_204
*1579 FILLER_26_215
*1580 FILLER_26_250
*1581 FILLER_26_253
*1582 FILLER_26_266
*1583 FILLER_26_27
*1584 FILLER_26_278
*1585 FILLER_26_282
*1586 FILLER_26_290
*1587 FILLER_26_294
*1588 FILLER_26_3
*1589 FILLER_26_50
*1590 FILLER_26_66
*1591 FILLER_26_68
*1592 FILLER_26_82
*1593 FILLER_26_92
*1594 FILLER_27_108
*1595 FILLER_27_113
*1596 FILLER_27_117
*1597 FILLER_27_134
*1598 FILLER_27_140
*1599 FILLER_27_15
*1600 FILLER_27_163
*1601 FILLER_27_167
*1602 FILLER_27_169
*1603 FILLER_27_181
*1604 FILLER_27_193
*1605 FILLER_27_210
*1606 FILLER_27_222
*1607 FILLER_27_225
*1608 FILLER_27_233
*1609 FILLER_27_237
*1610 FILLER_27_239
*1611 FILLER_27_244
*1612 FILLER_27_252
*1613 FILLER_27_27
*1614 FILLER_27_271
*1615 FILLER_27_279
*1616 FILLER_27_3
*1617 FILLER_27_39
*1618 FILLER_27_43
*1619 FILLER_27_54
*1620 FILLER_27_57
*1621 FILLER_27_65
*1622 FILLER_27_77
*1623 FILLER_27_84
*1624 FILLER_27_96
*1625 FILLER_28_107
*1626 FILLER_28_109
*1627 FILLER_28_15
*1628 FILLER_28_166
*1629 FILLER_28_168
*1630 FILLER_28_176
*1631 FILLER_28_180
*1632 FILLER_28_197
*1633 FILLER_28_201
*1634 FILLER_28_213
*1635 FILLER_28_221
*1636 FILLER_28_223
*1637 FILLER_28_231
*1638 FILLER_28_243
*1639 FILLER_28_245
*1640 FILLER_28_256
*1641 FILLER_28_264
*1642 FILLER_28_27
*1643 FILLER_28_278
*1644 FILLER_28_29
*1645 FILLER_28_294
*1646 FILLER_28_298
*1647 FILLER_28_3
*1648 FILLER_28_41
*1649 FILLER_28_58
*1650 FILLER_28_92
*1651 FILLER_29_104
*1652 FILLER_29_113
*1653 FILLER_29_125
*1654 FILLER_29_127
*1655 FILLER_29_15
*1656 FILLER_29_154
*1657 FILLER_29_158
*1658 FILLER_29_160
*1659 FILLER_29_169
*1660 FILLER_29_180
*1661 FILLER_29_195
*1662 FILLER_29_207
*1663 FILLER_29_222
*1664 FILLER_29_225
*1665 FILLER_29_265
*1666 FILLER_29_269
*1667 FILLER_29_27
*1668 FILLER_29_277
*1669 FILLER_29_279
*1670 FILLER_29_281
*1671 FILLER_29_287
*1672 FILLER_29_294
*1673 FILLER_29_298
*1674 FILLER_29_3
*1675 FILLER_29_39
*1676 FILLER_29_51
*1677 FILLER_29_55
*1678 FILLER_29_57
*1679 FILLER_29_71
*1680 FILLER_29_79
*1681 FILLER_29_81
*1682 FILLER_29_90
*1683 FILLER_2_10
*1684 FILLER_2_107
*1685 FILLER_2_116
*1686 FILLER_2_134
*1687 FILLER_2_138
*1688 FILLER_2_14
*1689 FILLER_2_141
*1690 FILLER_2_145
*1691 FILLER_2_155
*1692 FILLER_2_157
*1693 FILLER_2_168
*1694 FILLER_2_180
*1695 FILLER_2_182
*1696 FILLER_2_188
*1697 FILLER_2_205
*1698 FILLER_2_217
*1699 FILLER_2_229
*1700 FILLER_2_241
*1701 FILLER_2_249
*1702 FILLER_2_251
*1703 FILLER_2_253
*1704 FILLER_2_26
*1705 FILLER_2_265
*1706 FILLER_2_277
*1707 FILLER_2_289
*1708 FILLER_2_293
*1709 FILLER_2_295
*1710 FILLER_2_32
*1711 FILLER_2_37
*1712 FILLER_2_45
*1713 FILLER_2_47
*1714 FILLER_2_60
*1715 FILLER_2_76
*1716 FILLER_2_85
*1717 FILLER_2_99
*1718 FILLER_30_111
*1719 FILLER_30_116
*1720 FILLER_30_127
*1721 FILLER_30_141
*1722 FILLER_30_145
*1723 FILLER_30_15
*1724 FILLER_30_161
*1725 FILLER_30_163
*1726 FILLER_30_174
*1727 FILLER_30_176
*1728 FILLER_30_180
*1729 FILLER_30_184
*1730 FILLER_30_195
*1731 FILLER_30_228
*1732 FILLER_30_245
*1733 FILLER_30_249
*1734 FILLER_30_251
*1735 FILLER_30_262
*1736 FILLER_30_266
*1737 FILLER_30_27
*1738 FILLER_30_276
*1739 FILLER_30_278
*1740 FILLER_30_284
*1741 FILLER_30_29
*1742 FILLER_30_293
*1743 FILLER_30_297
*1744 FILLER_30_3
*1745 FILLER_30_41
*1746 FILLER_30_49
*1747 FILLER_30_51
*1748 FILLER_30_64
*1749 FILLER_30_68
*1750 FILLER_30_74
*1751 FILLER_30_80
*1752 FILLER_30_85
*1753 FILLER_31_103
*1754 FILLER_31_113
*1755 FILLER_31_128
*1756 FILLER_31_130
*1757 FILLER_31_144
*1758 FILLER_31_15
*1759 FILLER_31_165
*1760 FILLER_31_167
*1761 FILLER_31_195
*1762 FILLER_31_27
*1763 FILLER_31_271
*1764 FILLER_31_275
*1765 FILLER_31_284
*1766 FILLER_31_298
*1767 FILLER_31_3
*1768 FILLER_31_39
*1769 FILLER_31_51
*1770 FILLER_31_55
*1771 FILLER_31_57
*1772 FILLER_31_64
*1773 FILLER_31_73
*1774 FILLER_31_85
*1775 FILLER_31_93
*1776 FILLER_32_101
*1777 FILLER_32_105
*1778 FILLER_32_114
*1779 FILLER_32_133
*1780 FILLER_32_147
*1781 FILLER_32_151
*1782 FILLER_32_155
*1783 FILLER_32_167
*1784 FILLER_32_18
*1785 FILLER_32_220
*1786 FILLER_32_250
*1787 FILLER_32_253
*1788 FILLER_32_257
*1789 FILLER_32_259
*1790 FILLER_32_26
*1791 FILLER_32_264
*1792 FILLER_32_279
*1793 FILLER_32_283
*1794 FILLER_32_288
*1795 FILLER_32_29
*1796 FILLER_32_296
*1797 FILLER_32_298
*1798 FILLER_32_41
*1799 FILLER_32_53
*1800 FILLER_32_57
*1801 FILLER_32_59
*1802 FILLER_32_6
*1803 FILLER_32_65
*1804 FILLER_32_69
*1805 FILLER_32_71
*1806 FILLER_32_81
*1807 FILLER_32_83
*1808 FILLER_33_108
*1809 FILLER_33_136
*1810 FILLER_33_138
*1811 FILLER_33_15
*1812 FILLER_33_165
*1813 FILLER_33_167
*1814 FILLER_33_169
*1815 FILLER_33_188
*1816 FILLER_33_196
*1817 FILLER_33_198
*1818 FILLER_33_217
*1819 FILLER_33_221
*1820 FILLER_33_223
*1821 FILLER_33_225
*1822 FILLER_33_237
*1823 FILLER_33_246
*1824 FILLER_33_250
*1825 FILLER_33_27
*1826 FILLER_33_273
*1827 FILLER_33_281
*1828 FILLER_33_3
*1829 FILLER_33_39
*1830 FILLER_33_51
*1831 FILLER_33_55
*1832 FILLER_33_67
*1833 FILLER_33_76
*1834 FILLER_33_91
*1835 FILLER_34_102
*1836 FILLER_34_114
*1837 FILLER_34_126
*1838 FILLER_34_130
*1839 FILLER_34_137
*1840 FILLER_34_139
*1841 FILLER_34_148
*1842 FILLER_34_160
*1843 FILLER_34_18
*1844 FILLER_34_192
*1845 FILLER_34_197
*1846 FILLER_34_210
*1847 FILLER_34_222
*1848 FILLER_34_234
*1849 FILLER_34_238
*1850 FILLER_34_246
*1851 FILLER_34_250
*1852 FILLER_34_253
*1853 FILLER_34_257
*1854 FILLER_34_26
*1855 FILLER_34_29
*1856 FILLER_34_294
*1857 FILLER_34_298
*1858 FILLER_34_41
*1859 FILLER_34_53
*1860 FILLER_34_57
*1861 FILLER_34_6
*1862 FILLER_34_66
*1863 FILLER_34_81
*1864 FILLER_34_83
*1865 FILLER_35_105
*1866 FILLER_35_109
*1867 FILLER_35_111
*1868 FILLER_35_113
*1869 FILLER_35_124
*1870 FILLER_35_126
*1871 FILLER_35_146
*1872 FILLER_35_163
*1873 FILLER_35_167
*1874 FILLER_35_18
*1875 FILLER_35_190
*1876 FILLER_35_194
*1877 FILLER_35_202
*1878 FILLER_35_204
*1879 FILLER_35_219
*1880 FILLER_35_223
*1881 FILLER_35_229
*1882 FILLER_35_233
*1883 FILLER_35_238
*1884 FILLER_35_255
*1885 FILLER_35_268
*1886 FILLER_35_272
*1887 FILLER_35_288
*1888 FILLER_35_296
*1889 FILLER_35_298
*1890 FILLER_35_30
*1891 FILLER_35_42
*1892 FILLER_35_54
*1893 FILLER_35_57
*1894 FILLER_35_6
*1895 FILLER_35_69
*1896 FILLER_35_73
*1897 FILLER_35_75
*1898 FILLER_35_93
*1899 FILLER_35_97
*1900 FILLER_36_102
*1901 FILLER_36_135
*1902 FILLER_36_139
*1903 FILLER_36_141
*1904 FILLER_36_149
*1905 FILLER_36_151
*1906 FILLER_36_161
*1907 FILLER_36_163
*1908 FILLER_36_18
*1909 FILLER_36_181
*1910 FILLER_36_203
*1911 FILLER_36_216
*1912 FILLER_36_220
*1913 FILLER_36_228
*1914 FILLER_36_258
*1915 FILLER_36_26
*1916 FILLER_36_29
*1917 FILLER_36_41
*1918 FILLER_36_53
*1919 FILLER_36_6
*1920 FILLER_36_65
*1921 FILLER_36_73
*1922 FILLER_36_85
*1923 FILLER_36_89
*1924 FILLER_36_91
*1925 FILLER_36_98
*1926 FILLER_37_106
*1927 FILLER_37_110
*1928 FILLER_37_127
*1929 FILLER_37_129
*1930 FILLER_37_143
*1931 FILLER_37_157
*1932 FILLER_37_165
*1933 FILLER_37_167
*1934 FILLER_37_169
*1935 FILLER_37_173
*1936 FILLER_37_18
*1937 FILLER_37_185
*1938 FILLER_37_189
*1939 FILLER_37_238
*1940 FILLER_37_242
*1941 FILLER_37_246
*1942 FILLER_37_258
*1943 FILLER_37_262
*1944 FILLER_37_276
*1945 FILLER_37_281
*1946 FILLER_37_289
*1947 FILLER_37_297
*1948 FILLER_37_30
*1949 FILLER_37_42
*1950 FILLER_37_54
*1951 FILLER_37_57
*1952 FILLER_37_6
*1953 FILLER_37_69
*1954 FILLER_37_81
*1955 FILLER_37_83
*1956 FILLER_37_87
*1957 FILLER_37_97
*1958 FILLER_38_102
*1959 FILLER_38_106
*1960 FILLER_38_128
*1961 FILLER_38_141
*1962 FILLER_38_148
*1963 FILLER_38_15
*1964 FILLER_38_152
*1965 FILLER_38_159
*1966 FILLER_38_163
*1967 FILLER_38_165
*1968 FILLER_38_185
*1969 FILLER_38_193
*1970 FILLER_38_195
*1971 FILLER_38_197
*1972 FILLER_38_201
*1973 FILLER_38_212
*1974 FILLER_38_224
*1975 FILLER_38_231
*1976 FILLER_38_243
*1977 FILLER_38_251
*1978 FILLER_38_253
*1979 FILLER_38_255
*1980 FILLER_38_263
*1981 FILLER_38_27
*1982 FILLER_38_280
*1983 FILLER_38_29
*1984 FILLER_38_292
*1985 FILLER_38_296
*1986 FILLER_38_298
*1987 FILLER_38_3
*1988 FILLER_38_41
*1989 FILLER_38_53
*1990 FILLER_38_65
*1991 FILLER_38_67
*1992 FILLER_38_71
*1993 FILLER_38_83
*1994 FILLER_39_105
*1995 FILLER_39_109
*1996 FILLER_39_111
*1997 FILLER_39_113
*1998 FILLER_39_115
*1999 FILLER_39_119
*2000 FILLER_39_123
*2001 FILLER_39_125
*2002 FILLER_39_131
*2003 FILLER_39_135
*2004 FILLER_39_137
*2005 FILLER_39_158
*2006 FILLER_39_162
*2007 FILLER_39_18
*2008 FILLER_39_186
*2009 FILLER_39_188
*2010 FILLER_39_192
*2011 FILLER_39_201
*2012 FILLER_39_213
*2013 FILLER_39_235
*2014 FILLER_39_237
*2015 FILLER_39_257
*2016 FILLER_39_278
*2017 FILLER_39_284
*2018 FILLER_39_296
*2019 FILLER_39_298
*2020 FILLER_39_30
*2021 FILLER_39_42
*2022 FILLER_39_54
*2023 FILLER_39_57
*2024 FILLER_39_6
*2025 FILLER_39_75
*2026 FILLER_39_79
*2027 FILLER_39_81
*2028 FILLER_3_10
*2029 FILLER_3_104
*2030 FILLER_3_120
*2031 FILLER_3_132
*2032 FILLER_3_134
*2033 FILLER_3_149
*2034 FILLER_3_161
*2035 FILLER_3_165
*2036 FILLER_3_167
*2037 FILLER_3_169
*2038 FILLER_3_177
*2039 FILLER_3_203
*2040 FILLER_3_221
*2041 FILLER_3_223
*2042 FILLER_3_225
*2043 FILLER_3_237
*2044 FILLER_3_249
*2045 FILLER_3_261
*2046 FILLER_3_273
*2047 FILLER_3_277
*2048 FILLER_3_279
*2049 FILLER_3_281
*2050 FILLER_3_293
*2051 FILLER_3_297
*2052 FILLER_3_31
*2053 FILLER_3_45
*2054 FILLER_3_47
*2055 FILLER_3_6
*2056 FILLER_3_77
*2057 FILLER_3_89
*2058 FILLER_3_91
*2059 FILLER_40_107
*2060 FILLER_40_124
*2061 FILLER_40_141
*2062 FILLER_40_145
*2063 FILLER_40_149
*2064 FILLER_40_174
*2065 FILLER_40_178
*2066 FILLER_40_18
*2067 FILLER_40_221
*2068 FILLER_40_225
*2069 FILLER_40_234
*2070 FILLER_40_238
*2071 FILLER_40_240
*2072 FILLER_40_250
*2073 FILLER_40_256
*2074 FILLER_40_26
*2075 FILLER_40_260
*2076 FILLER_40_262
*2077 FILLER_40_276
*2078 FILLER_40_288
*2079 FILLER_40_29
*2080 FILLER_40_296
*2081 FILLER_40_298
*2082 FILLER_40_41
*2083 FILLER_40_53
*2084 FILLER_40_6
*2085 FILLER_40_65
*2086 FILLER_40_77
*2087 FILLER_40_81
*2088 FILLER_40_83
*2089 FILLER_40_92
*2090 FILLER_41_105
*2091 FILLER_41_109
*2092 FILLER_41_111
*2093 FILLER_41_120
*2094 FILLER_41_128
*2095 FILLER_41_135
*2096 FILLER_41_147
*2097 FILLER_41_151
*2098 FILLER_41_163
*2099 FILLER_41_172
*2100 FILLER_41_18
*2101 FILLER_41_183
*2102 FILLER_41_187
*2103 FILLER_41_204
*2104 FILLER_41_208
*2105 FILLER_41_222
*2106 FILLER_41_225
*2107 FILLER_41_227
*2108 FILLER_41_270
*2109 FILLER_41_278
*2110 FILLER_41_281
*2111 FILLER_41_293
*2112 FILLER_41_297
*2113 FILLER_41_30
*2114 FILLER_41_42
*2115 FILLER_41_54
*2116 FILLER_41_57
*2117 FILLER_41_6
*2118 FILLER_41_69
*2119 FILLER_41_81
*2120 FILLER_41_93
*2121 FILLER_42_109
*2122 FILLER_42_121
*2123 FILLER_42_133
*2124 FILLER_42_137
*2125 FILLER_42_139
*2126 FILLER_42_141
*2127 FILLER_42_158
*2128 FILLER_42_18
*2129 FILLER_42_194
*2130 FILLER_42_205
*2131 FILLER_42_251
*2132 FILLER_42_26
*2133 FILLER_42_275
*2134 FILLER_42_287
*2135 FILLER_42_29
*2136 FILLER_42_295
*2137 FILLER_42_41
*2138 FILLER_42_53
*2139 FILLER_42_6
*2140 FILLER_42_65
*2141 FILLER_42_77
*2142 FILLER_42_81
*2143 FILLER_42_83
*2144 FILLER_42_85
*2145 FILLER_42_97
*2146 FILLER_43_105
*2147 FILLER_43_109
*2148 FILLER_43_111
*2149 FILLER_43_113
*2150 FILLER_43_125
*2151 FILLER_43_137
*2152 FILLER_43_141
*2153 FILLER_43_15
*2154 FILLER_43_156
*2155 FILLER_43_176
*2156 FILLER_43_181
*2157 FILLER_43_189
*2158 FILLER_43_206
*2159 FILLER_43_214
*2160 FILLER_43_222
*2161 FILLER_43_225
*2162 FILLER_43_237
*2163 FILLER_43_247
*2164 FILLER_43_253
*2165 FILLER_43_265
*2166 FILLER_43_27
*2167 FILLER_43_277
*2168 FILLER_43_279
*2169 FILLER_43_281
*2170 FILLER_43_293
*2171 FILLER_43_297
*2172 FILLER_43_3
*2173 FILLER_43_39
*2174 FILLER_43_51
*2175 FILLER_43_55
*2176 FILLER_43_57
*2177 FILLER_43_69
*2178 FILLER_43_81
*2179 FILLER_43_93
*2180 FILLER_44_109
*2181 FILLER_44_121
*2182 FILLER_44_133
*2183 FILLER_44_137
*2184 FILLER_44_139
*2185 FILLER_44_141
*2186 FILLER_44_153
*2187 FILLER_44_165
*2188 FILLER_44_177
*2189 FILLER_44_18
*2190 FILLER_44_189
*2191 FILLER_44_193
*2192 FILLER_44_195
*2193 FILLER_44_197
*2194 FILLER_44_199
*2195 FILLER_44_206
*2196 FILLER_44_218
*2197 FILLER_44_230
*2198 FILLER_44_242
*2199 FILLER_44_250
*2200 FILLER_44_253
*2201 FILLER_44_26
*2202 FILLER_44_265
*2203 FILLER_44_277
*2204 FILLER_44_289
*2205 FILLER_44_29
*2206 FILLER_44_297
*2207 FILLER_44_41
*2208 FILLER_44_53
*2209 FILLER_44_6
*2210 FILLER_44_65
*2211 FILLER_44_77
*2212 FILLER_44_81
*2213 FILLER_44_83
*2214 FILLER_44_85
*2215 FILLER_44_97
*2216 FILLER_45_105
*2217 FILLER_45_109
*2218 FILLER_45_111
*2219 FILLER_45_113
*2220 FILLER_45_125
*2221 FILLER_45_137
*2222 FILLER_45_149
*2223 FILLER_45_161
*2224 FILLER_45_165
*2225 FILLER_45_167
*2226 FILLER_45_169
*2227 FILLER_45_181
*2228 FILLER_45_193
*2229 FILLER_45_205
*2230 FILLER_45_21
*2231 FILLER_45_217
*2232 FILLER_45_221
*2233 FILLER_45_223
*2234 FILLER_45_225
*2235 FILLER_45_237
*2236 FILLER_45_249
*2237 FILLER_45_261
*2238 FILLER_45_273
*2239 FILLER_45_277
*2240 FILLER_45_279
*2241 FILLER_45_281
*2242 FILLER_45_293
*2243 FILLER_45_295
*2244 FILLER_45_33
*2245 FILLER_45_45
*2246 FILLER_45_53
*2247 FILLER_45_55
*2248 FILLER_45_57
*2249 FILLER_45_69
*2250 FILLER_45_81
*2251 FILLER_45_9
*2252 FILLER_45_93
*2253 FILLER_46_104
*2254 FILLER_46_113
*2255 FILLER_46_12
*2256 FILLER_46_125
*2257 FILLER_46_137
*2258 FILLER_46_139
*2259 FILLER_46_141
*2260 FILLER_46_153
*2261 FILLER_46_165
*2262 FILLER_46_167
*2263 FILLER_46_169
*2264 FILLER_46_181
*2265 FILLER_46_193
*2266 FILLER_46_195
*2267 FILLER_46_197
*2268 FILLER_46_209
*2269 FILLER_46_221
*2270 FILLER_46_223
*2271 FILLER_46_225
*2272 FILLER_46_237
*2273 FILLER_46_24
*2274 FILLER_46_249
*2275 FILLER_46_251
*2276 FILLER_46_253
*2277 FILLER_46_265
*2278 FILLER_46_272
*2279 FILLER_46_279
*2280 FILLER_46_281
*2281 FILLER_46_286
*2282 FILLER_46_29
*2283 FILLER_46_294
*2284 FILLER_46_34
*2285 FILLER_46_46
*2286 FILLER_46_50
*2287 FILLER_46_55
*2288 FILLER_46_57
*2289 FILLER_46_62
*2290 FILLER_46_69
*2291 FILLER_46_76
*2292 FILLER_46_83
*2293 FILLER_46_85
*2294 FILLER_46_90
*2295 FILLER_46_97
*2296 FILLER_4_104
*2297 FILLER_4_106
*2298 FILLER_4_115
*2299 FILLER_4_141
*2300 FILLER_4_145
*2301 FILLER_4_174
*2302 FILLER_4_178
*2303 FILLER_4_180
*2304 FILLER_4_184
*2305 FILLER_4_197
*2306 FILLER_4_201
*2307 FILLER_4_227
*2308 FILLER_4_239
*2309 FILLER_4_251
*2310 FILLER_4_253
*2311 FILLER_4_265
*2312 FILLER_4_27
*2313 FILLER_4_277
*2314 FILLER_4_289
*2315 FILLER_4_293
*2316 FILLER_4_295
*2317 FILLER_4_57
*2318 FILLER_4_61
*2319 FILLER_4_78
*2320 FILLER_4_82
*2321 FILLER_4_91
*2322 FILLER_4_95
*2323 FILLER_5_116
*2324 FILLER_5_120
*2325 FILLER_5_130
*2326 FILLER_5_134
*2327 FILLER_5_145
*2328 FILLER_5_147
*2329 FILLER_5_159
*2330 FILLER_5_167
*2331 FILLER_5_222
*2332 FILLER_5_231
*2333 FILLER_5_243
*2334 FILLER_5_255
*2335 FILLER_5_267
*2336 FILLER_5_279
*2337 FILLER_5_281
*2338 FILLER_5_293
*2339 FILLER_5_54
*2340 FILLER_5_57
*2341 FILLER_5_61
*2342 FILLER_5_70
*2343 FILLER_6_102
*2344 FILLER_6_106
*2345 FILLER_6_108
*2346 FILLER_6_119
*2347 FILLER_6_123
*2348 FILLER_6_130
*2349 FILLER_6_132
*2350 FILLER_6_139
*2351 FILLER_6_141
*2352 FILLER_6_168
*2353 FILLER_6_182
*2354 FILLER_6_19
*2355 FILLER_6_210
*2356 FILLER_6_232
*2357 FILLER_6_244
*2358 FILLER_6_253
*2359 FILLER_6_265
*2360 FILLER_6_277
*2361 FILLER_6_289
*2362 FILLER_6_293
*2363 FILLER_6_295
*2364 FILLER_6_82
*2365 FILLER_6_96
*2366 FILLER_7_102
*2367 FILLER_7_113
*2368 FILLER_7_125
*2369 FILLER_7_133
*2370 FILLER_7_135
*2371 FILLER_7_164
*2372 FILLER_7_169
*2373 FILLER_7_245
*2374 FILLER_7_257
*2375 FILLER_7_269
*2376 FILLER_7_277
*2377 FILLER_7_279
*2378 FILLER_7_281
*2379 FILLER_7_293
*2380 FILLER_7_295
*2381 FILLER_7_3
*2382 FILLER_7_53
*2383 FILLER_7_55
*2384 FILLER_7_64
*2385 FILLER_7_7
*2386 FILLER_8_108
*2387 FILLER_8_112
*2388 FILLER_8_114
*2389 FILLER_8_124
*2390 FILLER_8_131
*2391 FILLER_8_141
*2392 FILLER_8_146
*2393 FILLER_8_178
*2394 FILLER_8_195
*2395 FILLER_8_197
*2396 FILLER_8_243
*2397 FILLER_8_251
*2398 FILLER_8_253
*2399 FILLER_8_265
*2400 FILLER_8_277
*2401 FILLER_8_289
*2402 FILLER_8_29
*2403 FILLER_8_297
*2404 FILLER_8_3
*2405 FILLER_8_7
*2406 FILLER_8_71
*2407 FILLER_8_83
*2408 FILLER_8_85
*2409 FILLER_8_87
*2410 FILLER_9_105
*2411 FILLER_9_113
*2412 FILLER_9_121
*2413 FILLER_9_123
*2414 FILLER_9_151
*2415 FILLER_9_155
*2416 FILLER_9_157
*2417 FILLER_9_189
*2418 FILLER_9_213
*2419 FILLER_9_215
*2420 FILLER_9_219
*2421 FILLER_9_22
*2422 FILLER_9_223
*2423 FILLER_9_248
*2424 FILLER_9_260
*2425 FILLER_9_272
*2426 FILLER_9_281
*2427 FILLER_9_293
*2428 FILLER_9_295
*2429 FILLER_9_50
*2430 FILLER_9_54
*2431 FILLER_9_57
*2432 FILLER_9_94
*2433 FILLER_9_96
*2434 PHY_EDGE_ROW_0_Left_47
*2435 PHY_EDGE_ROW_0_Right_0
*2436 PHY_EDGE_ROW_10_Left_57
*2437 PHY_EDGE_ROW_10_Right_10
*2438 PHY_EDGE_ROW_11_Left_58
*2439 PHY_EDGE_ROW_11_Right_11
*2440 PHY_EDGE_ROW_12_Left_59
*2441 PHY_EDGE_ROW_12_Right_12
*2442 PHY_EDGE_ROW_13_Left_60
*2443 PHY_EDGE_ROW_13_Right_13
*2444 PHY_EDGE_ROW_14_Left_61
*2445 PHY_EDGE_ROW_14_Right_14
*2446 PHY_EDGE_ROW_15_Left_62
*2447 PHY_EDGE_ROW_15_Right_15
*2448 PHY_EDGE_ROW_16_Left_63
*2449 PHY_EDGE_ROW_16_Right_16
*2450 PHY_EDGE_ROW_17_Left_64
*2451 PHY_EDGE_ROW_17_Right_17
*2452 PHY_EDGE_ROW_18_Left_65
*2453 PHY_EDGE_ROW_18_Right_18
*2454 PHY_EDGE_ROW_19_Left_66
*2455 PHY_EDGE_ROW_19_Right_19
*2456 PHY_EDGE_ROW_1_Left_48
*2457 PHY_EDGE_ROW_1_Right_1
*2458 PHY_EDGE_ROW_20_Left_67
*2459 PHY_EDGE_ROW_20_Right_20
*2460 PHY_EDGE_ROW_21_Left_68
*2461 PHY_EDGE_ROW_21_Right_21
*2462 PHY_EDGE_ROW_22_Left_69
*2463 PHY_EDGE_ROW_22_Right_22
*2464 PHY_EDGE_ROW_23_Left_70
*2465 PHY_EDGE_ROW_23_Right_23
*2466 PHY_EDGE_ROW_24_Left_71
*2467 PHY_EDGE_ROW_24_Right_24
*2468 PHY_EDGE_ROW_25_Left_72
*2469 PHY_EDGE_ROW_25_Right_25
*2470 PHY_EDGE_ROW_26_Left_73
*2471 PHY_EDGE_ROW_26_Right_26
*2472 PHY_EDGE_ROW_27_Left_74
*2473 PHY_EDGE_ROW_27_Right_27
*2474 PHY_EDGE_ROW_28_Left_75
*2475 PHY_EDGE_ROW_28_Right_28
*2476 PHY_EDGE_ROW_29_Left_76
*2477 PHY_EDGE_ROW_29_Right_29
*2478 PHY_EDGE_ROW_2_Left_49
*2479 PHY_EDGE_ROW_2_Right_2
*2480 PHY_EDGE_ROW_30_Left_77
*2481 PHY_EDGE_ROW_30_Right_30
*2482 PHY_EDGE_ROW_31_Left_78
*2483 PHY_EDGE_ROW_31_Right_31
*2484 PHY_EDGE_ROW_32_Left_79
*2485 PHY_EDGE_ROW_32_Right_32
*2486 PHY_EDGE_ROW_33_Left_80
*2487 PHY_EDGE_ROW_33_Right_33
*2488 PHY_EDGE_ROW_34_Left_81
*2489 PHY_EDGE_ROW_34_Right_34
*2490 PHY_EDGE_ROW_35_Left_82
*2491 PHY_EDGE_ROW_35_Right_35
*2492 PHY_EDGE_ROW_36_Left_83
*2493 PHY_EDGE_ROW_36_Right_36
*2494 PHY_EDGE_ROW_37_Left_84
*2495 PHY_EDGE_ROW_37_Right_37
*2496 PHY_EDGE_ROW_38_Left_85
*2497 PHY_EDGE_ROW_38_Right_38
*2498 PHY_EDGE_ROW_39_Left_86
*2499 PHY_EDGE_ROW_39_Right_39
*2500 PHY_EDGE_ROW_3_Left_50
*2501 PHY_EDGE_ROW_3_Right_3
*2502 PHY_EDGE_ROW_40_Left_87
*2503 PHY_EDGE_ROW_40_Right_40
*2504 PHY_EDGE_ROW_41_Left_88
*2505 PHY_EDGE_ROW_41_Right_41
*2506 PHY_EDGE_ROW_42_Left_89
*2507 PHY_EDGE_ROW_42_Right_42
*2508 PHY_EDGE_ROW_43_Left_90
*2509 PHY_EDGE_ROW_43_Right_43
*2510 PHY_EDGE_ROW_44_Left_91
*2511 PHY_EDGE_ROW_44_Right_44
*2512 PHY_EDGE_ROW_45_Left_92
*2513 PHY_EDGE_ROW_45_Right_45
*2514 PHY_EDGE_ROW_46_Left_93
*2515 PHY_EDGE_ROW_46_Right_46
*2516 PHY_EDGE_ROW_4_Left_51
*2517 PHY_EDGE_ROW_4_Right_4
*2518 PHY_EDGE_ROW_5_Left_52
*2519 PHY_EDGE_ROW_5_Right_5
*2520 PHY_EDGE_ROW_6_Left_53
*2521 PHY_EDGE_ROW_6_Right_6
*2522 PHY_EDGE_ROW_7_Left_54
*2523 PHY_EDGE_ROW_7_Right_7
*2524 PHY_EDGE_ROW_8_Left_55
*2525 PHY_EDGE_ROW_8_Right_8
*2526 PHY_EDGE_ROW_9_Left_56
*2527 PHY_EDGE_ROW_9_Right_9
*2528 TAP_TAPCELL_ROW_0_100
*2529 TAP_TAPCELL_ROW_0_101
*2530 TAP_TAPCELL_ROW_0_102
*2531 TAP_TAPCELL_ROW_0_103
*2532 TAP_TAPCELL_ROW_0_94
*2533 TAP_TAPCELL_ROW_0_95
*2534 TAP_TAPCELL_ROW_0_96
*2535 TAP_TAPCELL_ROW_0_97
*2536 TAP_TAPCELL_ROW_0_98
*2537 TAP_TAPCELL_ROW_0_99
*2538 TAP_TAPCELL_ROW_10_149
*2539 TAP_TAPCELL_ROW_10_150
*2540 TAP_TAPCELL_ROW_10_151
*2541 TAP_TAPCELL_ROW_10_152
*2542 TAP_TAPCELL_ROW_10_153
*2543 TAP_TAPCELL_ROW_11_154
*2544 TAP_TAPCELL_ROW_11_155
*2545 TAP_TAPCELL_ROW_11_156
*2546 TAP_TAPCELL_ROW_11_157
*2547 TAP_TAPCELL_ROW_11_158
*2548 TAP_TAPCELL_ROW_12_159
*2549 TAP_TAPCELL_ROW_12_160
*2550 TAP_TAPCELL_ROW_12_161
*2551 TAP_TAPCELL_ROW_12_162
*2552 TAP_TAPCELL_ROW_12_163
*2553 TAP_TAPCELL_ROW_13_164
*2554 TAP_TAPCELL_ROW_13_165
*2555 TAP_TAPCELL_ROW_13_166
*2556 TAP_TAPCELL_ROW_13_167
*2557 TAP_TAPCELL_ROW_13_168
*2558 TAP_TAPCELL_ROW_14_169
*2559 TAP_TAPCELL_ROW_14_170
*2560 TAP_TAPCELL_ROW_14_171
*2561 TAP_TAPCELL_ROW_14_172
*2562 TAP_TAPCELL_ROW_14_173
*2563 TAP_TAPCELL_ROW_15_174
*2564 TAP_TAPCELL_ROW_15_175
*2565 TAP_TAPCELL_ROW_15_176
*2566 TAP_TAPCELL_ROW_15_177
*2567 TAP_TAPCELL_ROW_15_178
*2568 TAP_TAPCELL_ROW_16_179
*2569 TAP_TAPCELL_ROW_16_180
*2570 TAP_TAPCELL_ROW_16_181
*2571 TAP_TAPCELL_ROW_16_182
*2572 TAP_TAPCELL_ROW_16_183
*2573 TAP_TAPCELL_ROW_17_184
*2574 TAP_TAPCELL_ROW_17_185
*2575 TAP_TAPCELL_ROW_17_186
*2576 TAP_TAPCELL_ROW_17_187
*2577 TAP_TAPCELL_ROW_17_188
*2578 TAP_TAPCELL_ROW_18_189
*2579 TAP_TAPCELL_ROW_18_190
*2580 TAP_TAPCELL_ROW_18_191
*2581 TAP_TAPCELL_ROW_18_192
*2582 TAP_TAPCELL_ROW_18_193
*2583 TAP_TAPCELL_ROW_19_194
*2584 TAP_TAPCELL_ROW_19_195
*2585 TAP_TAPCELL_ROW_19_196
*2586 TAP_TAPCELL_ROW_19_197
*2587 TAP_TAPCELL_ROW_19_198
*2588 TAP_TAPCELL_ROW_1_104
*2589 TAP_TAPCELL_ROW_1_105
*2590 TAP_TAPCELL_ROW_1_106
*2591 TAP_TAPCELL_ROW_1_107
*2592 TAP_TAPCELL_ROW_1_108
*2593 TAP_TAPCELL_ROW_20_199
*2594 TAP_TAPCELL_ROW_20_200
*2595 TAP_TAPCELL_ROW_20_201
*2596 TAP_TAPCELL_ROW_20_202
*2597 TAP_TAPCELL_ROW_20_203
*2598 TAP_TAPCELL_ROW_21_204
*2599 TAP_TAPCELL_ROW_21_205
*2600 TAP_TAPCELL_ROW_21_206
*2601 TAP_TAPCELL_ROW_21_207
*2602 TAP_TAPCELL_ROW_21_208
*2603 TAP_TAPCELL_ROW_22_209
*2604 TAP_TAPCELL_ROW_22_210
*2605 TAP_TAPCELL_ROW_22_211
*2606 TAP_TAPCELL_ROW_22_212
*2607 TAP_TAPCELL_ROW_22_213
*2608 TAP_TAPCELL_ROW_23_214
*2609 TAP_TAPCELL_ROW_23_215
*2610 TAP_TAPCELL_ROW_23_216
*2611 TAP_TAPCELL_ROW_23_217
*2612 TAP_TAPCELL_ROW_23_218
*2613 TAP_TAPCELL_ROW_24_219
*2614 TAP_TAPCELL_ROW_24_220
*2615 TAP_TAPCELL_ROW_24_221
*2616 TAP_TAPCELL_ROW_24_222
*2617 TAP_TAPCELL_ROW_24_223
*2618 TAP_TAPCELL_ROW_25_224
*2619 TAP_TAPCELL_ROW_25_225
*2620 TAP_TAPCELL_ROW_25_226
*2621 TAP_TAPCELL_ROW_25_227
*2622 TAP_TAPCELL_ROW_25_228
*2623 TAP_TAPCELL_ROW_26_229
*2624 TAP_TAPCELL_ROW_26_230
*2625 TAP_TAPCELL_ROW_26_231
*2626 TAP_TAPCELL_ROW_26_232
*2627 TAP_TAPCELL_ROW_26_233
*2628 TAP_TAPCELL_ROW_27_234
*2629 TAP_TAPCELL_ROW_27_235
*2630 TAP_TAPCELL_ROW_27_236
*2631 TAP_TAPCELL_ROW_27_237
*2632 TAP_TAPCELL_ROW_27_238
*2633 TAP_TAPCELL_ROW_28_239
*2634 TAP_TAPCELL_ROW_28_240
*2635 TAP_TAPCELL_ROW_28_241
*2636 TAP_TAPCELL_ROW_28_242
*2637 TAP_TAPCELL_ROW_28_243
*2638 TAP_TAPCELL_ROW_29_244
*2639 TAP_TAPCELL_ROW_29_245
*2640 TAP_TAPCELL_ROW_29_246
*2641 TAP_TAPCELL_ROW_29_247
*2642 TAP_TAPCELL_ROW_29_248
*2643 TAP_TAPCELL_ROW_2_109
*2644 TAP_TAPCELL_ROW_2_110
*2645 TAP_TAPCELL_ROW_2_111
*2646 TAP_TAPCELL_ROW_2_112
*2647 TAP_TAPCELL_ROW_2_113
*2648 TAP_TAPCELL_ROW_30_249
*2649 TAP_TAPCELL_ROW_30_250
*2650 TAP_TAPCELL_ROW_30_251
*2651 TAP_TAPCELL_ROW_30_252
*2652 TAP_TAPCELL_ROW_30_253
*2653 TAP_TAPCELL_ROW_31_254
*2654 TAP_TAPCELL_ROW_31_255
*2655 TAP_TAPCELL_ROW_31_256
*2656 TAP_TAPCELL_ROW_31_257
*2657 TAP_TAPCELL_ROW_31_258
*2658 TAP_TAPCELL_ROW_32_259
*2659 TAP_TAPCELL_ROW_32_260
*2660 TAP_TAPCELL_ROW_32_261
*2661 TAP_TAPCELL_ROW_32_262
*2662 TAP_TAPCELL_ROW_32_263
*2663 TAP_TAPCELL_ROW_33_264
*2664 TAP_TAPCELL_ROW_33_265
*2665 TAP_TAPCELL_ROW_33_266
*2666 TAP_TAPCELL_ROW_33_267
*2667 TAP_TAPCELL_ROW_33_268
*2668 TAP_TAPCELL_ROW_34_269
*2669 TAP_TAPCELL_ROW_34_270
*2670 TAP_TAPCELL_ROW_34_271
*2671 TAP_TAPCELL_ROW_34_272
*2672 TAP_TAPCELL_ROW_34_273
*2673 TAP_TAPCELL_ROW_35_274
*2674 TAP_TAPCELL_ROW_35_275
*2675 TAP_TAPCELL_ROW_35_276
*2676 TAP_TAPCELL_ROW_35_277
*2677 TAP_TAPCELL_ROW_35_278
*2678 TAP_TAPCELL_ROW_36_279
*2679 TAP_TAPCELL_ROW_36_280
*2680 TAP_TAPCELL_ROW_36_281
*2681 TAP_TAPCELL_ROW_36_282
*2682 TAP_TAPCELL_ROW_36_283
*2683 TAP_TAPCELL_ROW_37_284
*2684 TAP_TAPCELL_ROW_37_285
*2685 TAP_TAPCELL_ROW_37_286
*2686 TAP_TAPCELL_ROW_37_287
*2687 TAP_TAPCELL_ROW_37_288
*2688 TAP_TAPCELL_ROW_38_289
*2689 TAP_TAPCELL_ROW_38_290
*2690 TAP_TAPCELL_ROW_38_291
*2691 TAP_TAPCELL_ROW_38_292
*2692 TAP_TAPCELL_ROW_38_293
*2693 TAP_TAPCELL_ROW_39_294
*2694 TAP_TAPCELL_ROW_39_295
*2695 TAP_TAPCELL_ROW_39_296
*2696 TAP_TAPCELL_ROW_39_297
*2697 TAP_TAPCELL_ROW_39_298
*2698 TAP_TAPCELL_ROW_3_114
*2699 TAP_TAPCELL_ROW_3_115
*2700 TAP_TAPCELL_ROW_3_116
*2701 TAP_TAPCELL_ROW_3_117
*2702 TAP_TAPCELL_ROW_3_118
*2703 TAP_TAPCELL_ROW_40_299
*2704 TAP_TAPCELL_ROW_40_300
*2705 TAP_TAPCELL_ROW_40_301
*2706 TAP_TAPCELL_ROW_40_302
*2707 TAP_TAPCELL_ROW_40_303
*2708 TAP_TAPCELL_ROW_41_304
*2709 TAP_TAPCELL_ROW_41_305
*2710 TAP_TAPCELL_ROW_41_306
*2711 TAP_TAPCELL_ROW_41_307
*2712 TAP_TAPCELL_ROW_41_308
*2713 TAP_TAPCELL_ROW_42_309
*2714 TAP_TAPCELL_ROW_42_310
*2715 TAP_TAPCELL_ROW_42_311
*2716 TAP_TAPCELL_ROW_42_312
*2717 TAP_TAPCELL_ROW_42_313
*2718 TAP_TAPCELL_ROW_43_314
*2719 TAP_TAPCELL_ROW_43_315
*2720 TAP_TAPCELL_ROW_43_316
*2721 TAP_TAPCELL_ROW_43_317
*2722 TAP_TAPCELL_ROW_43_318
*2723 TAP_TAPCELL_ROW_44_319
*2724 TAP_TAPCELL_ROW_44_320
*2725 TAP_TAPCELL_ROW_44_321
*2726 TAP_TAPCELL_ROW_44_322
*2727 TAP_TAPCELL_ROW_44_323
*2728 TAP_TAPCELL_ROW_45_324
*2729 TAP_TAPCELL_ROW_45_325
*2730 TAP_TAPCELL_ROW_45_326
*2731 TAP_TAPCELL_ROW_45_327
*2732 TAP_TAPCELL_ROW_45_328
*2733 TAP_TAPCELL_ROW_46_329
*2734 TAP_TAPCELL_ROW_46_330
*2735 TAP_TAPCELL_ROW_46_331
*2736 TAP_TAPCELL_ROW_46_332
*2737 TAP_TAPCELL_ROW_46_333
*2738 TAP_TAPCELL_ROW_46_334
*2739 TAP_TAPCELL_ROW_46_335
*2740 TAP_TAPCELL_ROW_46_336
*2741 TAP_TAPCELL_ROW_46_337
*2742 TAP_TAPCELL_ROW_46_338
*2743 TAP_TAPCELL_ROW_4_119
*2744 TAP_TAPCELL_ROW_4_120
*2745 TAP_TAPCELL_ROW_4_121
*2746 TAP_TAPCELL_ROW_4_122
*2747 TAP_TAPCELL_ROW_4_123
*2748 TAP_TAPCELL_ROW_5_124
*2749 TAP_TAPCELL_ROW_5_125
*2750 TAP_TAPCELL_ROW_5_126
*2751 TAP_TAPCELL_ROW_5_127
*2752 TAP_TAPCELL_ROW_5_128
*2753 TAP_TAPCELL_ROW_6_129
*2754 TAP_TAPCELL_ROW_6_130
*2755 TAP_TAPCELL_ROW_6_131
*2756 TAP_TAPCELL_ROW_6_132
*2757 TAP_TAPCELL_ROW_6_133
*2758 TAP_TAPCELL_ROW_7_134
*2759 TAP_TAPCELL_ROW_7_135
*2760 TAP_TAPCELL_ROW_7_136
*2761 TAP_TAPCELL_ROW_7_137
*2762 TAP_TAPCELL_ROW_7_138
*2763 TAP_TAPCELL_ROW_8_139
*2764 TAP_TAPCELL_ROW_8_140
*2765 TAP_TAPCELL_ROW_8_141
*2766 TAP_TAPCELL_ROW_8_142
*2767 TAP_TAPCELL_ROW_8_143
*2768 TAP_TAPCELL_ROW_9_144
*2769 TAP_TAPCELL_ROW_9_145
*2770 TAP_TAPCELL_ROW_9_146
*2771 TAP_TAPCELL_ROW_9_147
*2772 TAP_TAPCELL_ROW_9_148
*2773 _0783_
*2774 _0784_
*2775 _0785_
*2776 _0786_
*2777 _0787_
*2778 _0788_
*2779 _0789_
*2780 _0790_
*2781 _0791_
*2782 _0792_
*2783 _0793_
*2784 _0794_
*2785 _0795_
*2786 _0796_
*2787 _0797_
*2788 _0798_
*2789 _0799_
*2790 _0800_
*2791 _0801_
*2792 _0802_
*2793 _0803_
*2794 _0804_
*2795 _0805_
*2796 _0806_
*2797 _0807_
*2798 _0808_
*2799 _0809_
*2800 _0810_
*2801 _0811_
*2802 _0812_
*2803 _0813_
*2804 _0814_
*2805 _0815_
*2806 _0816_
*2807 _0817_
*2808 _0818_
*2809 _0819_
*2810 _0820_
*2811 _0821_
*2812 _0822_
*2813 _0823_
*2814 _0824_
*2815 _0825_
*2816 _0826_
*2817 _0827_
*2818 _0828_
*2819 _0829_
*2820 _0830_
*2821 _0831_
*2822 _0832_
*2823 _0833_
*2824 _0834_
*2825 _0835_
*2826 _0836_
*2827 _0837_
*2828 _0838_
*2829 _0839_
*2830 _0840_
*2831 _0841_
*2832 _0842_
*2833 _0843_
*2834 _0844_
*2835 _0845_
*2836 _0846_
*2837 _0847_
*2838 _0848_
*2839 _0849_
*2840 _0850_
*2841 _0851_
*2842 _0852_
*2843 _0853_
*2844 _0854_
*2845 _0855_
*2846 _0856_
*2847 _0857_
*2848 _0858_
*2849 _0859_
*2850 _0860_
*2851 _0861_
*2852 _0862_
*2853 _0863_
*2854 _0864_
*2855 _0865_
*2856 _0866_
*2857 _0867_
*2858 _0868_
*2859 _0869_
*2860 _0870_
*2861 _0871_
*2862 _0872_
*2863 _0873_
*2864 _0874_
*2865 _0875_
*2866 _0876_
*2867 _0877_
*2868 _0878_
*2869 _0879_
*2870 _0880_
*2871 _0881_
*2872 _0882_
*2873 _0883_
*2874 _0884_
*2875 _0885_
*2876 _0886_
*2877 _0887_
*2878 _0888_
*2879 _0889_
*2880 _0890_
*2881 _0891_
*2882 _0892_
*2883 _0893_
*2884 _0894_
*2885 _0895_
*2886 _0896_
*2887 _0897_
*2888 _0898_
*2889 _0899_
*2890 _0900_
*2891 _0901_
*2892 _0902_
*2893 _0903_
*2894 _0904_
*2895 _0905_
*2896 _0906_
*2897 _0907_
*2898 _0908_
*2899 _0909_
*2900 _0910_
*2901 _0911_
*2902 _0912_
*2903 _0913_
*2904 _0914_
*2905 _0915_
*2906 _0916_
*2907 _0917_
*2908 _0918_
*2909 _0919_
*2910 _0920_
*2911 _0921_
*2912 _0922_
*2913 _0923_
*2914 _0924_
*2915 _0925_
*2916 _0926_
*2917 _0927_
*2918 _0928_
*2919 _0929_
*2920 _0930_
*2921 _0931_
*2922 _0932_
*2923 _0933_
*2924 _0934_
*2925 _0935_
*2926 _0936_
*2927 _0937_
*2928 _0938_
*2929 _0939_
*2930 _0940_
*2931 _0941_
*2932 _0942_
*2933 _0943_
*2934 _0944_
*2935 _0945_
*2936 _0946_
*2937 _0947_
*2938 _0948_
*2939 _0949_
*2940 _0950_
*2941 _0951_
*2942 _0952_
*2943 _0953_
*2944 _0954_
*2945 _0955_
*2946 _0956_
*2947 _0957_
*2948 _0958_
*2949 _0959_
*2950 _0960_
*2951 _0961_
*2952 _0962_
*2953 _0963_
*2954 _0964_
*2955 _0965_
*2956 _0966_
*2957 _0967_
*2958 _0968_
*2959 _0969_
*2960 _0970_
*2961 _0971_
*2962 _0972_
*2963 _0973_
*2964 _0974_
*2965 _0975_
*2966 _0976_
*2967 _0977_
*2968 _0978_
*2969 _0979_
*2970 _0980_
*2971 _0981_
*2972 _0982_
*2973 _0983_
*2974 _0984_
*2975 _0985_
*2976 _0986_
*2977 _0987_
*2978 _0988_
*2979 _0989_
*2980 _0990_
*2981 _0991_
*2982 _0992_
*2983 _0993_
*2984 _0994_
*2985 _0995_
*2986 _0996_
*2987 _0997_
*2988 _0998_
*2989 _0999_
*2990 _1000_
*2991 _1001_
*2992 _1002_
*2993 _1003_
*2994 _1004_
*2995 _1005_
*2996 _1006_
*2997 _1007_
*2998 _1008_
*2999 _1009_
*3000 _1010_
*3001 _1011_
*3002 _1012_
*3003 _1013_
*3004 _1014_
*3005 _1015_
*3006 _1016_
*3007 _1017_
*3008 _1018_
*3009 _1019_
*3010 _1020_
*3011 _1021_
*3012 _1022_
*3013 _1023_
*3014 _1024_
*3015 _1025_
*3016 _1026_
*3017 _1027_
*3018 _1028_
*3019 _1029_
*3020 _1030_
*3021 _1031_
*3022 _1032_
*3023 _1033_
*3024 _1034_
*3025 _1035_
*3026 _1036_
*3027 _1037_
*3028 _1038_
*3029 _1039_
*3030 _1040_
*3031 _1041_
*3032 _1042_
*3033 _1043_
*3034 _1044_
*3035 _1045_
*3036 _1046_
*3037 _1047_
*3038 _1048_
*3039 _1049_
*3040 _1050_
*3041 _1051_
*3042 _1052_
*3043 _1053_
*3044 _1054_
*3045 _1055_
*3046 _1056_
*3047 _1057_
*3048 _1058_
*3049 _1059_
*3050 _1060_
*3051 _1061_
*3052 _1062_
*3053 _1063_
*3054 _1064_
*3055 _1065_
*3056 _1066_
*3057 _1067_
*3058 _1068_
*3059 _1069_
*3060 _1070_
*3061 _1071_
*3062 _1072_
*3063 _1073_
*3064 _1074_
*3065 _1075_
*3066 _1076_
*3067 _1077_
*3068 _1078_
*3069 _1079_
*3070 _1080_
*3071 _1081_
*3072 _1082_
*3073 _1083_
*3074 _1084_
*3075 _1085_
*3076 _1086_
*3077 _1087_
*3078 _1088_
*3079 _1089_
*3080 _1090_
*3081 _1091_
*3082 _1092_
*3083 _1093_
*3084 _1094_
*3085 _1095_
*3086 _1096_
*3087 _1097_
*3088 _1098_
*3089 _1099_
*3090 _1100_
*3091 _1101_
*3092 _1102_
*3093 _1103_
*3094 _1104_
*3095 _1105_
*3096 _1106_
*3097 _1107_
*3098 _1108_
*3099 _1109_
*3100 _1110_
*3101 _1111_
*3102 _1112_
*3103 _1113_
*3104 _1114_
*3105 _1115_
*3106 _1116_
*3107 _1117_
*3108 _1118_
*3109 _1119_
*3110 _1120_
*3111 _1121_
*3112 _1122_
*3113 _1123_
*3114 _1124_
*3115 _1125_
*3116 _1126_
*3117 _1127_
*3118 _1128_
*3119 _1129_
*3120 _1130_
*3121 _1131_
*3122 _1132_
*3123 _1133_
*3124 _1134_
*3125 _1135_
*3126 _1136_
*3127 _1137_
*3128 _1138_
*3129 _1139_
*3130 _1140_
*3131 _1141_
*3132 _1142_
*3133 _1143_
*3134 _1144_
*3135 _1145_
*3136 _1146_
*3137 _1147_
*3138 _1148_
*3139 _1149_
*3140 _1150_
*3141 _1151_
*3142 _1152_
*3143 _1153_
*3144 _1154_
*3145 _1155_
*3146 _1156_
*3147 _1157_
*3148 _1158_
*3149 _1159_
*3150 _1160_
*3151 _1161_
*3152 _1162_
*3153 _1163_
*3154 _1164_
*3155 _1165_
*3156 _1166_
*3157 _1167_
*3158 _1168_
*3159 _1169_
*3160 _1170_
*3161 _1171_
*3162 _1172_
*3163 _1173_
*3164 _1174_
*3165 _1175_
*3166 _1176_
*3167 _1177_
*3168 _1178_
*3169 _1179_
*3170 _1180_
*3171 _1181_
*3172 _1182_
*3173 _1183_
*3174 _1184_
*3175 _1185_
*3176 _1186_
*3177 _1187_
*3178 _1188_
*3179 _1189_
*3180 _1190_
*3181 _1191_
*3182 _1192_
*3183 _1193_
*3184 _1194_
*3185 _1195_
*3186 _1196_
*3187 _1197_
*3188 _1198_
*3189 _1199_
*3190 _1200_
*3191 _1201_
*3192 _1202_
*3193 _1203_
*3194 _1204_
*3195 _1205_
*3196 _1206_
*3197 _1207_
*3198 _1208_
*3199 _1209_
*3200 _1210_
*3201 _1211_
*3202 _1212_
*3203 _1213_
*3204 _1214_
*3205 _1215_
*3206 _1216_
*3207 _1217_
*3208 _1218_
*3209 _1219_
*3210 _1220_
*3211 _1221_
*3212 _1222_
*3213 _1223_
*3214 _1224_
*3215 _1225_
*3216 _1226_
*3217 _1227_
*3218 _1228_
*3219 _1229_
*3220 _1230_
*3221 _1231_
*3222 _1232_
*3223 _1233_
*3224 _1234_
*3225 _1235_
*3226 _1236_
*3227 _1237_
*3228 _1238_
*3229 _1239_
*3230 _1240_
*3231 _1241_
*3232 _1242_
*3233 _1243_
*3234 _1244_
*3235 _1245_
*3236 _1246_
*3237 _1247_
*3238 _1248_
*3239 _1249_
*3240 _1250_
*3241 _1251_
*3242 _1252_
*3243 _1253_
*3244 _1254_
*3245 _1255_
*3246 _1256_
*3247 _1257_
*3248 _1258_
*3249 _1259_
*3250 _1260_
*3251 _1261_
*3252 _1262_
*3253 _1263_
*3254 _1264_
*3255 _1265_
*3256 _1266_
*3257 _1267_
*3258 _1268_
*3259 _1269_
*3260 _1270_
*3261 _1271_
*3262 _1272_
*3263 _1273_
*3264 _1274_
*3265 _1275_
*3266 _1276_
*3267 _1277_
*3268 _1278_
*3269 _1279_
*3270 _1280_
*3271 _1281_
*3272 _1282_
*3273 _1283_
*3274 _1284_
*3275 _1285_
*3276 _1286_
*3277 _1287_
*3278 _1288_
*3279 _1289_
*3280 _1290_
*3281 _1291_
*3282 _1292_
*3283 _1293_
*3284 _1294_
*3285 _1295_
*3286 _1296_
*3287 _1297_
*3288 _1298_
*3289 _1299_
*3290 _1300_
*3291 _1301_
*3292 _1302_
*3293 _1303_
*3294 _1304_
*3295 _1305_
*3296 _1306_
*3297 _1307_
*3298 _1308_
*3299 _1309_
*3300 _1310_
*3301 _1311_
*3302 _1312_
*3303 _1313_
*3304 _1314_
*3305 _1315_
*3306 _1316_
*3307 _1317_
*3308 _1318_
*3309 _1319_
*3310 _1320_
*3311 _1321_
*3312 _1322_
*3313 _1323_
*3314 _1324_
*3315 _1325_
*3316 _1326_
*3317 _1327_
*3318 _1328_
*3319 _1329_
*3320 _1330_
*3321 _1331_
*3322 _1332_
*3323 _1333_
*3324 _1334_
*3325 _1335_
*3326 _1336_
*3327 _1337_
*3328 _1338_
*3329 _1339_
*3330 _1340_
*3331 _1341_
*3332 _1342_
*3333 _1343_
*3334 _1344_
*3335 _1345_
*3336 _1346_
*3337 _1347_
*3338 _1348_
*3339 _1349_
*3340 _1350_
*3341 _1351_
*3342 _1352_
*3343 _1353_
*3344 _1354_
*3345 _1355_
*3346 _1356_
*3347 _1357_
*3348 _1358_
*3349 _1359_
*3350 _1360_
*3351 _1361_
*3352 _1362_
*3353 _1363_
*3354 _1364_
*3355 _1365_
*3356 _1366_
*3357 _1367_
*3358 _1368_
*3359 _1369_
*3360 _1370_
*3361 _1371_
*3362 _1372_
*3363 _1373_
*3364 _1374_
*3365 _1375_
*3366 _1376_
*3367 _1377_
*3368 _1378_
*3369 _1379_
*3370 _1380_
*3371 _1381_
*3372 _1382_
*3373 _1383_
*3374 _1384_
*3375 _1385_
*3376 _1386_
*3377 _1387_
*3378 _1388_
*3379 _1389_
*3380 _1390_
*3381 _1391_
*3382 _1392_
*3383 _1393_
*3384 _1394_
*3385 _1395_
*3386 _1396_
*3387 _1397_
*3388 _1398_
*3389 _1399_
*3390 _1400_
*3391 _1401_
*3392 _1402_
*3393 _1403_
*3394 _1404_
*3395 _1405_
*3396 _1406_
*3397 _1407_
*3398 _1408_
*3399 _1409_
*3400 _1410_
*3401 _1411_
*3402 _1412_
*3403 _1413_
*3404 _1414_
*3405 _1415_
*3406 _1416_
*3407 _1417_
*3408 _1418_
*3409 _1419_
*3410 _1420_
*3411 _1421_
*3412 _1422_
*3413 _1423_
*3414 _1424_
*3415 _1425_
*3416 _1426_
*3417 _1427_
*3418 _1428_
*3419 _1429_
*3420 _1430_
*3421 _1431_
*3422 _1432_
*3423 _1433_
*3424 _1434_
*3425 _1435_
*3426 _1436_
*3427 _1437_
*3428 _1438_
*3429 _1439_
*3430 _1440_
*3431 _1441_
*3432 _1442_
*3433 _1443_
*3434 _1444_
*3435 _1445_
*3436 _1446_
*3437 _1447_
*3438 _1448_
*3439 _1449_
*3440 _1450_
*3441 _1451_
*3442 _1452_
*3443 _1453_
*3444 _1454_
*3445 _1455_
*3446 _1456_
*3447 _1457_
*3448 _1458_
*3449 _1459_
*3450 _1460_
*3451 _1461_
*3452 _1462_
*3453 _1463_
*3454 _1464_
*3455 _1465_
*3456 _1466_
*3457 _1467_
*3458 _1468_
*3459 _1469_
*3460 _1470_
*3461 _1471_
*3462 _1472_
*3463 _1473_
*3464 _1474_
*3465 _1475_
*3466 _1476_
*3467 _1477_
*3468 _1478_
*3469 _1479_
*3470 _1480_
*3471 _1481_
*3472 _1482_
*3473 _1483_
*3474 _1484_
*3475 _1485_
*3476 _1486_
*3477 _1487_
*3478 _1488_
*3479 _1489_
*3480 _1490_
*3481 _1491_
*3482 _1492_
*3483 _1493_
*3484 _1494_
*3485 _1495_
*3486 _1496_
*3487 _1497_
*3488 _1498_
*3489 _1499_
*3490 _1500_
*3491 _1501_
*3492 _1502_
*3493 _1503_
*3494 _1504_
*3495 _1505_
*3496 _1506_
*3497 _1507_
*3498 _1508_
*3499 _1509_
*3500 _1510_
*3501 _1511_
*3502 _1512_
*3503 _1513_
*3504 _1514_
*3505 _1515_
*3506 _1516_
*3507 _1517_
*3508 _1518_
*3509 _1519_
*3510 _1520_
*3511 _1521_
*3512 _1522_
*3513 _1523_
*3514 _1524_
*3515 _1525_
*3516 _1526_
*3517 _1527_
*3518 _1528_
*3519 _1529_
*3520 _1530_
*3521 _1531_
*3522 _1532_
*3523 _1533_
*3524 _1534_
*3525 _1535_
*3526 _1536_
*3527 _1537_
*3528 _1538_
*3529 _1539_
*3530 _1540_
*3531 _1541_
*3532 _1542_
*3533 _1543_
*3534 _1544_
*3535 _1545_
*3536 _1546_
*3537 _1547_
*3538 _1548_
*3539 _1549_
*3540 _1550_
*3541 _1551_
*3542 _1552_
*3543 _1553_
*3544 _1554_
*3545 _1555_
*3546 _1556_
*3547 _1557_
*3548 _1558_
*3549 _1559_
*3550 _1560_
*3551 _1561_
*3552 _1562_
*3553 _1563_
*3554 _1564_
*3555 _1565_
*3556 _1566_
*3557 _1567_
*3558 _1568_
*3559 _1569_
*3560 _1570_
*3561 _1571_
*3562 _1572_
*3563 _1573_
*3564 _1574_
*3565 _1575_
*3566 _1576_
*3567 _1577_
*3568 _1578_
*3569 _1579_
*3570 _1580_
*3571 _1581_
*3572 _1582_
*3573 _1583_
*3574 _1584_
*3575 _1585_
*3576 _1586_
*3577 _1587_
*3578 _1588_
*3579 _1589_
*3580 _1590_
*3581 _1591_
*3582 _1592_
*3583 _1593_
*3584 _1594_
*3585 _1595_
*3586 _1596_
*3587 _1597_
*3588 _1598_
*3589 _1599_
*3590 _1600_
*3591 _1601_
*3592 _1602_
*3593 _1603_
*3594 _1604_
*3595 _1605_
*3596 _1606_
*3597 _1607_
*3598 _1608_
*3599 _1609_
*3600 _1610_
*3601 _1611_
*3602 _1612_
*3603 _1613_
*3604 _1614_
*3605 _1615_
*3606 _1616_
*3607 _1617_
*3608 _1618_
*3609 _1619_
*3610 _1620_
*3611 _1621_
*3612 _1622_
*3613 _1623_
*3614 _1624_
*3615 _1625_
*3616 _1626_
*3617 _1627_
*3618 _1628_
*3619 _1629_
*3620 _1630_
*3621 _1631_
*3622 _1632_
*3623 _1633_
*3624 _1634_
*3625 _1635_
*3626 _1636_
*3627 _1637_
*3628 _1638_
*3629 _1639_
*3630 _1640_
*3631 _1641_
*3632 _1642_
*3633 _1643_
*3634 _1644_
*3635 _1645_
*3636 _1646_
*3637 _1647_
*3638 _1648_
*3639 _1708_
*3640 _1709_
*3641 clkbuf_0_clk
*3642 clkbuf_3_0__f_clk
*3643 clkbuf_3_1__f_clk
*3644 clkbuf_3_2__f_clk
*3645 clkbuf_3_3__f_clk
*3646 clkbuf_3_4__f_clk
*3647 clkbuf_3_5__f_clk
*3648 clkbuf_3_6__f_clk
*3649 clkbuf_3_7__f_clk
*3650 clkload0
*3651 clkload1
*3652 clkload2
*3653 clkload3
*3654 clkload4
*3655 clkload5
*3656 clkload6
*3657 clone1
*3658 clone11
*3659 clone12
*3660 clone15
*3661 clone16
*3662 clone17
*3663 clone18
*3664 clone22
*3665 clone23
*3666 clone3
*3667 clone7
*3668 fanout16
*3669 fanout17
*3670 fanout18
*3671 fanout19
*3672 fanout24
*3673 fanout25
*3674 fanout26
*3675 fanout27
*3676 fanout28
*3677 fanout29
*3678 fanout30
*3679 fanout31
*3680 fanout32
*3681 fanout33
*3682 fanout34
*3683 fanout35
*3684 fanout36
*3685 fanout37
*3686 fanout38
*3687 fanout39
*3688 fanout40
*3689 fanout41
*3690 fanout42
*3691 fanout43
*3692 fanout44
*3693 fanout45
*3694 fanout46
*3695 fanout47
*3696 fanout48
*3697 fanout49
*3698 fanout50
*3699 fanout51
*3700 fanout52
*3701 fanout53
*3702 fanout54
*3703 fanout55
*3704 fanout56
*3705 fanout57
*3706 fanout58
*3707 fanout59
*3708 hold35
*3709 hold36
*3710 hold37
*3711 hold38
*3712 hold39
*3713 hold40
*3714 hold41
*3715 hold42
*3716 hold43
*3717 hold44
*3718 hold45
*3719 hold46
*3720 hold47
*3721 hold48
*3722 hold49
*3723 hold50
*3724 hold51
*3725 hold52
*3726 hold53
*3727 hold54
*3728 hold55
*3729 hold56
*3730 hold57
*3731 hold58
*3732 hold59
*3733 hold60
*3734 hold61
*3735 hold62
*3736 hold63
*3737 hold64
*3738 hold65
*3739 hold66
*3740 input1
*3741 input2
*3742 input3
*3743 input4
*3744 input5
*3745 input6
*3746 max_cap20
*3747 max_cap21
*3748 max_cap22
*3749 max_cap23
*3750 output10
*3751 output11
*3752 output12
*3753 output13
*3754 output14
*3755 output15
*3756 output7
*3757 output8
*3758 output9
*3759 rebuffer10
*3760 rebuffer13
*3761 rebuffer14
*3762 rebuffer19
*3763 rebuffer2
*3764 rebuffer20
*3765 rebuffer21
*3766 rebuffer24
*3767 rebuffer4
*3768 rebuffer5
*3769 rebuffer6
*3770 rebuffer8
*3771 rebuffer9
*3772 team_04_100
*3773 team_04_101
*3774 team_04_102
*3775 team_04_103
*3776 team_04_104
*3777 team_04_105
*3778 team_04_106
*3779 team_04_107
*3780 team_04_108
*3781 team_04_109
*3782 team_04_110
*3783 team_04_111
*3784 team_04_112
*3785 team_04_113
*3786 team_04_114
*3787 team_04_115
*3788 team_04_116
*3789 team_04_117
*3790 team_04_118
*3791 team_04_60
*3792 team_04_61
*3793 team_04_62
*3794 team_04_63
*3795 team_04_64
*3796 team_04_65
*3797 team_04_66
*3798 team_04_67
*3799 team_04_68
*3800 team_04_69
*3801 team_04_70
*3802 team_04_71
*3803 team_04_72
*3804 team_04_73
*3805 team_04_74
*3806 team_04_75
*3807 team_04_76
*3808 team_04_77
*3809 team_04_78
*3810 team_04_79
*3811 team_04_80
*3812 team_04_81
*3813 team_04_82
*3814 team_04_83
*3815 team_04_84
*3816 team_04_85
*3817 team_04_86
*3818 team_04_87
*3819 team_04_88
*3820 team_04_89
*3821 team_04_90
*3822 team_04_91
*3823 team_04_92
*3824 team_04_93
*3825 team_04_94
*3826 team_04_95
*3827 team_04_96
*3828 team_04_97
*3829 team_04_98
*3830 team_04_99

*PORTS
clk I
en I
gpio_in[0] I
gpio_in[10] I
gpio_in[11] I
gpio_in[12] I
gpio_in[13] I
gpio_in[14] I
gpio_in[15] I
gpio_in[16] I
gpio_in[17] I
gpio_in[18] I
gpio_in[19] I
gpio_in[1] I
gpio_in[20] I
gpio_in[21] I
gpio_in[22] I
gpio_in[23] I
gpio_in[24] I
gpio_in[25] I
gpio_in[26] I
gpio_in[27] I
gpio_in[28] I
gpio_in[29] I
gpio_in[2] I
gpio_in[30] I
gpio_in[31] I
gpio_in[32] I
gpio_in[33] I
gpio_in[3] I
gpio_in[4] I
gpio_in[5] I
gpio_in[6] I
gpio_in[7] I
gpio_in[8] I
gpio_in[9] I
gpio_oeb[0] O
gpio_oeb[10] O
gpio_oeb[11] O
gpio_oeb[12] O
gpio_oeb[13] O
gpio_oeb[14] O
gpio_oeb[15] O
gpio_oeb[16] O
gpio_oeb[17] O
gpio_oeb[18] O
gpio_oeb[19] O
gpio_oeb[1] O
gpio_oeb[20] O
gpio_oeb[21] O
gpio_oeb[22] O
gpio_oeb[23] O
gpio_oeb[24] O
gpio_oeb[25] O
gpio_oeb[26] O
gpio_oeb[27] O
gpio_oeb[28] O
gpio_oeb[29] O
gpio_oeb[2] O
gpio_oeb[30] O
gpio_oeb[31] O
gpio_oeb[32] O
gpio_oeb[33] O
gpio_oeb[3] O
gpio_oeb[4] O
gpio_oeb[5] O
gpio_oeb[6] O
gpio_oeb[7] O
gpio_oeb[8] O
gpio_oeb[9] O
gpio_out[0] O
gpio_out[10] O
gpio_out[11] O
gpio_out[12] O
gpio_out[13] O
gpio_out[14] O
gpio_out[15] O
gpio_out[16] O
gpio_out[17] O
gpio_out[18] O
gpio_out[19] O
gpio_out[1] O
gpio_out[20] O
gpio_out[21] O
gpio_out[22] O
gpio_out[23] O
gpio_out[24] O
gpio_out[25] O
gpio_out[26] O
gpio_out[27] O
gpio_out[28] O
gpio_out[29] O
gpio_out[2] O
gpio_out[30] O
gpio_out[31] O
gpio_out[32] O
gpio_out[33] O
gpio_out[3] O
gpio_out[4] O
gpio_out[5] O
gpio_out[6] O
gpio_out[7] O
gpio_out[8] O
gpio_out[9] O
nrst I

*D_NET *1 0.0149913
*CONN
*P clk I
*I *3641:A I *D sky130_fd_sc_hd__clkbuf_16
*I *1113:DIODE I *D sky130_fd_sc_hd__diode_2
*CAP
1 clk 0.00219492
2 *3641:A 8.41781e-05
3 *1113:DIODE 0
4 *1:27 0.000142692
5 *1:21 0.0038844
6 *1:19 0.0060208
7 *3641:A *254:62 0.000122443
8 *1:21 *2786:A_N 3.18676e-05
9 *1:21 *2789:A2 0.000227532
10 *1:21 *2798:A1_N 1.02821e-05
11 *1:21 *2798:B1 0.000310616
12 *1:21 *2799:A2 9.22103e-06
13 *1:21 *2800:B2 0.000184745
14 *1:21 *2801:A1 1.32552e-05
15 *1:21 *2801:A2 5.33005e-05
16 *1:21 *2801:A3 5.33005e-05
17 *1:21 *2802:A2 1.74352e-05
18 *1:21 *2802:C1 0.000129881
19 *1:21 *3576:CLK 0.000332911
20 *1:21 *3576:RESET_B 4.31484e-05
21 *1:21 *255:29 0.000791214
22 *1:21 *263:6 2.24763e-05
23 *1:21 *984:10 0.000271352
24 *1:27 *264:61 3.92854e-05
*RES
1 clk *1:19 39.0406 
2 *1:19 *1:21 51.0536 
3 *1:21 *1:27 10.0357 
4 *1:27 *1113:DIODE 9.3 
5 *1:27 *3641:A 11.2821 
*END

*D_NET *2 0.000860958
*CONN
*P en I
*I *3740:A I *D sky130_fd_sc_hd__clkbuf_1
*I *1131:DIODE I *D sky130_fd_sc_hd__diode_2
*CAP
1 en 0.000357841
2 *3740:A 7.26378e-05
3 *1131:DIODE 0
4 *2:7 0.000430479
5 *2:7 gpio_oeb[28] 0
*RES
1 en *2:7 11.3929 
2 *2:7 *1131:DIODE 9.3 
3 *2:7 *3740:A 10.5679 
*END

*D_NET *3 0.000758746
*CONN
*P gpio_in[0] I
*I *1132:DIODE I *D sky130_fd_sc_hd__diode_2
*I *3741:A I *D sky130_fd_sc_hd__clkbuf_1
*CAP
1 gpio_in[0] 0.000273907
2 *1132:DIODE 5.51514e-05
3 *3741:A 0
4 *3:13 0.000329058
5 *1132:DIODE *3575:CLK 7.17235e-05
6 *3:13 *2892:B 0
7 *3:13 *3575:CLK 2.8906e-05
8 *3:13 *14:13 0
*RES
1 gpio_in[0] *3:13 10.5359 
2 *3:13 *3741:A 9.3 
3 *3:13 *1132:DIODE 10.6571 
*END

*D_NET *14 0.00211888
*CONN
*P gpio_in[1] I
*I *3742:A I *D sky130_fd_sc_hd__clkbuf_1
*I *1133:DIODE I *D sky130_fd_sc_hd__diode_2
*CAP
1 gpio_in[1] 0.000504112
2 *3742:A 0.000158016
3 *1133:DIODE 0
4 *14:13 0.000662128
5 *3742:A *1135:DIODE 0.000245733
6 *14:13 *1135:DIODE 0.000273269
7 *14:13 *3577:CLK 0.000101535
8 *14:13 *3577:D 0
9 *14:13 *30:13 0.000174085
10 *3:13 *14:13 0
*RES
1 gpio_in[1] *14:13 16.0359 
2 *14:13 *1133:DIODE 9.3 
3 *14:13 *3742:A 13.1571 
*END

*D_NET *25 0.000806286
*CONN
*P gpio_in[2] I
*I *1134:DIODE I *D sky130_fd_sc_hd__diode_2
*I *3743:A I *D sky130_fd_sc_hd__clkbuf_1
*CAP
1 gpio_in[2] 0.000215817
2 *1134:DIODE 0.00015293
3 *3743:A 3.4396e-05
4 *25:9 0.000403143
5 *25:9 *30:13 0
6 *25:9 *970:26 0
*RES
1 gpio_in[2] *25:9 4.55436 
2 *25:9 *3743:A 14.3357 
3 *25:9 *1134:DIODE 15.9786 
*END

*D_NET *30 0.00146255
*CONN
*P gpio_in[3] I
*I *3744:A I *D sky130_fd_sc_hd__clkbuf_1
*I *1135:DIODE I *D sky130_fd_sc_hd__diode_2
*CAP
1 gpio_in[3] 0.000260412
2 *3744:A 0
3 *1135:DIODE 0.000114333
4 *30:13 0.000374745
5 *30:13 *3571:D 1.99737e-05
6 *30:13 *970:28 0
7 *3742:A *1135:DIODE 0.000245733
8 *14:13 *1135:DIODE 0.000273269
9 *14:13 *30:13 0.000174085
10 *25:9 *30:13 0
*RES
1 gpio_in[3] *30:13 10.8044 
2 *30:13 *1135:DIODE 13.1393 
3 *30:13 *3744:A 9.3 
*END

*D_NET *37 0.00238375
*CONN
*P gpio_oeb[0] O
*I *3825:HI O *D sky130_fd_sc_hd__conb_1
*CAP
1 gpio_oeb[0] 0.000877496
2 *3825:HI 0.000877496
3 gpio_oeb[0] gpio_oeb[14] 0.000527387
4 gpio_oeb[0] gpio_oeb[1] 9.34513e-05
5 gpio_oeb[0] gpio_out[4] 7.91968e-06
*RES
1 *3825:HI gpio_oeb[0] 41.3167 
*END

*D_NET *38 0.000690926
*CONN
*P gpio_oeb[10] O
*I *3797:LO O *D sky130_fd_sc_hd__conb_1
*CAP
1 gpio_oeb[10] 0.000315472
2 *3797:LO 0.000315472
3 gpio_oeb[10] gpio_oeb[7] 2.99915e-05
4 gpio_oeb[10] gpio_out[19] 2.99915e-05
*RES
1 *3797:LO gpio_oeb[10] 21.6946 
*END

*D_NET *39 0.000841803
*CONN
*P gpio_oeb[11] O
*I *3798:LO O *D sky130_fd_sc_hd__conb_1
*CAP
1 gpio_oeb[11] 0.000420901
2 *3798:LO 0.000420901
3 gpio_oeb[11] gpio_oeb[20] 0
4 gpio_oeb[11] gpio_out[29] 0
*RES
1 *3798:LO gpio_oeb[11] 22.1393 
*END

*D_NET *40 0.00132364
*CONN
*P gpio_oeb[12] O
*I *3799:LO O *D sky130_fd_sc_hd__conb_1
*CAP
1 gpio_oeb[12] 0.000401566
2 *3799:LO 0.000401566
3 gpio_oeb[12] gpio_oeb[15] 7.32955e-05
4 gpio_oeb[12] gpio_oeb[32] 0.00025801
5 gpio_oeb[12] gpio_out[27] 0.0001892
*RES
1 *3799:LO gpio_oeb[12] 24.3722 
*END

*D_NET *41 0.000841803
*CONN
*P gpio_oeb[13] O
*I *3800:LO O *D sky130_fd_sc_hd__conb_1
*CAP
1 gpio_oeb[13] 0.000420901
2 *3800:LO 0.000420901
3 gpio_oeb[13] gpio_oeb[27] 0
*RES
1 *3800:LO gpio_oeb[13] 22.1393 
*END

*D_NET *42 0.00184051
*CONN
*P gpio_oeb[14] O
*I *3801:LO O *D sky130_fd_sc_hd__conb_1
*CAP
1 gpio_oeb[14] 0.000551612
2 *3801:LO 0.000551612
3 gpio_oeb[14] gpio_oeb[1] 0.000102129
4 gpio_oeb[14] gpio_out[18] 7.20443e-06
5 gpio_oeb[14] gpio_out[4] 6.75229e-05
6 gpio_oeb[14] *3752:A 3.30448e-05
7 gpio_oeb[0] gpio_oeb[14] 0.000527387
*RES
1 *3801:LO gpio_oeb[14] 29.4768 
*END

*D_NET *43 0.000970024
*CONN
*P gpio_oeb[15] O
*I *3802:LO O *D sky130_fd_sc_hd__conb_1
*CAP
1 gpio_oeb[15] 0.000325701
2 *3802:LO 0.000325701
3 gpio_oeb[15] gpio_oeb[26] 2.87684e-05
4 gpio_oeb[15] gpio_oeb[32] 0.00014784
5 gpio_oeb[15] gpio_out[27] 6.87181e-05
6 gpio_oeb[12] gpio_oeb[15] 7.32955e-05
*RES
1 *3802:LO gpio_oeb[15] 22.6739 
*END

*D_NET *44 0.000810554
*CONN
*P gpio_oeb[16] O
*I *3829:HI O *D sky130_fd_sc_hd__conb_1
*CAP
1 gpio_oeb[16] 0.000405277
2 *3829:HI 0.000405277
*RES
1 *3829:HI gpio_oeb[16] 21.2286 
*END

*D_NET *45 0.000810554
*CONN
*P gpio_oeb[17] O
*I *3830:HI O *D sky130_fd_sc_hd__conb_1
*CAP
1 gpio_oeb[17] 0.000405277
2 *3830:HI 0.000405277
3 gpio_oeb[17] gpio_out[2] 0
*RES
1 *3830:HI gpio_oeb[17] 21.2286 
*END

*D_NET *46 0.000577647
*CONN
*P gpio_oeb[18] O
*I *3772:HI O *D sky130_fd_sc_hd__conb_1
*CAP
1 gpio_oeb[18] 0.000260238
2 *3772:HI 0.000260238
3 gpio_oeb[18] gpio_oeb[2] 2.71788e-05
4 gpio_oeb[18] gpio_oeb[6] 2.99915e-05
*RES
1 *3772:HI gpio_oeb[18] 20.4803 
*END

*D_NET *47 0.000502776
*CONN
*P gpio_oeb[19] O
*I *3773:HI O *D sky130_fd_sc_hd__conb_1
*CAP
1 gpio_oeb[19] 0.000170113
2 *3773:HI 0.000170113
3 gpio_oeb[19] gpio_oeb[30] 8.57347e-05
4 gpio_oeb[19] gpio_out[23] 7.68146e-05
*RES
1 *3773:HI gpio_oeb[19] 18.73 
*END

*D_NET *48 0.00192744
*CONN
*P gpio_oeb[1] O
*I *3826:HI O *D sky130_fd_sc_hd__conb_1
*CAP
1 gpio_oeb[1] 0.000604499
2 *3826:HI 0.000604499
3 gpio_oeb[1] gpio_out[4] 0.000121638
4 gpio_oeb[1] *2785:A 0.000144773
5 gpio_oeb[1] *3752:A 0.000239011
6 gpio_oeb[1] *108:39 1.74352e-05
7 gpio_oeb[0] gpio_oeb[1] 9.34513e-05
8 gpio_oeb[14] gpio_oeb[1] 0.000102129
*RES
1 *3826:HI gpio_oeb[1] 27.8722 
*END

*D_NET *49 0.000871509
*CONN
*P gpio_oeb[20] O
*I *3774:HI O *D sky130_fd_sc_hd__conb_1
*CAP
1 gpio_oeb[20] 0.000435755
2 *3774:HI 0.000435755
3 gpio_oeb[20] gpio_out[26] 0
4 gpio_oeb[11] gpio_oeb[20] 0
*RES
1 *3774:HI gpio_oeb[20] 22.4429 
*END

*D_NET *50 0.000810554
*CONN
*P gpio_oeb[21] O
*I *3775:HI O *D sky130_fd_sc_hd__conb_1
*CAP
1 gpio_oeb[21] 0.000405277
2 *3775:HI 0.000405277
3 gpio_oeb[21] gpio_oeb[9] 0
*RES
1 *3775:HI gpio_oeb[21] 21.2286 
*END

*D_NET *51 0.000805986
*CONN
*P gpio_oeb[22] O
*I *3776:HI O *D sky130_fd_sc_hd__conb_1
*CAP
1 gpio_oeb[22] 0.000402993
2 *3776:HI 0.000402993
3 gpio_oeb[22] gpio_oeb[28] 0
4 gpio_oeb[22] gpio_out[2] 0
*RES
1 *3776:HI gpio_oeb[22] 21.2286 
*END

*D_NET *52 0.00127557
*CONN
*P gpio_oeb[23] O
*I *3777:HI O *D sky130_fd_sc_hd__conb_1
*CAP
1 gpio_oeb[23] 0.000544212
2 *3777:HI 0.000544212
3 gpio_oeb[23] gpio_out[0] 3.14193e-05
4 gpio_oeb[23] *2912:A1 5.71472e-05
5 gpio_oeb[23] *2912:A2 4.14279e-05
6 gpio_oeb[23] *2912:B1 5.71472e-05
*RES
1 *3777:HI gpio_oeb[23] 24.675 
*END

*D_NET *53 0.000871509
*CONN
*P gpio_oeb[24] O
*I *3778:HI O *D sky130_fd_sc_hd__conb_1
*CAP
1 gpio_oeb[24] 0.000435755
2 *3778:HI 0.000435755
*RES
1 *3778:HI gpio_oeb[24] 22.4429 
*END

*D_NET *54 0.000565194
*CONN
*P gpio_oeb[25] O
*I *3779:HI O *D sky130_fd_sc_hd__conb_1
*CAP
1 gpio_oeb[25] 0.000239729
2 *3779:HI 0.000239729
3 gpio_oeb[25] gpio_out[32] 0
4 gpio_oeb[25] gpio_out[7] 8.57347e-05
*RES
1 *3779:HI gpio_oeb[25] 19.3371 
*END

*D_NET *55 0.000733808
*CONN
*P gpio_oeb[26] O
*I *3780:HI O *D sky130_fd_sc_hd__conb_1
*CAP
1 gpio_oeb[26] 0.000266544
2 *3780:HI 0.000266544
3 gpio_oeb[26] gpio_oeb[2] 2.71788e-05
4 gpio_oeb[26] gpio_out[27] 0.000144773
5 gpio_oeb[15] gpio_oeb[26] 2.87684e-05
*RES
1 *3780:HI gpio_oeb[26] 21.0874 
*END

*D_NET *56 0.000871509
*CONN
*P gpio_oeb[27] O
*I *3781:HI O *D sky130_fd_sc_hd__conb_1
*CAP
1 gpio_oeb[27] 0.000435755
2 *3781:HI 0.000435755
3 gpio_oeb[27] gpio_out[24] 0
4 gpio_oeb[13] gpio_oeb[27] 0
*RES
1 *3781:HI gpio_oeb[27] 22.4429 
*END

*D_NET *57 0.000810554
*CONN
*P gpio_oeb[28] O
*I *3782:HI O *D sky130_fd_sc_hd__conb_1
*CAP
1 gpio_oeb[28] 0.000405277
2 *3782:HI 0.000405277
3 gpio_oeb[22] gpio_oeb[28] 0
4 *2:7 gpio_oeb[28] 0
*RES
1 *3782:HI gpio_oeb[28] 21.2286 
*END

*D_NET *58 0.000871509
*CONN
*P gpio_oeb[29] O
*I *3783:HI O *D sky130_fd_sc_hd__conb_1
*CAP
1 gpio_oeb[29] 0.000435755
2 *3783:HI 0.000435755
3 gpio_oeb[29] gpio_oeb[8] 0
4 gpio_oeb[29] gpio_out[29] 0
*RES
1 *3783:HI gpio_oeb[29] 22.4429 
*END

*D_NET *59 0.000694276
*CONN
*P gpio_oeb[2] O
*I *3827:HI O *D sky130_fd_sc_hd__conb_1
*CAP
1 gpio_oeb[2] 0.000319959
2 *3827:HI 0.000319959
3 gpio_oeb[18] gpio_oeb[2] 2.71788e-05
4 gpio_oeb[26] gpio_oeb[2] 2.71788e-05
*RES
1 *3827:HI gpio_oeb[2] 21.391 
*END

*D_NET *60 0.00052032
*CONN
*P gpio_oeb[30] O
*I *3784:HI O *D sky130_fd_sc_hd__conb_1
*CAP
1 gpio_oeb[30] 0.000175712
2 *3784:HI 0.000175712
3 gpio_oeb[30] gpio_out[6] 8.31618e-05
4 gpio_oeb[19] gpio_oeb[30] 8.57347e-05
*RES
1 *3784:HI gpio_oeb[30] 18.73 
*END

*D_NET *61 0.00143463
*CONN
*P gpio_oeb[31] O
*I *3785:HI O *D sky130_fd_sc_hd__conb_1
*CAP
1 gpio_oeb[31] 0.000352172
2 *3785:HI 0.000352172
3 gpio_oeb[31] gpio_out[30] 8.57347e-05
4 gpio_oeb[31] gpio_out[33] 0.000644552
*RES
1 *3785:HI gpio_oeb[31] 24.8014 
*END

*D_NET *62 0.000952181
*CONN
*P gpio_oeb[32] O
*I *3786:HI O *D sky130_fd_sc_hd__conb_1
*CAP
1 gpio_oeb[32] 0.00019059
2 *3786:HI 0.00019059
3 gpio_oeb[32] gpio_out[27] 0.000165152
4 gpio_oeb[12] gpio_oeb[32] 0.00025801
5 gpio_oeb[15] gpio_oeb[32] 0.00014784
*RES
1 *3786:HI gpio_oeb[32] 20.7466 
*END

*D_NET *63 0.000589368
*CONN
*P gpio_oeb[33] O
*I *3787:HI O *D sky130_fd_sc_hd__conb_1
*CAP
1 gpio_oeb[33] 0.000264241
2 *3787:HI 0.000264241
3 gpio_oeb[33] gpio_out[19] 2.71788e-05
4 gpio_oeb[33] gpio_out[3] 3.37077e-05
*RES
1 *3787:HI gpio_oeb[33] 20.4803 
*END

*D_NET *64 0.000522488
*CONN
*P gpio_oeb[3] O
*I *3828:HI O *D sky130_fd_sc_hd__conb_1
*CAP
1 gpio_oeb[3] 0.000171015
2 *3828:HI 0.000171015
3 gpio_oeb[3] gpio_out[17] 8.31618e-05
4 gpio_oeb[3] gpio_out[21] 7.68146e-05
5 gpio_oeb[3] gpio_out[33] 2.04825e-05
*RES
1 *3828:HI gpio_oeb[3] 18.73 
*END

*D_NET *65 0.000640111
*CONN
*P gpio_oeb[4] O
*I *3791:LO O *D sky130_fd_sc_hd__conb_1
*CAP
1 gpio_oeb[4] 0.00029147
2 *3791:LO 0.00029147
3 gpio_oeb[4] gpio_oeb[6] 2.71788e-05
4 gpio_oeb[4] gpio_out[28] 2.99915e-05
*RES
1 *3791:LO gpio_oeb[4] 21.0874 
*END

*D_NET *66 0.00132318
*CONN
*P gpio_oeb[5] O
*I *3792:LO O *D sky130_fd_sc_hd__conb_1
*CAP
1 gpio_oeb[5] 0.000580806
2 *3792:LO 0.000580806
3 gpio_oeb[5] *2803:A_N 5.71472e-05
4 gpio_oeb[5] *2803:B 1.28809e-05
5 gpio_oeb[5] *2840:A1 6.2638e-05
6 gpio_oeb[5] *268:6 2.89016e-05
7 gpio_oeb[5] *268:12 0
*RES
1 *3792:LO gpio_oeb[5] 25.0143 
*END

*D_NET *67 0.000577682
*CONN
*P gpio_oeb[6] O
*I *3793:LO O *D sky130_fd_sc_hd__conb_1
*CAP
1 gpio_oeb[6] 0.000260256
2 *3793:LO 0.000260256
3 gpio_oeb[18] gpio_oeb[6] 2.99915e-05
4 gpio_oeb[4] gpio_oeb[6] 2.71788e-05
*RES
1 *3793:LO gpio_oeb[6] 20.4803 
*END

*D_NET *68 0.000582285
*CONN
*P gpio_oeb[7] O
*I *3794:LO O *D sky130_fd_sc_hd__conb_1
*CAP
1 gpio_oeb[7] 0.000276147
2 *3794:LO 0.000276147
3 gpio_oeb[10] gpio_oeb[7] 2.99915e-05
*RES
1 *3794:LO gpio_oeb[7] 20.4803 
*END

*D_NET *69 0.000841803
*CONN
*P gpio_oeb[8] O
*I *3795:LO O *D sky130_fd_sc_hd__conb_1
*CAP
1 gpio_oeb[8] 0.000420901
2 *3795:LO 0.000420901
3 gpio_oeb[8] gpio_out[20] 0
4 gpio_oeb[29] gpio_oeb[8] 0
*RES
1 *3795:LO gpio_oeb[8] 22.1393 
*END

*D_NET *70 0.000847878
*CONN
*P gpio_oeb[9] O
*I *3796:LO O *D sky130_fd_sc_hd__conb_1
*CAP
1 gpio_oeb[9] 0.000423939
2 *3796:LO 0.000423939
3 gpio_oeb[21] gpio_oeb[9] 0
*RES
1 *3796:LO gpio_oeb[9] 21.8357 
*END

*D_NET *71 0.00249125
*CONN
*P gpio_out[0] O
*I *3803:LO O *D sky130_fd_sc_hd__conb_1
*CAP
1 gpio_out[0] 0.000816995
2 *3803:LO 0.000816995
3 gpio_out[0] *2907:B 0
4 gpio_out[0] *2912:A2 0.000399841
5 gpio_out[0] *3601:D 5.52302e-05
6 gpio_out[0] *3603:D 9.80173e-05
7 gpio_out[0] *3729:A 0.00027275
8 gpio_oeb[23] gpio_out[0] 3.14193e-05
*RES
1 *3803:LO gpio_out[0] 30.2464 
*END

*D_NET *72 0.000847593
*CONN
*P gpio_out[10] O
*I *3756:X O *D sky130_fd_sc_hd__buf_2
*CAP
1 gpio_out[10] 0.000391559
2 *3756:X 0.000391559
3 gpio_out[10] gpio_out[12] 0
4 gpio_out[10] gpio_out[14] 0
5 gpio_out[10] *2840:A1 5.52238e-05
6 gpio_out[10] *1077:49 9.25014e-06
*RES
1 *3756:X gpio_out[10] 21.2286 
*END

*D_NET *73 0.00162131
*CONN
*P gpio_out[11] O
*I *3757:X O *D sky130_fd_sc_hd__buf_2
*CAP
1 gpio_out[11] 0.000607793
2 *3757:X 0.000607793
3 gpio_out[11] gpio_out[12] 0
4 gpio_out[11] *2840:A1 0.000405727
*RES
1 *3757:X gpio_out[11] 24.5143 
*END

*D_NET *74 0.00114164
*CONN
*P gpio_out[12] O
*I *3758:X O *D sky130_fd_sc_hd__buf_2
*CAP
1 gpio_out[12] 0.000477489
2 *3758:X 0.000477489
3 gpio_out[12] *2840:A1 0.000186662
4 gpio_out[10] gpio_out[12] 0
5 gpio_out[11] gpio_out[12] 0
*RES
1 *3758:X gpio_out[12] 22.4607 
*END

*D_NET *75 0.00101504
*CONN
*P gpio_out[13] O
*I *3750:X O *D sky130_fd_sc_hd__buf_2
*CAP
1 gpio_out[13] 0.000458
2 *3750:X 0.000458
3 gpio_out[13] gpio_out[14] 0
4 gpio_out[13] *1077:43 9.90431e-05
*RES
1 *3750:X gpio_out[13] 22.05 
*END

*D_NET *76 0.00140821
*CONN
*P gpio_out[14] O
*I *3751:X O *D sky130_fd_sc_hd__buf_2
*CAP
1 gpio_out[14] 0.000559225
2 *3751:X 0.000559225
3 gpio_out[14] *2834:A2 5.33005e-05
4 gpio_out[14] *2834:B1 0
5 gpio_out[14] *2842:A2 9.41642e-05
6 gpio_out[14] *3751:A 6.64853e-05
7 gpio_out[14] *293:12 3.17148e-05
8 gpio_out[14] *1077:43 4.40915e-05
9 gpio_out[14] *1077:49 0
10 gpio_out[10] gpio_out[14] 0
11 gpio_out[13] gpio_out[14] 0
*RES
1 *3751:X gpio_out[14] 24.4964 
*END

*D_NET *77 0.000871509
*CONN
*P gpio_out[15] O
*I *3790:HI O *D sky130_fd_sc_hd__conb_1
*CAP
1 gpio_out[15] 0.000435755
2 *3790:HI 0.000435755
3 gpio_out[15] gpio_out[20] 0
*RES
1 *3790:HI gpio_out[15] 22.4429 
*END

*D_NET *78 0.000490209
*CONN
*P gpio_out[16] O
*I *3807:LO O *D sky130_fd_sc_hd__conb_1
*CAP
1 gpio_out[16] 0.000206435
2 *3807:LO 0.000206435
3 gpio_out[16] gpio_out[5] 3.19385e-05
4 gpio_out[16] gpio_out[8] 3.71658e-05
5 gpio_out[16] gpio_out[9] 0
6 gpio_out[16] *3600:CLK 8.23597e-06
*RES
1 *3807:LO gpio_out[16] 18.9251 
*END

*D_NET *79 0.000770288
*CONN
*P gpio_out[17] O
*I *3808:LO O *D sky130_fd_sc_hd__conb_1
*CAP
1 gpio_out[17] 0.000237895
2 *3808:LO 0.000237895
3 gpio_out[17] gpio_out[30] 0.000151603
4 gpio_out[17] gpio_out[33] 5.9734e-05
5 gpio_oeb[3] gpio_out[17] 8.31618e-05
*RES
1 *3808:LO gpio_out[17] 19.5533 
*END

*D_NET *80 0.000615251
*CONN
*P gpio_out[18] O
*I *3809:LO O *D sky130_fd_sc_hd__conb_1
*CAP
1 gpio_out[18] 0.000273127
2 *3809:LO 0.000273127
3 gpio_out[18] gpio_out[4] 2.71788e-05
4 gpio_out[18] gpio_out[5] 2.71788e-05
5 gpio_out[18] *3600:CLK 7.43578e-06
6 gpio_oeb[14] gpio_out[18] 7.20443e-06
*RES
1 *3809:LO gpio_out[18] 20.4803 
*END

*D_NET *81 0.00065515
*CONN
*P gpio_out[19] O
*I *3810:LO O *D sky130_fd_sc_hd__conb_1
*CAP
1 gpio_out[19] 0.00029899
2 *3810:LO 0.00029899
3 gpio_oeb[10] gpio_out[19] 2.99915e-05
4 gpio_oeb[33] gpio_out[19] 2.71788e-05
*RES
1 *3810:LO gpio_out[19] 20.4803 
*END

*D_NET *82 0.000447393
*CONN
*P gpio_out[1] O
*I *3804:LO O *D sky130_fd_sc_hd__conb_1
*CAP
1 gpio_out[1] 0.000143708
2 *3804:LO 0.000143708
3 gpio_out[1] gpio_out[22] 7.68146e-05
4 gpio_out[1] gpio_out[6] 8.31618e-05
*RES
1 *3804:LO gpio_out[1] 18.1229 
*END

*D_NET *83 0.000841803
*CONN
*P gpio_out[20] O
*I *3811:LO O *D sky130_fd_sc_hd__conb_1
*CAP
1 gpio_out[20] 0.000420901
2 *3811:LO 0.000420901
3 gpio_oeb[8] gpio_out[20] 0
4 gpio_out[15] gpio_out[20] 0
*RES
1 *3811:LO gpio_out[20] 22.1393 
*END

*D_NET *84 0.000438641
*CONN
*P gpio_out[21] O
*I *3812:LO O *D sky130_fd_sc_hd__conb_1
*CAP
1 gpio_out[21] 0.000138046
2 *3812:LO 0.000138046
3 gpio_out[21] gpio_out[31] 8.57347e-05
4 gpio_oeb[3] gpio_out[21] 7.68146e-05
*RES
1 *3812:LO gpio_out[21] 18.1229 
*END

*D_NET *85 0.000511528
*CONN
*P gpio_out[22] O
*I *3813:LO O *D sky130_fd_sc_hd__conb_1
*CAP
1 gpio_out[22] 0.000175776
2 *3813:LO 0.000175776
3 gpio_out[22] *105:11 8.31618e-05
4 gpio_out[1] gpio_out[22] 7.68146e-05
*RES
1 *3813:LO gpio_out[22] 18.73 
*END

*D_NET *86 0.000441893
*CONN
*P gpio_out[23] O
*I *3814:LO O *D sky130_fd_sc_hd__conb_1
*CAP
1 gpio_out[23] 0.000182539
2 *3814:LO 0.000182539
3 gpio_oeb[19] gpio_out[23] 7.68146e-05
*RES
1 *3814:LO gpio_out[23] 18.1229 
*END

*D_NET *87 0.000841803
*CONN
*P gpio_out[24] O
*I *3815:LO O *D sky130_fd_sc_hd__conb_1
*CAP
1 gpio_out[24] 0.000420901
2 *3815:LO 0.000420901
3 gpio_oeb[27] gpio_out[24] 0
*RES
1 *3815:LO gpio_out[24] 22.1393 
*END

*D_NET *88 0.000852951
*CONN
*P gpio_out[25] O
*I *3816:LO O *D sky130_fd_sc_hd__conb_1
*CAP
1 gpio_out[25] 0.00041202
2 *3816:LO 0.00041202
3 gpio_out[25] *108:39 2.89114e-05
*RES
1 *3816:LO gpio_out[25] 21.8357 
*END

*D_NET *89 0.000841803
*CONN
*P gpio_out[26] O
*I *3817:LO O *D sky130_fd_sc_hd__conb_1
*CAP
1 gpio_out[26] 0.000420901
2 *3817:LO 0.000420901
3 gpio_oeb[20] gpio_out[26] 0
*RES
1 *3817:LO gpio_out[26] 22.1393 
*END

*D_NET *90 0.00199945
*CONN
*P gpio_out[27] O
*I *3818:LO O *D sky130_fd_sc_hd__conb_1
*CAP
1 gpio_out[27] 0.000715806
2 *3818:LO 0.000715806
3 gpio_oeb[12] gpio_out[27] 0.0001892
4 gpio_oeb[15] gpio_out[27] 6.87181e-05
5 gpio_oeb[26] gpio_out[27] 0.000144773
6 gpio_oeb[32] gpio_out[27] 0.000165152
*RES
1 *3818:LO gpio_out[27] 30.8174 
*END

*D_NET *91 0.000707848
*CONN
*P gpio_out[28] O
*I *3819:LO O *D sky130_fd_sc_hd__conb_1
*CAP
1 gpio_out[28] 0.000327631
2 *3819:LO 0.000327631
3 gpio_out[28] gpio_out[3] 2.25951e-05
4 gpio_oeb[4] gpio_out[28] 2.99915e-05
*RES
1 *3819:LO gpio_out[28] 21.0874 
*END

*D_NET *92 0.000841803
*CONN
*P gpio_out[29] O
*I *3820:LO O *D sky130_fd_sc_hd__conb_1
*CAP
1 gpio_out[29] 0.000420901
2 *3820:LO 0.000420901
3 gpio_oeb[11] gpio_out[29] 0
4 gpio_oeb[29] gpio_out[29] 0
*RES
1 *3820:LO gpio_out[29] 22.1393 
*END

*D_NET *93 0.000847878
*CONN
*P gpio_out[2] O
*I *3805:LO O *D sky130_fd_sc_hd__conb_1
*CAP
1 gpio_out[2] 0.000423939
2 *3805:LO 0.000423939
3 gpio_oeb[17] gpio_out[2] 0
4 gpio_oeb[22] gpio_out[2] 0
*RES
1 *3805:LO gpio_out[2] 21.8357 
*END

*D_NET *94 0.00116523
*CONN
*P gpio_out[30] O
*I *3821:LO O *D sky130_fd_sc_hd__conb_1
*CAP
1 gpio_out[30] 0.000463945
2 *3821:LO 0.000463945
3 gpio_out[30] gpio_out[33] 0
4 gpio_oeb[31] gpio_out[30] 8.57347e-05
5 gpio_out[17] gpio_out[30] 0.000151603
*RES
1 *3821:LO gpio_out[30] 22.8053 
*END

*D_NET *95 0.00064005
*CONN
*P gpio_out[31] O
*I *3822:LO O *D sky130_fd_sc_hd__conb_1
*CAP
1 gpio_out[31] 0.000235577
2 *3822:LO 0.000235577
3 gpio_out[31] *105:11 8.31618e-05
4 gpio_out[21] gpio_out[31] 8.57347e-05
*RES
1 *3822:LO gpio_out[31] 19.9443 
*END

*D_NET *96 0.000413372
*CONN
*P gpio_out[32] O
*I *3823:LO O *D sky130_fd_sc_hd__conb_1
*CAP
1 gpio_out[32] 0.000206686
2 *3823:LO 0.000206686
3 gpio_oeb[25] gpio_out[32] 0
*RES
1 *3823:LO gpio_out[32] 18.1229 
*END

*D_NET *97 0.0022589
*CONN
*P gpio_out[33] O
*I *3824:LO O *D sky130_fd_sc_hd__conb_1
*CAP
1 gpio_out[33] 0.000767064
2 *3824:LO 0.000767064
3 gpio_oeb[31] gpio_out[33] 0.000644552
4 gpio_oeb[3] gpio_out[33] 2.04825e-05
5 gpio_out[17] gpio_out[33] 5.9734e-05
6 gpio_out[30] gpio_out[33] 0
*RES
1 *3824:LO gpio_out[33] 31.2842 
*END

*D_NET *98 0.000657105
*CONN
*P gpio_out[3] O
*I *3806:LO O *D sky130_fd_sc_hd__conb_1
*CAP
1 gpio_out[3] 0.000300401
2 *3806:LO 0.000300401
3 gpio_oeb[33] gpio_out[3] 3.37077e-05
4 gpio_out[28] gpio_out[3] 2.25951e-05
*RES
1 *3806:LO gpio_out[3] 20.4803 
*END

*D_NET *99 0.00086936
*CONN
*P gpio_out[4] O
*I *3752:X O *D sky130_fd_sc_hd__buf_2
*CAP
1 gpio_out[4] 0.00032255
2 *3752:X 0.00032255
3 gpio_oeb[0] gpio_out[4] 7.91968e-06
4 gpio_oeb[14] gpio_out[4] 6.75229e-05
5 gpio_oeb[1] gpio_out[4] 0.000121638
6 gpio_out[18] gpio_out[4] 2.71788e-05
*RES
1 *3752:X gpio_out[4] 20.891 
*END

*D_NET *100 0.000663706
*CONN
*P gpio_out[5] O
*I *3753:X O *D sky130_fd_sc_hd__buf_2
*CAP
1 gpio_out[5] 0.000302294
2 *3753:X 0.000302294
3 gpio_out[16] gpio_out[5] 3.19385e-05
4 gpio_out[18] gpio_out[5] 2.71788e-05
*RES
1 *3753:X gpio_out[5] 20.891 
*END

*D_NET *101 0.000648801
*CONN
*P gpio_out[6] O
*I *3788:HI O *D sky130_fd_sc_hd__conb_1
*CAP
1 gpio_out[6] 0.000241239
2 *3788:HI 0.000241239
3 gpio_oeb[30] gpio_out[6] 8.31618e-05
4 gpio_out[1] gpio_out[6] 8.31618e-05
*RES
1 *3788:HI gpio_out[6] 19.9443 
*END

*D_NET *102 0.000436005
*CONN
*P gpio_out[7] O
*I *3789:HI O *D sky130_fd_sc_hd__conb_1
*CAP
1 gpio_out[7] 0.000175135
2 *3789:HI 0.000175135
3 gpio_oeb[25] gpio_out[7] 8.57347e-05
*RES
1 *3789:HI gpio_out[7] 18.1229 
*END

*D_NET *103 0.000989047
*CONN
*P gpio_out[8] O
*I *3754:X O *D sky130_fd_sc_hd__buf_2
*CAP
1 gpio_out[8] 0.000453721
2 *3754:X 0.000453721
3 gpio_out[8] gpio_out[9] 4.44401e-05
4 gpio_out[8] *968:18 0
5 gpio_out[16] gpio_out[8] 3.71658e-05
*RES
1 *3754:X gpio_out[8] 22.6018 
*END

*D_NET *104 0.000724311
*CONN
*P gpio_out[9] O
*I *3755:X O *D sky130_fd_sc_hd__buf_2
*CAP
1 gpio_out[9] 0.000307944
2 *3755:X 0.000307944
3 gpio_out[9] *968:18 6.39829e-05
4 gpio_out[16] gpio_out[9] 0
5 gpio_out[8] gpio_out[9] 4.44401e-05
*RES
1 *3755:X gpio_out[9] 19.6044 
*END

*D_NET *105 0.000813151
*CONN
*P nrst I
*I *3745:A I *D sky130_fd_sc_hd__clkbuf_1
*I *1136:DIODE I *D sky130_fd_sc_hd__diode_2
*CAP
1 nrst 0.000215563
2 *3745:A 0
3 *1136:DIODE 9.05811e-05
4 *105:11 0.000306144
5 *105:11 *1087:12 3.454e-05
6 gpio_out[22] *105:11 8.31618e-05
7 gpio_out[31] *105:11 8.31618e-05
*RES
1 nrst *105:11 10.3407 
2 *105:11 *1136:DIODE 10.6571 
3 *105:11 *3745:A 9.3 
*END

*D_NET *108 0.0102033
*CONN
*I *2834:B1 I *D sky130_fd_sc_hd__a211oi_1
*I *2842:B2 I *D sky130_fd_sc_hd__a22o_1
*I *2823:B I *D sky130_fd_sc_hd__or3_1
*I *3639:A I *D sky130_fd_sc_hd__clkbuf_1
*I *2785:Y O *D sky130_fd_sc_hd__inv_2
*CAP
1 *2834:B1 0.000117018
2 *2842:B2 0
3 *2823:B 0
4 *3639:A 0.000178814
5 *2785:Y 0
6 *108:60 0.000409634
7 *108:43 0.000641783
8 *108:39 0.00307268
9 *108:4 0.00290233
10 *2834:B1 *293:12 0
11 *2834:B1 *294:10 7.2754e-05
12 *2834:B1 *1077:49 5.10822e-05
13 *2834:B1 *1077:72 3.92854e-05
14 *2834:B1 *1078:107 5.52238e-05
15 *3639:A *2785:A 0.000376792
16 *3639:A *2906:A 0
17 *3639:A *3600:D 5.33978e-05
18 *3639:A *151:32 9.25014e-06
19 *3639:A *153:12 0
20 *108:39 *2785:A 2.44318e-05
21 *108:39 *2813:A_N 2.20795e-05
22 *108:39 *2813:B 1.79382e-05
23 *108:39 *2828:B 9.80173e-05
24 *108:39 *3601:CLK 2.17647e-05
25 *108:39 *3601:D 2.96436e-05
26 *108:39 *3603:D 8.66095e-05
27 *108:39 *3604:D 6.80039e-05
28 *108:39 *3729:A 0.00013359
29 *108:39 *154:23 1.02504e-05
30 *108:39 *156:8 3.47797e-05
31 *108:39 *156:19 0.000133037
32 *108:39 *277:16 0
33 *108:43 *2829:A1 0.00026839
34 *108:43 *2829:A2 2.77258e-05
35 *108:43 *290:8 4.59075e-05
36 *108:43 *1077:72 1.15172e-05
37 *108:60 *2823:A 2.59355e-05
38 *108:60 *2824:A1 9.89536e-05
39 *108:60 *2829:A2 5.30637e-06
40 *108:60 *3758:A 0.000100478
41 *108:60 *116:14 6.09919e-05
42 *108:60 *285:8 0.000191059
43 *108:60 *1077:72 0.000567277
44 *108:60 *1078:107 9.31893e-05
45 gpio_oeb[1] *108:39 1.74352e-05
46 gpio_out[14] *2834:B1 0
47 gpio_out[25] *108:39 2.89114e-05
*RES
1 *2785:Y *108:4 9.3 
2 *108:4 *3639:A 23.2107 
3 *108:4 *108:39 50 
4 *108:39 *108:43 9.14286 
5 *108:43 *2823:B 9.3 
6 *108:43 *108:60 17.5893 
7 *108:60 *2842:B2 9.3 
8 *108:60 *2834:B1 21.0857 
*END

*D_NET *109 0.00729852
*CONN
*I *2861:A2 I *D sky130_fd_sc_hd__a31o_1
*I *2856:A I *D sky130_fd_sc_hd__or2_1
*I *2855:A I *D sky130_fd_sc_hd__nand2_1
*I *2837:B I *D sky130_fd_sc_hd__nand2_1
*I *2836:B I *D sky130_fd_sc_hd__and2_1
*I *2808:B I *D sky130_fd_sc_hd__and2b_1
*I *2809:B I *D sky130_fd_sc_hd__nor2_1
*I *2826:A2 I *D sky130_fd_sc_hd__o31a_1
*I *2817:A_N I *D sky130_fd_sc_hd__and2b_1
*I *3582:Q O *D sky130_fd_sc_hd__dfrtp_2
*CAP
1 *2861:A2 0
2 *2856:A 0.000114113
3 *2855:A 4.63196e-05
4 *2837:B 3.89451e-05
5 *2836:B 0
6 *2808:B 0
7 *2809:B 2.03441e-05
8 *2826:A2 0
9 *2817:A_N 0.000187047
10 *3582:Q 0.000140088
11 *109:88 0.000277198
12 *109:75 0.000532048
13 *109:34 0.000240407
14 *109:32 0.000242197
15 *109:28 0.000345907
16 *109:18 0.000276144
17 *109:16 0.00056084
18 *109:12 0.000225861
19 *2809:B *110:33 5.7661e-06
20 *2817:A_N *2817:B 5.52302e-05
21 *2817:A_N *2826:A3 0
22 *2817:A_N *2827:A1 6.48863e-05
23 *2817:A_N *110:33 2.44318e-05
24 *2817:A_N *288:10 1.92905e-05
25 *2817:A_N *967:16 0.000146533
26 *2837:B *2838:A2 1.33343e-05
27 *2837:B *2852:A3 5.42898e-05
28 *2855:A *2857:A1 2.27416e-05
29 *2855:A *308:40 3.18676e-05
30 *2856:A *2856:B 0.00022287
31 *2856:A *2857:A1 7.50697e-05
32 *2856:A *264:61 5.52238e-05
33 *109:12 *2861:A1 5.33005e-05
34 *109:12 *2861:A3 9.41642e-05
35 *109:12 *150:19 0.000123295
36 *109:12 *308:40 4.27437e-05
37 *109:12 *308:49 7.43578e-06
38 *109:12 *309:22 0.000107996
39 *109:12 *967:10 0
40 *109:16 *2861:A1 0.000171375
41 *109:16 *2861:B1 0
42 *109:16 *2863:C 3.92757e-05
43 *109:18 *2861:A1 0.000101545
44 *109:18 *2861:B1 0
45 *109:18 *2862:C 0.00014576
46 *109:18 *272:33 3.34295e-05
47 *109:18 *296:16 7.05447e-05
48 *109:18 *1086:164 5.29944e-05
49 *109:28 *110:16 1.56e-05
50 *109:28 *272:33 5.59013e-05
51 *109:28 *296:16 0.000330095
52 *109:28 *967:16 5.33005e-05
53 *109:28 *1086:164 0.0002252
54 *109:32 *2867:B1 0
55 *109:32 *110:16 5.03772e-05
56 *109:32 *110:18 3.97677e-05
57 *109:32 *110:27 0.000271339
58 *109:32 *110:33 3.53079e-05
59 *109:32 *967:16 0.000265914
60 *109:34 *110:33 8.56654e-05
61 *109:34 *967:16 9.76491e-05
62 *109:75 *2837:A 0.000538357
63 *109:75 *2838:A2 1.69961e-05
64 *109:75 *2862:B 1.74352e-05
65 *109:75 *111:12 4.58194e-05
66 *109:88 *2856:B 3.34366e-05
67 *109:88 *3582:CLK 3.75052e-05
68 *109:88 *308:40 0
*RES
1 *3582:Q *109:12 21.7107 
2 *109:12 *109:16 6.75 
3 *109:16 *109:18 3.16071 
4 *109:18 *109:28 10.0714 
5 *109:28 *109:32 5.48214 
6 *109:32 *109:34 1.76786 
7 *109:34 *2817:A_N 23.1393 
8 *109:34 *2826:A2 9.3 
9 *109:32 *2809:B 9.72857 
10 *109:28 *2808:B 9.3 
11 *109:18 *2836:B 13.8 
12 *109:16 *109:75 12.0179 
13 *109:75 *2837:B 10.2375 
14 *109:75 *109:88 6.44643 
15 *109:88 *2855:A 14.8714 
16 *109:88 *2856:A 17.1929 
17 *109:12 *2861:A2 9.3 
*END

*D_NET *110 0.00869802
*CONN
*I *2860:A1 I *D sky130_fd_sc_hd__a22o_1
*I *2861:A1 I *D sky130_fd_sc_hd__a31o_1
*I *2837:A I *D sky130_fd_sc_hd__nand2_1
*I *2836:A I *D sky130_fd_sc_hd__and2_1
*I *2841:A1_N I *D sky130_fd_sc_hd__a2bb2o_1
*I *2809:A I *D sky130_fd_sc_hd__nor2_1
*I *2826:A1 I *D sky130_fd_sc_hd__o31a_1
*I *2817:B I *D sky130_fd_sc_hd__and2b_1
*I *2808:A_N I *D sky130_fd_sc_hd__and2b_1
*I *3583:Q O *D sky130_fd_sc_hd__dfrtp_2
*CAP
1 *2860:A1 0.00019892
2 *2861:A1 0.000258043
3 *2837:A 0.000298434
4 *2836:A 0
5 *2841:A1_N 0.000114651
6 *2809:A 0
7 *2826:A1 0
8 *2817:B 0.000146265
9 *2808:A_N 0
10 *3583:Q 0
11 *110:82 0.000614727
12 *110:71 0.00021166
13 *110:58 0.000268061
14 *110:33 0.000278228
15 *110:27 0.000245058
16 *110:18 0.000176482
17 *110:16 0.000803189
18 *110:4 0.000938723
19 *2817:B *2826:A3 4.48113e-05
20 *2817:B *2827:A1 0
21 *2817:B *2859:A1 0
22 *2837:A *2838:A2 0.00018372
23 *2837:A *2862:B 8.29245e-05
24 *2841:A1_N *2841:A2_N 0.000144903
25 *2841:A1_N *2865:B 4.32182e-06
26 *2841:A1_N *2873:B 9.90431e-05
27 *2841:A1_N *111:18 9.16325e-06
28 *2841:A1_N *275:10 8.6229e-06
29 *2841:A1_N *275:24 5.67624e-05
30 *2841:A1_N *296:16 6.97253e-05
31 *2860:A1 *2860:B1 5.52302e-05
32 *2860:A1 *309:58 6.51327e-05
33 *2860:A1 *309:62 2.8266e-06
34 *2860:A1 *313:8 7.80714e-06
35 *2860:A1 *313:10 1.19309e-05
36 *2860:A1 *1077:10 1.92905e-05
37 *2860:A1 *1083:48 0
38 *2861:A1 *2862:B 0.000135028
39 *2861:A1 *308:40 1.55885e-05
40 *2861:A1 *309:22 0.000103033
41 *2861:A1 *1086:164 0.00028855
42 *110:16 *2867:A2 3.14048e-05
43 *110:16 *2867:B1 6.13011e-05
44 *110:16 *967:16 3.07999e-05
45 *110:33 *274:10 0.000263524
46 *110:71 *2841:A2_N 0.000349144
47 *110:71 *111:14 4.46186e-06
48 *110:71 *111:16 2.16719e-05
49 *110:71 *296:16 0.000307882
50 *110:82 *2862:C 6.81083e-05
51 *110:82 *111:14 6.82922e-05
52 *110:82 *296:16 8.25098e-05
53 *2809:B *110:33 5.7661e-06
54 *2817:A_N *2817:B 5.52302e-05
55 *2817:A_N *110:33 2.44318e-05
56 *109:12 *2861:A1 5.33005e-05
57 *109:16 *2861:A1 0.000171375
58 *109:18 *2861:A1 0.000101545
59 *109:28 *110:16 1.56e-05
60 *109:32 *110:16 5.03772e-05
61 *109:32 *110:18 3.97677e-05
62 *109:32 *110:27 0.000271339
63 *109:32 *110:33 3.53079e-05
64 *109:34 *110:33 8.56654e-05
65 *109:75 *2837:A 0.000538357
*RES
1 *3583:Q *110:4 9.3 
2 *110:4 *110:16 10.6964 
3 *110:16 *110:18 0.946429 
4 *110:18 *2808:A_N 9.3 
5 *110:18 *110:27 3.01786 
6 *110:27 *110:33 3.85714 
7 *110:33 *2817:B 21.0857 
8 *110:33 *2826:A1 9.3 
9 *110:27 *2809:A 9.3 
10 *110:16 *110:58 4.5 
11 *110:58 *2841:A1_N 16.9964 
12 *110:58 *110:71 5.28571 
13 *110:71 *2836:A 13.8 
14 *110:71 *110:82 6.44643 
15 *110:82 *2837:A 16.7464 
16 *110:82 *2861:A1 24.8 
17 *110:4 *2860:A1 21.425 
*END

*D_NET *111 0.00755422
*CONN
*I *2861:B1 I *D sky130_fd_sc_hd__a31o_1
*I *2862:A I *D sky130_fd_sc_hd__nand3_1
*I *2807:B I *D sky130_fd_sc_hd__or2_1
*I *2838:A1 I *D sky130_fd_sc_hd__a21oi_1
*I *2864:A1 I *D sky130_fd_sc_hd__a31o_1
*I *2825:A_N I *D sky130_fd_sc_hd__nand2b_1
*I *2865:A_N I *D sky130_fd_sc_hd__and3b_1
*I *2866:B I *D sky130_fd_sc_hd__and3_1
*I *2810:B I *D sky130_fd_sc_hd__and2b_1
*I *2806:B I *D sky130_fd_sc_hd__nor2_1
*I *3584:Q O *D sky130_fd_sc_hd__dfrtp_4
*CAP
1 *2861:B1 0.000171388
2 *2862:A 0
3 *2807:B 0
4 *2838:A1 4.08308e-05
5 *2864:A1 0.000312888
6 *2825:A_N 0
7 *2865:A_N 0
8 *2866:B 0.000325366
9 *2810:B 0
10 *2806:B 0.000215636
11 *3584:Q 0.000114897
12 *111:102 0.000208311
13 *111:88 8.89551e-05
14 *111:66 0.000312888
15 *111:46 0.000396599
16 *111:39 0.000110196
17 *111:18 0.000485938
18 *111:16 0.000291908
19 *111:14 0.000252792
20 *111:12 0.000295921
21 *2806:B *2806:A 5.04585e-05
22 *2806:B *2811:C1 0
23 *2806:B *2839:B1 0.000105689
24 *2806:B *2842:B1 0.000103974
25 *2806:B *112:72 9.60875e-05
26 *2806:B *1078:101 1.24368e-05
27 *2838:A1 *2838:B1 5.71472e-05
28 *2838:A1 *2839:B1 5.71472e-05
29 *2838:A1 *113:29 6.05161e-06
30 *2838:A1 *272:33 3.48705e-05
31 *2861:B1 *2862:C 4.1331e-06
32 *2861:B1 *2863:C 3.92757e-05
33 *2861:B1 *308:40 5.33433e-05
34 *2861:B1 *309:22 0.000111674
35 *2864:A1 *2868:A_N 4.87953e-05
36 *2864:A1 *112:64 0.000176234
37 *2864:A1 *320:16 0.00019867
38 *2864:A1 *967:16 0.000175526
39 *2866:B *2842:B1 7.80714e-06
40 *2866:B *2860:B2 5.62995e-05
41 *2866:B *2865:B 7.83587e-05
42 *2866:B *2866:C 2.77289e-05
43 *2866:B *2873:B 0.000219711
44 *2866:B *114:29 7.80714e-06
45 *2866:B *275:10 8.00806e-05
46 *111:12 *2862:B 9.60875e-05
47 *111:12 *2862:C 2.04825e-05
48 *111:14 *2838:A2 0
49 *111:14 *2839:B1 2.24646e-05
50 *111:14 *2862:C 9.99931e-06
51 *111:16 *2839:B1 0.000162825
52 *111:16 *2841:A2_N 0.000126439
53 *111:18 *2839:B1 0.000529584
54 *111:18 *2841:A2_N 0.000372707
55 *111:18 *2842:B1 0.000101545
56 *111:18 *275:10 7.98428e-06
57 *111:39 *112:72 1.58163e-05
58 *111:46 *112:72 5.04705e-05
59 *111:88 *2838:B1 8.76257e-05
60 *111:88 *2839:B1 0.000186662
61 *111:88 *112:28 9.41642e-05
62 *111:88 *112:30 5.52238e-05
63 *111:88 *272:33 2.08721e-05
64 *111:102 *2862:C 1.00375e-05
65 *2841:A1_N *111:18 9.16325e-06
66 *109:16 *2861:B1 0
67 *109:18 *2861:B1 0
68 *109:75 *111:12 4.58194e-05
69 *110:71 *111:14 4.46186e-06
70 *110:71 *111:16 2.16719e-05
71 *110:82 *111:14 6.82922e-05
*RES
1 *3584:Q *111:12 15.9696 
2 *111:12 *111:14 2.40179 
3 *111:14 *111:16 2.25 
4 *111:16 *111:18 7.10714 
5 *111:18 *2806:B 18.3 
6 *111:18 *111:39 5.03571 
7 *111:39 *2810:B 9.3 
8 *111:39 *111:46 1.35714 
9 *111:46 *2866:B 23.4607 
10 *111:46 *2865:A_N 9.3 
11 *111:16 *111:66 4.5 
12 *111:66 *2825:A_N 9.3 
13 *111:66 *2864:A1 25.1929 
14 *111:14 *111:88 6.67857 
15 *111:88 *2838:A1 10.6571 
16 *111:88 *2807:B 9.3 
17 *111:12 *111:102 0.580357 
18 *111:102 *2862:A 13.8 
19 *111:102 *2861:B1 17.3 
*END

*D_NET *112 0.00582559
*CONN
*I *2866:A I *D sky130_fd_sc_hd__and3_1
*I *2865:C I *D sky130_fd_sc_hd__and3b_1
*I *2806:A I *D sky130_fd_sc_hd__nor2_1
*I *2810:A_N I *D sky130_fd_sc_hd__and2b_1
*I *2864:B1 I *D sky130_fd_sc_hd__a31o_1
*I *2825:B I *D sky130_fd_sc_hd__nand2b_1
*I *2807:A I *D sky130_fd_sc_hd__or2_1
*I *2838:B1 I *D sky130_fd_sc_hd__a21oi_1
*I *3585:Q O *D sky130_fd_sc_hd__dfrtp_2
*CAP
1 *2866:A 3.07457e-05
2 *2865:C 0
3 *2806:A 3.38175e-05
4 *2810:A_N 0
5 *2864:B1 0
6 *2825:B 9.35185e-05
7 *2807:A 0
8 *2838:B1 5.9799e-05
9 *3585:Q 0.000320105
10 *112:72 0.000268199
11 *112:70 0.00042338
12 *112:64 0.000517719
13 *112:30 8.35332e-05
14 *112:28 0.000342696
15 *112:22 0.000225549
16 *112:20 0.000618185
17 *2825:B *2839:B1 0.00015134
18 *2825:B *2859:B1 0
19 *2825:B *113:29 0
20 *2825:B *320:16 1.54027e-05
21 *2866:A *2866:C 5.52238e-05
22 *112:20 *2858:B 4.45768e-06
23 *112:20 *2864:A2 5.63599e-05
24 *112:20 *2864:A3 0.00018372
25 *112:20 *2868:C 0.000133583
26 *112:20 *3585:D 3.67257e-05
27 *112:20 *150:51 0.000101545
28 *112:20 *308:55 7.79781e-06
29 *112:22 *2864:A2 4.44171e-07
30 *112:28 *2864:A2 0.000172309
31 *112:28 *272:6 9.41642e-05
32 *112:28 *272:33 0.000286254
33 *112:28 *296:8 8.43535e-06
34 *112:64 *2860:B2 0.000287951
35 *112:64 *2865:B 0
36 *112:64 *273:8 0
37 *112:64 *320:10 0.000123288
38 *112:64 *967:16 3.13225e-05
39 *112:64 *1086:164 0
40 *112:70 *2860:B2 1.46917e-05
41 *112:70 *2865:B 1.763e-05
42 *112:70 *2867:A1 0
43 *112:70 *2873:A 2.8266e-06
44 *112:70 *2873:B 9.80405e-05
45 *112:70 *2874:B 0
46 *112:70 *3589:CLK 0
47 *112:70 *114:29 0.000206065
48 *112:72 *2865:B 3.55443e-05
49 *2806:B *2806:A 5.04585e-05
50 *2806:B *112:72 9.60875e-05
51 *2838:A1 *2838:B1 5.71472e-05
52 *2864:A1 *112:64 0.000176234
53 *111:39 *112:72 1.58163e-05
54 *111:46 *112:72 5.04705e-05
55 *111:88 *2838:B1 8.76257e-05
56 *111:88 *112:28 9.41642e-05
57 *111:88 *112:30 5.52238e-05
*RES
1 *3585:Q *112:20 24.6929 
2 *112:20 *112:22 0.129464 
3 *112:22 *112:28 5.60268 
4 *112:28 *112:30 0.535714 
5 *112:30 *2838:B1 10.6571 
6 *112:30 *2807:A 9.3 
7 *112:28 *2825:B 20.5054 
8 *112:22 *2864:B1 9.3 
9 *112:20 *112:64 11.3036 
10 *112:64 *112:70 8.91071 
11 *112:70 *112:72 4.23214 
12 *112:72 *2810:A_N 9.3 
13 *112:72 *2806:A 10.2643 
14 *112:70 *2865:C 9.3 
15 *112:64 *2866:A 14.3357 
*END

*D_NET *113 0.0081561
*CONN
*I *2873:B I *D sky130_fd_sc_hd__and3_1
*I *2823:A I *D sky130_fd_sc_hd__or3_1
*I *3700:A I *D sky130_fd_sc_hd__clkbuf_2
*I *3586:Q O *D sky130_fd_sc_hd__dfrtp_1
*CAP
1 *2873:B 0.00048794
2 *2823:A 0.000716996
3 *3700:A 0.000488822
4 *3586:Q 0
5 *113:29 0.00176671
6 *113:4 0.00105059
7 *2823:A *2811:B2 0.000128161
8 *2823:A *2811:C1 0.000144038
9 *2823:A *2818:B 1.74352e-05
10 *2823:A *2820:A1 5.52302e-05
11 *2823:A *2821:B 0
12 *2823:A *2824:A1 0.000128155
13 *2823:A *2824:A2 0
14 *2823:A *2830:A2 1.41029e-05
15 *2823:A *2832:A1 7.2754e-05
16 *2823:A *116:29 8.10363e-06
17 *2823:A *116:44 2.30116e-06
18 *2823:A *274:10 1.41029e-05
19 *2823:A *275:24 9.22103e-06
20 *2823:A *285:8 0.000178847
21 *2823:A *291:12 0.00012401
22 *2823:A *1078:101 0
23 *2873:B *2818:B 2.59355e-05
24 *2873:B *2841:B1 9.71197e-05
25 *2873:B *2842:B1 0.000136951
26 *2873:B *2866:C 8.40933e-05
27 *2873:B *2867:A1 1.33343e-05
28 *2873:B *275:24 0.000161037
29 *2873:B *318:6 0.000144773
30 *3700:A *2852:A1 0
31 *3700:A *2852:A2 7.95674e-05
32 *3700:A *2852:B1 0
33 *3700:A *3582:CLK 0.000148177
34 *3700:A *168:6 1.39726e-05
35 *3700:A *308:10 0.000119125
36 *3700:A *1080:16 3.51442e-05
37 *3700:A *1080:23 0.000222878
38 *3700:A *1080:37 0.000105163
39 *113:29 *2821:B 5.37709e-05
40 *113:29 *2826:B1 4.52467e-05
41 *113:29 *2859:A1 0.000327322
42 *113:29 *2859:B1 6.91157e-05
43 *113:29 *3582:CLK 0.000109918
44 *113:29 *272:33 1.32724e-05
45 *113:29 *281:10 0.000293885
46 *2825:B *113:29 0
47 *2838:A1 *113:29 6.05161e-06
48 *2841:A1_N *2873:B 9.90431e-05
49 *2866:B *2873:B 0.000219711
50 *108:60 *2823:A 2.59355e-05
51 *112:70 *2873:B 9.80405e-05
*RES
1 *3586:Q *113:4 9.3 
2 *113:4 *3700:A 28.3 
3 *113:4 *113:29 19.9286 
4 *113:29 *2823:A 31.7464 
5 *113:29 *2873:B 28.5143 
*END

*D_NET *114 0.0060467
*CONN
*I *2874:A I *D sky130_fd_sc_hd__and3_1
*I *2833:A I *D sky130_fd_sc_hd__nand2_1
*I *2840:B1 I *D sky130_fd_sc_hd__o21ai_1
*I *3699:A I *D sky130_fd_sc_hd__clkbuf_2
*I *3587:Q O *D sky130_fd_sc_hd__dfrtp_1
*CAP
1 *2874:A 0.000362063
2 *2833:A 0
3 *2840:B1 0.000175152
4 *3699:A 0.00011101
5 *3587:Q 0.000191611
6 *114:29 0.000529858
7 *114:25 0.00158802
8 *114:8 0.00117387
9 *2840:B1 *2835:B 0.000123986
10 *2840:B1 *2839:A2 1.00375e-05
11 *2840:B1 *3750:A 0
12 *2840:B1 *3751:A 0.000123288
13 *2840:B1 *293:12 0.000107343
14 *2874:A *2867:A1 3.47856e-05
15 *2874:A *313:10 0
16 *2874:A *1086:132 0.000155585
17 *3699:A *2820:A1 2.59355e-05
18 *3699:A *2827:A2 8.19102e-05
19 *3699:A *2852:A2 0.000168939
20 *3699:A *1078:101 6.05161e-06
21 *114:8 *2820:A2 0.000137983
22 *114:8 *2829:B1 9.60875e-05
23 *114:8 *3587:RESET_B 1.92905e-05
24 *114:8 *3701:A 1.55885e-05
25 *114:8 *1080:16 4.70078e-05
26 *114:25 *2827:A2 7.69776e-06
27 *114:25 *2852:A2 1.12323e-05
28 *114:25 *1086:132 1.46911e-05
29 *114:25 *1086:136 0.000457655
30 *114:29 *2835:B 5.80706e-06
31 *114:29 *2842:B1 0
32 *114:29 *2865:B 5.03472e-05
33 *114:29 *2873:A 0
34 *2866:B *114:29 7.80714e-06
35 *112:70 *114:29 0.000206065
*RES
1 *3587:Q *114:8 17.6214 
2 *114:8 *3699:A 16.5857 
3 *114:8 *114:25 5.82372 
4 *114:25 *114:29 10.6689 
5 *114:29 *2840:B1 18.4786 
6 *114:29 *2833:A 13.8 
7 *114:25 *2874:A 18.7895 
*END

*D_NET *115 0.00233899
*CONN
*I *2882:A1 I *D sky130_fd_sc_hd__a21o_1
*I *3698:A I *D sky130_fd_sc_hd__buf_2
*I *3588:Q O *D sky130_fd_sc_hd__dfrtp_1
*CAP
1 *2882:A1 0.000349899
2 *3698:A 0.000180586
3 *3588:Q 0.00037616
4 *115:6 0.000906645
5 *2882:A1 *2881:A 8.73559e-05
6 *2882:A1 *2882:B1 5.71472e-05
7 *2882:A1 *2883:A2 2.89114e-05
8 *2882:A1 *3589:RESET_B 0
9 *2882:A1 *972:20 0
10 *2882:A1 *1083:48 0
11 *3698:A *972:20 7.77652e-05
12 *3698:A *1083:48 8.06331e-05
13 *115:6 *972:20 0.000193883
*RES
1 *3588:Q *115:6 14.3536 
2 *115:6 *3698:A 21.6036 
3 *115:6 *2882:A1 24.7286 
*END

*D_NET *116 0.00819983
*CONN
*I *2880:A I *D sky130_fd_sc_hd__xnor2_1
*I *2883:B2 I *D sky130_fd_sc_hd__a32o_1
*I *2835:C I *D sky130_fd_sc_hd__or4_1
*I *2804:B I *D sky130_fd_sc_hd__or4b_1
*I *2803:A_N I *D sky130_fd_sc_hd__nand2b_1
*I *2831:A1 I *D sky130_fd_sc_hd__o211a_1
*I *2822:A I *D sky130_fd_sc_hd__or3b_1
*I *2834:C1 I *D sky130_fd_sc_hd__a211oi_1
*I *3589:Q O *D sky130_fd_sc_hd__dfrtp_2
*CAP
1 *2880:A 0.000128498
2 *2883:B2 0.000142313
3 *2835:C 0
4 *2804:B 0.000219925
5 *2803:A_N 0.000249969
6 *2831:A1 0
7 *2822:A 0
8 *2834:C1 0.000234391
9 *3589:Q 0
10 *116:63 0.000673789
11 *116:44 0.00074325
12 *116:29 0.000569974
13 *116:14 0.000639123
14 *116:8 0.000905196
15 *116:6 0.000741717
16 *116:4 0.000196818
17 *2803:A_N *2803:B 0
18 *2803:A_N *2829:A1 2.49484e-05
19 *2803:A_N *2829:A3 0
20 *2803:A_N *2831:C1 5.58941e-05
21 *2803:A_N *2840:A1 0.000188586
22 *2803:A_N *1078:48 3.07555e-05
23 *2804:B *2804:C 1.24368e-05
24 *2804:B *2814:A 2.61337e-05
25 *2804:B *2831:C1 0.000171375
26 *2804:B *277:16 6.8646e-06
27 *2804:B *1078:31 0
28 *2804:B *1078:48 3.34687e-05
29 *2804:B *1079:44 1.38323e-05
30 *2804:B *1079:59 0.000181803
31 *2834:C1 *2824:A1 0
32 *2834:C1 *2824:A2 0.000176323
33 *2834:C1 *2824:B1 5.71472e-05
34 *2834:C1 *2834:A2 0
35 *2834:C1 *2840:A1 8.18783e-05
36 *2834:C1 *3756:A 4.88637e-05
37 *2834:C1 *294:10 1.33343e-05
38 *2883:B2 *2879:A 0
39 *2883:B2 *2883:A2 5.52238e-05
40 *2883:B2 *2883:B1 2.8266e-06
41 *2883:B2 *3589:RESET_B 0.000153047
42 *116:6 *3589:RESET_B 2.58856e-05
43 *116:8 *2835:D 2.59355e-05
44 *116:8 *2873:A 5.71472e-05
45 *116:8 *3589:RESET_B 3.02581e-06
46 *116:14 *2822:B 0.000184745
47 *116:14 *2873:A 1.5424e-05
48 *116:14 *3751:A 5.33005e-05
49 *116:14 *1078:107 0.000617551
50 *116:29 *2824:A1 0
51 *116:29 *2824:A2 1.97488e-05
52 *116:44 *2824:A2 5.7836e-06
53 *116:63 *2829:A2 4.6025e-06
54 *116:63 *2829:B1 0
55 *116:63 *2831:A2 5.58941e-05
56 *116:63 *2832:B1 2.8266e-06
57 *116:63 *1077:72 0.000219711
58 gpio_oeb[5] *2803:A_N 5.71472e-05
59 *2823:A *116:29 8.10363e-06
60 *2823:A *116:44 2.30116e-06
61 *108:60 *116:14 6.09919e-05
*RES
1 *3589:Q *116:4 9.3 
2 *116:4 *116:6 1.35714 
3 *116:6 *116:8 8.75 
4 *116:8 *116:14 12.8571 
5 *116:14 *2834:C1 19.2821 
6 *116:14 *116:29 0.732143 
7 *116:29 *2822:A 13.8 
8 *116:29 *116:44 8.08065 
9 *116:44 *2831:A1 13.8 
10 *116:44 *116:63 11.9107 
11 *116:63 *2803:A_N 19.0321 
12 *116:63 *2804:B 18.6571 
13 *116:8 *2835:C 9.3 
14 *116:6 *2883:B2 21.3893 
15 *116:4 *2880:A 11.4964 
*END

*D_NET *117 0.0034885
*CONN
*I *2937:A I *D sky130_fd_sc_hd__and3_1
*I *2944:A I *D sky130_fd_sc_hd__and4_1
*I *2920:A I *D sky130_fd_sc_hd__or4_1
*I *3735:A I *D sky130_fd_sc_hd__dlygate4sd3_1
*I *3606:Q O *D sky130_fd_sc_hd__dfrtp_1
*CAP
1 *2937:A 0.00012021
2 *2944:A 0
3 *2920:A 0.000666229
4 *3735:A 0
5 *3606:Q 0.000114752
6 *117:23 0.000923802
7 *117:12 0.000320103
8 *117:8 0.000297493
9 *2920:A *3610:CLK 0
10 *2920:A *3707:A 4.1331e-06
11 *2920:A *144:10 3.50001e-05
12 *2920:A *353:22 3.28967e-05
13 *2920:A *378:18 0.000123126
14 *2920:A *973:32 0
15 *2937:A *1120:DIODE 3.17163e-05
16 *2937:A *2945:B 2.89114e-05
17 *2937:A *370:8 6.76272e-05
18 *2937:A *967:84 6.9253e-05
19 *117:8 *2952:C 3.69047e-06
20 *117:8 *2952:D 1.15172e-05
21 *117:8 *379:12 1.40306e-05
22 *117:12 *1120:DIODE 5.33882e-05
23 *117:12 *2950:A 1.78447e-05
24 *117:12 *370:8 5.5782e-05
25 *117:23 *3654:A 0.000367452
26 *117:23 *144:10 7.43578e-06
27 *117:23 *374:10 2.89114e-05
28 *117:23 *973:32 9.31893e-05
*RES
1 *3606:Q *117:8 15.5679 
2 *117:8 *117:12 6.44643 
3 *117:12 *3735:A 9.3 
4 *117:12 *117:23 6.73214 
5 *117:23 *2920:A 27.0679 
6 *117:23 *2944:A 9.3 
7 *117:8 *2937:A 16.8893 
*END

*D_NET *118 0.0169137
*CONN
*I *3248:B1 I *D sky130_fd_sc_hd__a21oi_1
*I *3253:A I *D sky130_fd_sc_hd__and3_1
*I *3220:A I *D sky130_fd_sc_hd__nor2_1
*I *3221:B2 I *D sky130_fd_sc_hd__o221a_1
*I *3420:B I *D sky130_fd_sc_hd__or4b_1
*I *2922:B I *D sky130_fd_sc_hd__nand2_1
*I *3448:A I *D sky130_fd_sc_hd__or2_1
*I *3447:A I *D sky130_fd_sc_hd__nand2_1
*I *3451:A1 I *D sky130_fd_sc_hd__a22o_1
*I *3616:Q O *D sky130_fd_sc_hd__dfrtp_4
*CAP
1 *3248:B1 1.22324e-05
2 *3253:A 0.000134047
3 *3220:A 2.48426e-05
4 *3221:B2 0
5 *3420:B 0.000101893
6 *2922:B 0.000142555
7 *3448:A 0
8 *3447:A 0.000128138
9 *3451:A1 0
10 *3616:Q 0.000794807
11 *118:113 0.000302216
12 *118:102 0.000831504
13 *118:85 0.00155825
14 *118:61 0.000625265
15 *118:47 0.00173939
16 *118:29 0.000128138
17 *118:27 0.000924458
18 *118:14 0.00126822
19 *3220:A *3220:B 1.04232e-05
20 *3248:B1 *992:16 2.28598e-05
21 *3248:B1 *1051:93 5.52302e-05
22 *3253:A *674:8 0.000117196
23 *3253:A *674:16 0.000149904
24 *3253:A *821:12 0.000366675
25 *3253:A *1051:93 4.00025e-05
26 *3420:B *3505:B1 0
27 *3420:B *121:25 0.000145405
28 *3447:A *3447:B 5.33005e-05
29 *3447:A *3449:A1 6.26177e-05
30 *3447:A *3619:CLK 5.33334e-05
31 *3447:A *369:129 1.95646e-05
32 *118:14 *3364:A 5.03772e-05
33 *118:14 *3430:A1 3.07555e-05
34 *118:14 *3430:B2 0.000102184
35 *118:14 *3431:A1 0
36 *118:14 *3431:C1 5.34213e-05
37 *118:14 *3436:B1 8.23247e-06
38 *118:14 *3438:A 5.52302e-05
39 *118:14 *3445:A3 9.90367e-05
40 *118:14 *3616:D 0.000318101
41 *118:14 *243:31 1.90936e-05
42 *118:14 *784:23 0
43 *118:14 *785:16 2.28598e-05
44 *118:14 *1025:40 0.000432237
45 *118:14 *1062:37 1.7979e-05
46 *118:14 *1067:58 5.33005e-05
47 *118:14 *1083:23 3.98559e-05
48 *118:27 *3451:B1 2.44318e-05
49 *118:27 *146:61 0.000337644
50 *118:27 *147:55 0.000174854
51 *118:27 *1062:37 0.000355002
52 *118:27 *1067:58 7.48301e-06
53 *118:47 *2923:A1 0.000467923
54 *118:47 *3625:D 0
55 *118:47 *127:12 0.000192771
56 *118:47 *146:61 0.000682105
57 *118:47 *147:55 0.000400214
58 *118:47 *147:70 0.000100766
59 *118:61 *2923:A1 5.33005e-05
60 *118:61 *2923:A2 0.000139402
61 *118:61 *2925:A2 0.000178847
62 *118:61 *3511:A2 0.00041129
63 *118:61 *148:49 6.57914e-05
64 *118:61 *975:10 0.000288791
65 *118:85 *3215:A2 8.91822e-05
66 *118:85 *3215:B1 8.06427e-05
67 *118:85 *3418:A 2.09846e-05
68 *118:85 *3487:A2 0
69 *118:85 *3492:A1 0
70 *118:85 *3507:A1 0.000121573
71 *118:85 *3507:B1 2.72449e-05
72 *118:85 *3509:B 0
73 *118:85 *3511:A2 0
74 *118:85 *3512:A2 1.41029e-05
75 *118:85 *3617:D 0
76 *118:85 *3625:D 0
77 *118:85 *119:12 0
78 *118:85 *119:61 0
79 *118:85 *127:12 0.000123589
80 *118:85 *127:28 0.000142974
81 *118:85 *245:10 0
82 *118:85 *245:49 0
83 *118:85 *369:199 1.31235e-05
84 *118:85 *640:8 5.80706e-06
85 *118:85 *879:22 0
86 *118:85 *909:14 2.56601e-05
87 *118:85 *997:63 1.30748e-05
88 *118:85 *1052:29 0
89 *118:102 *3215:A2 1.02504e-05
90 *118:102 *3219:B 4.87931e-05
91 *118:102 *3220:B 8.1579e-05
92 *118:102 *3221:B1 2.47631e-06
93 *118:102 *3250:A1 5.71472e-05
94 *118:102 *3250:B1 2.44318e-05
95 *118:102 *639:10 0.000128146
96 *118:102 *645:17 9.80173e-05
97 *118:102 *647:12 6.58195e-05
98 *118:102 *992:18 0.000173328
99 *118:102 *1052:29 1.00375e-05
100 *118:113 *992:16 4.27935e-05
101 *118:113 *992:18 0.000400867
102 *118:113 *1051:83 5.52302e-05
103 *118:113 *1051:93 4.10641e-05
*RES
1 *3616:Q *118:14 35.4429 
2 *118:14 *3451:A1 9.3 
3 *118:14 *118:27 13.5357 
4 *118:27 *118:29 4.5 
5 *118:29 *3447:A 12.3357 
6 *118:29 *3448:A 9.3 
7 *118:27 *118:47 15.3036 
8 *118:47 *118:61 18.4464 
9 *118:61 *2922:B 15.1571 
10 *118:61 *3420:B 15.7464 
11 *118:47 *118:85 21.25 
12 *118:85 *3221:B2 9.3 
13 *118:85 *118:102 21.9821 
14 *118:102 *3220:A 9.72857 
15 *118:102 *118:113 4.66071 
16 *118:113 *3253:A 22.9786 
17 *118:113 *3248:B1 9.83571 
*END

*D_NET *119 0.0101834
*CONN
*I *3221:A1 I *D sky130_fd_sc_hd__o221a_1
*I *3215:A1 I *D sky130_fd_sc_hd__o21ai_2
*I *3210:A I *D sky130_fd_sc_hd__nor2_1
*I *3217:A1 I *D sky130_fd_sc_hd__o211a_1
*I *3148:A I *D sky130_fd_sc_hd__nand2_1
*I *3216:A1 I *D sky130_fd_sc_hd__o21ai_2
*I *3458:A1 I *D sky130_fd_sc_hd__a22o_1
*I *3418:B I *D sky130_fd_sc_hd__or4b_1
*I *2777:A I *D sky130_fd_sc_hd__inv_2
*I *3617:Q O *D sky130_fd_sc_hd__dfrtp_4
*CAP
1 *3221:A1 0.000123619
2 *3215:A1 0
3 *3210:A 9.62835e-06
4 *3217:A1 0
5 *3148:A 0.000464024
6 *3216:A1 0
7 *3458:A1 0
8 *3418:B 0.00124693
9 *2777:A 7.07948e-05
10 *3617:Q 0.000315206
11 *119:74 0.000487956
12 *119:72 0.000158399
13 *119:61 0.00048331
14 *119:33 0.00147477
15 *119:22 0.000476065
16 *119:20 0.00065252
17 *119:18 0.000220317
18 *119:12 0.000542528
19 *2777:A *245:8 3.67142e-05
20 *3148:A *3149:A 0.000213767
21 *3148:A *3149:C 0.000204129
22 *3148:A *3149:D 5.33005e-05
23 *3148:A *3222:B1 3.25247e-05
24 *3148:A *3222:B2 0
25 *3148:A *568:14 0.000402784
26 *3148:A *982:12 9.91086e-05
27 *3148:A *982:14 5.58941e-05
28 *3148:A *983:12 9.41642e-05
29 *3210:A *566:23 4.27935e-05
30 *3210:A *983:23 5.52302e-05
31 *3221:A1 *3215:A2 8.91726e-05
32 *3221:A1 *3257:A 0
33 *3418:B *3418:C 0.000120091
34 *3418:B *3458:A2 4.28365e-05
35 *3418:B *3505:A1 0.000203014
36 *3418:B *3518:B 0.000171036
37 *3418:B *125:23 0.000189681
38 *3418:B *125:25 0.000199342
39 *3418:B *126:30 7.4826e-05
40 *3418:B *129:12 5.50519e-05
41 *3418:B *1062:123 2.01525e-05
42 *119:12 *3617:RESET_B 1.70904e-05
43 *119:18 *641:8 9.31893e-05
44 *119:20 *641:8 5.52238e-05
45 *119:22 *245:8 2.95726e-05
46 *119:33 *3458:A2 1.02504e-05
47 *119:33 *3626:CLK 0
48 *119:33 *245:10 0.000154915
49 *119:33 *245:49 3.90513e-05
50 *119:33 *975:36 0
51 *119:33 *1062:123 1.17968e-05
52 *119:61 *3214:A1 0
53 *119:61 *3214:A2 0
54 *119:61 *3215:B1 5.48581e-05
55 *119:61 *3219:B 0
56 *119:61 *245:49 0
57 *119:61 *566:31 9.47456e-05
58 *119:61 *640:8 5.0725e-05
59 *119:61 *982:14 0
60 *119:72 *566:27 0.000100735
61 *119:72 *566:31 5.80706e-06
62 *119:72 *982:14 0
63 *119:74 *566:23 0.00014285
64 *119:74 *983:23 0.000140933
65 *118:85 *119:12 0
66 *118:85 *119:61 0
*RES
1 *3617:Q *119:12 19.175 
2 *119:12 *119:18 6.69643 
3 *119:18 *119:20 2.17857 
4 *119:20 *119:22 3 
5 *119:22 *2777:A 10.6571 
6 *119:22 *119:33 9.48214 
7 *119:33 *3418:B 29.5414 
8 *119:33 *3458:A1 13.8 
9 *119:20 *119:61 11.6071 
10 *119:61 *3216:A1 13.8 
11 *119:61 *119:72 7.35714 
12 *119:72 *119:74 1.35714 
13 *119:74 *3148:A 29.425 
14 *119:74 *3217:A1 9.3 
15 *119:72 *3210:A 9.83571 
16 *119:18 *3215:A1 9.3 
17 *119:12 *3221:A1 16.3536 
*END

*D_NET *120 0.0082674
*CONN
*I *3140:A I *D sky130_fd_sc_hd__xnor2_4
*I *3697:A I *D sky130_fd_sc_hd__buf_2
*I *3618:Q O *D sky130_fd_sc_hd__dfrtp_1
*CAP
1 *3140:A 0
2 *3697:A 0.000440957
3 *3618:Q 0.000165198
4 *120:37 0.00203934
5 *120:10 0.00264549
6 *3697:A *3463:A_N 0.000142856
7 *3697:A *3463:B 0.000123732
8 *3697:A *3464:C1 0.000272698
9 *3697:A *866:79 8.86413e-05
10 *3697:A *1061:236 8.25843e-06
11 *3697:A *1075:8 0.00016275
12 *3697:A *1075:14 5.52238e-05
13 *120:10 *3480:A2 0.00010096
14 *120:10 *121:25 0
15 *120:10 *882:10 3.34366e-05
16 *120:10 *882:12 0.000125724
17 *120:37 *2922:A 4.73656e-05
18 *120:37 *2925:C1 0.000124564
19 *120:37 *3105:B 0
20 *120:37 *3140:B 0
21 *120:37 *3143:B 0
22 *120:37 *3149:C 0
23 *120:37 *3154:A1 0
24 *120:37 *3420:A 0.000168465
25 *120:37 *3505:A1 4.32258e-05
26 *120:37 *3505:A2 9.56619e-05
27 *120:37 *3505:B1 0.000170849
28 *120:37 *3510:B 9.44259e-05
29 *120:37 *3514:B1 0.000148196
30 *120:37 *3520:B1_N 0
31 *120:37 *3624:RESET_B 9.1469e-05
32 *120:37 *3626:RESET_B 0.000145434
33 *120:37 *121:25 0
34 *120:37 *532:10 0
35 *120:37 *532:23 0
36 *120:37 *567:18 0.00015234
37 *120:37 *568:16 0
38 *120:37 *575:12 0
39 *120:37 *882:10 0.000117896
40 *120:37 *882:45 0.00012432
41 *120:37 *917:32 7.83659e-05
42 *120:37 *1066:68 1.46624e-05
43 *120:37 *1066:87 4.30517e-05
44 *120:37 *1066:100 0.00016825
45 *120:37 *1074:111 7.69776e-06
46 *120:37 *1075:62 0
47 *120:37 *1075:73 0
48 *120:37 *1085:100 2.58997e-05
*RES
1 *3618:Q *120:10 16.6929 
2 *120:10 *3697:A 24.0857 
3 *120:10 *120:37 44.25 
4 *120:37 *3140:A 9.3 
*END

*D_NET *121 0.00918329
*CONN
*I *3047:A1 I *D sky130_fd_sc_hd__o21bai_2
*I *3104:A I *D sky130_fd_sc_hd__xnor2_2
*I *3086:B1 I *D sky130_fd_sc_hd__o2bb2a_1
*I *3696:A I *D sky130_fd_sc_hd__clkbuf_2
*I *3619:Q O *D sky130_fd_sc_hd__dfrtp_2
*CAP
1 *3047:A1 0
2 *3104:A 0.000183426
3 *3086:B1 0
4 *3696:A 2.52056e-05
5 *3619:Q 0.000127994
6 *121:33 0.000650645
7 *121:25 0.00272918
8 *121:10 0.00241516
9 *3104:A *3101:A1 0
10 *3104:A *3103:B 5.83233e-05
11 *3104:A *3104:B 3.34295e-05
12 *3104:A *473:8 0
13 *3104:A *473:16 4.87953e-05
14 *3696:A *1085:22 5.52302e-05
15 *121:10 *3444:A1 3.5707e-05
16 *121:10 *3628:RESET_B 0
17 *121:10 *369:129 5.71472e-05
18 *121:10 *851:33 7.79781e-06
19 *121:25 *2925:A2 1.18451e-05
20 *121:25 *3214:A1 0
21 *121:25 *3420:A 0
22 *121:25 *3468:B 0
23 *121:25 *3505:B1 0
24 *121:25 *3511:B1 9.47456e-05
25 *121:25 *3520:B1_N 0.000254654
26 *121:25 *3626:CLK 0.000105884
27 *121:25 *3626:D 0.00010326
28 *121:25 *3626:RESET_B 0
29 *121:25 *126:18 0.000190208
30 *121:25 *355:12 0.000144635
31 *121:25 *851:33 0.000174357
32 *121:25 *882:12 0
33 *121:25 *917:32 0
34 *121:25 *975:10 0.000203816
35 *121:25 *975:21 5.56962e-05
36 *121:25 *975:36 6.35254e-05
37 *121:33 *3047:A2 0.000325393
38 *121:33 *3103:A 4.16114e-05
39 *121:33 *3103:B 0.000393998
40 *121:33 *470:25 0.000446214
41 *121:33 *473:8 0
42 *121:33 *1074:64 0
43 *3420:B *121:25 0.000145405
44 *120:10 *121:25 0
45 *120:37 *121:25 0
*RES
1 *3619:Q *121:10 15.9786 
2 *121:10 *3696:A 14.3357 
3 *121:10 *121:25 47.7143 
4 *121:25 *121:33 16.7679 
5 *121:33 *3086:B1 13.8 
6 *121:33 *3104:A 17.6036 
7 *121:25 *3047:A1 9.3 
*END

*D_NET *122 0.0174687
*CONN
*I *3480:B2 I *D sky130_fd_sc_hd__a32o_1
*I *2778:A I *D sky130_fd_sc_hd__inv_2
*I *3042:B1 I *D sky130_fd_sc_hd__a21oi_2
*I *3043:A I *D sky130_fd_sc_hd__and3_1
*I *3421:B I *D sky130_fd_sc_hd__or4b_1
*I *2925:B1 I *D sky130_fd_sc_hd__a211o_1
*I *3416:A1 I *D sky130_fd_sc_hd__o31a_1
*I *3478:B I *D sky130_fd_sc_hd__and3_1
*I *3477:B1 I *D sky130_fd_sc_hd__a21oi_1
*I *3476:B I *D sky130_fd_sc_hd__and3_1
*I *3620:Q O *D sky130_fd_sc_hd__dfrtp_4
*CAP
1 *3480:B2 0
2 *2778:A 7.55583e-05
3 *3042:B1 0.000145531
4 *3043:A 0.000110173
5 *3421:B 0
6 *2925:B1 0.000321516
7 *3416:A1 0.000489857
8 *3478:B 0
9 *3477:B1 3.26257e-05
10 *3476:B 0.000131109
11 *3620:Q 0.000523651
12 *122:108 0.000802924
13 *122:102 0.00149096
14 *122:74 0.000462108
15 *122:70 0.00105451
16 *122:53 0.000798938
17 *122:42 0.00032236
18 *122:29 0.000175988
19 *122:18 0.000741953
20 *122:12 0.00105015
21 *2778:A *2977:B 7.15962e-05
22 *2925:B1 *2925:A1 5.33005e-05
23 *2925:B1 *2925:A2 4.56796e-05
24 *2925:B1 *3421:D_N 0.00014743
25 *2925:B1 *3422:A1 5.21291e-05
26 *2925:B1 *3423:C 0.000273269
27 *2925:B1 *3649:A 5.7661e-06
28 *2925:B1 *967:177 0.000221716
29 *2925:B1 *1062:94 0
30 *3042:B1 *3043:B 0
31 *3042:B1 *3044:A 2.89114e-05
32 *3042:B1 *3044:B 1.00375e-05
33 *3042:B1 *3045:B 0.000100831
34 *3042:B1 *1074:64 0
35 *3043:A *3043:C 0.000103714
36 *3043:A *3044:B 0.000274288
37 *3043:A *3045:A 0.000219818
38 *3416:A1 *3416:A3 2.22043e-05
39 *3416:A1 *3417:B 5.7903e-06
40 *3416:A1 *3423:A 0.000628535
41 *3416:A1 *3526:B1 0.000305623
42 *3416:A1 *3533:A2 1.8115e-05
43 *3416:A1 *851:29 9.03213e-05
44 *3416:A1 *1061:176 0.000562088
45 *3416:A1 *1061:191 0.000516742
46 *3416:A1 *1061:236 0.000607772
47 *3416:A1 *1071:24 1.67937e-05
48 *3476:B *3484:A 0.00018077
49 *3477:B1 *3479:A1 5.33005e-05
50 *3477:B1 *3485:B1 9.41642e-05
51 *3477:B1 *3620:CLK 1.98839e-05
52 *122:12 *3463:A_N 7.32272e-05
53 *122:12 *3620:RESET_B 4.27935e-05
54 *122:12 *866:79 0
55 *122:12 *1062:76 6.88463e-06
56 *122:12 *1062:94 0
57 *122:12 *1066:68 2.34204e-05
58 *122:12 *1074:25 0
59 *122:12 *1074:36 0
60 *122:18 *3471:B1 9.25014e-06
61 *122:18 *3484:A 0.000135028
62 *122:18 *3689:A 0.000354111
63 *122:18 *1062:76 1.65558e-05
64 *122:18 *1066:55 5.87768e-05
65 *122:18 *1074:25 0
66 *122:29 *849:12 0.000213012
67 *122:29 *1060:45 0.000215441
68 *122:42 *849:12 0.000161411
69 *122:42 *1060:37 9.22948e-05
70 *122:42 *1060:39 6.98302e-05
71 *122:42 *1060:45 9.25014e-06
72 *122:53 *851:12 9.88134e-05
73 *122:53 *907:10 0.000377048
74 *122:70 *3423:B 4.6025e-06
75 *122:70 *851:12 2.01584e-05
76 *122:70 *907:10 8.44287e-05
77 *122:70 *1060:37 7.48679e-06
78 *122:74 *3423:C 8.56752e-05
79 *122:102 *3419:A 9.83051e-06
80 *122:102 *3419:B 5.20298e-05
81 *122:102 *3423:B 0.000103656
82 *122:102 *3489:A 0
83 *122:102 *3491:A2 0.00016284
84 *122:102 *3500:A2 7.50697e-05
85 *122:102 *3623:RESET_B 0.000108111
86 *122:102 *125:12 0.000102305
87 *122:102 *129:10 0
88 *122:102 *129:12 0
89 *122:102 *907:10 0.000521981
90 *122:102 *907:21 0.000144512
91 *122:102 *1060:29 0
92 *122:102 *1062:94 1.18451e-05
93 *122:102 *1066:108 0
94 *122:102 *1070:10 0
95 *122:102 *1085:85 0.000198698
96 *122:108 *2977:B 0.000324364
97 *122:108 *3043:B 0
98 *122:108 *3045:B 3.34295e-05
99 *122:108 *403:8 0
100 *122:108 *1074:64 0
*RES
1 *3620:Q *122:12 20.4071 
2 *122:12 *122:18 11.9286 
3 *122:18 *3476:B 11.0679 
4 *122:18 *122:29 7.35714 
5 *122:29 *3477:B1 14.7464 
6 *122:29 *122:42 6.75 
7 *122:42 *3478:B 9.3 
8 *122:42 *122:53 9.27679 
9 *122:53 *3416:A1 23.5382 
10 *122:53 *122:70 1.1875 
11 *122:70 *122:74 6.26786 
12 *122:74 *2925:B1 25.8714 
13 *122:74 *3421:B 9.3 
14 *122:70 *122:102 23.1429 
15 *122:102 *122:108 15.5893 
16 *122:108 *3043:A 18.0321 
17 *122:108 *3042:B1 16.6929 
18 *122:102 *2778:A 11.0679 
19 *122:12 *3480:B2 13.8 
*END

*D_NET *123 0.00469646
*CONN
*I *3695:A I *D sky130_fd_sc_hd__clkbuf_2
*I *3417:D I *D sky130_fd_sc_hd__and4b_1
*I *3621:Q O *D sky130_fd_sc_hd__dfrtp_1
*CAP
1 *3695:A 0
2 *3417:D 0.00126789
3 *3621:Q 0.000170908
4 *123:12 0.0014388
5 *3417:D *1102:DIODE 7.69776e-06
6 *3417:D *3417:B 2.22625e-05
7 *3417:D *3486:A3 0.000337175
8 *3417:D *3506:A2 3.49781e-05
9 *3417:D *3526:A3 2.42672e-05
10 *3417:D *3527:B1 4.58919e-05
11 *3417:D *3527:B2 0.000122065
12 *3417:D *3530:A1 7.38492e-05
13 *3417:D *3531:A 2.39852e-05
14 *3417:D *3531:B 1.58163e-05
15 *3417:D *3531:C 0.000110922
16 *3417:D *3534:B1 1.43404e-05
17 *3417:D *3621:D 1.02504e-05
18 *3417:D *131:28 3.25411e-05
19 *3417:D *900:8 1.03968e-05
20 *3417:D *967:104 0
21 *3417:D *967:159 0
22 *3417:D *1063:72 3.43988e-06
23 *3417:D *1063:83 7.57526e-05
24 *3417:D *1063:98 0.000383084
25 *3417:D *1066:27 8.33869e-05
26 *3417:D *1070:88 1.62435e-06
27 *123:12 *3621:RESET_B 5.83233e-05
28 *123:12 *3628:RESET_B 8.6229e-06
29 *123:12 *369:66 0
30 *123:12 *849:12 3.40133e-05
31 *123:12 *866:20 0.00010047
32 *123:12 *1066:27 0.000183713
*RES
1 *3621:Q *123:12 22.3179 
2 *123:12 *3417:D 42.3848 
3 *123:12 *3695:A 9.3 
*END

*D_NET *124 0.00110125
*CONN
*I *3694:A I *D sky130_fd_sc_hd__buf_2
*I *3489:A I *D sky130_fd_sc_hd__nor2_1
*I *3622:Q O *D sky130_fd_sc_hd__dfrtp_1
*CAP
1 *3694:A 0
2 *3489:A 0.000136413
3 *3622:Q 0.000238726
4 *124:10 0.00037514
5 *3489:A *3491:A1 6.09476e-05
6 *3489:A *3493:B1 0
7 *3489:A *3500:A2 0
8 *3489:A *914:23 5.58941e-05
9 *3489:A *1060:29 3.34295e-05
10 *3489:A *1066:108 1.41706e-05
11 *3489:A *1072:75 0
12 *124:10 *3493:B1 0
13 *124:10 *3623:D 0.000102545
14 *124:10 *974:19 0
15 *124:10 *1066:108 7.85886e-05
16 *124:10 *1074:64 0
17 *124:10 *1085:85 5.39629e-06
18 *122:102 *3489:A 0
*RES
1 *3622:Q *124:10 18.4071 
2 *124:10 *3489:A 16.6571 
3 *124:10 *3694:A 13.8 
*END

*D_NET *125 0.0072693
*CONN
*I *3497:A I *D sky130_fd_sc_hd__nor2_1
*I *3504:A I *D sky130_fd_sc_hd__and3_1
*I *3498:B I *D sky130_fd_sc_hd__and3_1
*I *2958:B1 I *D sky130_fd_sc_hd__o211a_1
*I *2978:C1 I *D sky130_fd_sc_hd__o221a_1
*I *2779:A I *D sky130_fd_sc_hd__inv_2
*I *2928:B I *D sky130_fd_sc_hd__or4_1
*I *3418:C I *D sky130_fd_sc_hd__or4b_1
*I *3500:B2 I *D sky130_fd_sc_hd__a32o_1
*I *3623:Q O *D sky130_fd_sc_hd__dfrtp_4
*CAP
1 *3497:A 0
2 *3504:A 3.89389e-05
3 *3498:B 8.10433e-05
4 *2958:B1 2.23854e-05
5 *2978:C1 1.64648e-05
6 *2779:A 0
7 *2928:B 7.14281e-05
8 *3418:C 7.732e-05
9 *3500:B2 0
10 *3623:Q 0.000243575
11 *125:59 0.000201257
12 *125:46 0.000358961
13 *125:42 0.000632989
14 *125:40 0.000748304
15 *125:38 0.000305079
16 *125:25 0.0002435
17 *125:23 0.000172953
18 *125:12 0.00035709
19 *2928:B *2959:B1_N 0
20 *2928:B *1073:54 0.000128154
21 *2978:C1 *2980:A2 2.89114e-05
22 *2978:C1 *390:66 2.89114e-05
23 *3418:C *3518:B 2.73453e-05
24 *3418:C *1062:94 8.24475e-05
25 *3504:A *3692:A 0
26 *125:12 *129:12 0
27 *125:12 *909:14 0.000179584
28 *125:12 *1062:94 3.17148e-05
29 *125:12 *1085:98 0.000261188
30 *125:23 *3500:A1 5.33005e-05
31 *125:23 *129:12 0
32 *125:23 *1062:94 0.000215056
33 *125:23 *1062:119 4.08637e-05
34 *125:25 *1062:94 0.000128254
35 *125:38 *3504:C 9.50968e-06
36 *125:38 *126:30 7.02611e-05
37 *125:38 *126:38 4.13496e-05
38 *125:38 *919:10 1.92789e-05
39 *125:40 *3692:A 3.14163e-05
40 *125:40 *126:38 0.000141975
41 *125:42 *3498:C 9.50968e-06
42 *125:42 *3627:D 7.3237e-05
43 *125:42 *3692:A 0.000211433
44 *125:42 *126:62 0.00040279
45 *125:42 *130:6 6.09804e-05
46 *125:42 *843:22 0.000464594
47 *125:59 *2959:B1_N 0
48 *125:59 *2978:B1 2.8266e-06
49 *125:59 *2979:B2 8.49707e-05
50 *125:59 *2980:A1 0
51 *125:59 *1072:22 5.38886e-05
52 *125:59 *1073:54 3.34366e-05
53 *125:59 *1073:67 0.000169405
54 *3418:B *3418:C 0.000120091
55 *3418:B *125:23 0.000189681
56 *3418:B *125:25 0.000199342
57 *122:102 *125:12 0.000102305
*RES
1 *3623:Q *125:12 25.4964 
2 *125:12 *3500:B2 9.3 
3 *125:12 *125:23 8.30357 
4 *125:23 *125:25 2.55357 
5 *125:25 *3418:C 16.05 
6 *125:25 *125:38 6.67857 
7 *125:38 *125:40 3.41071 
8 *125:40 *125:42 13.6786 
9 *125:42 *125:46 5.85714 
10 *125:46 *2928:B 15.4429 
11 *125:46 *125:59 9.78571 
12 *125:59 *2779:A 9.3 
13 *125:59 *2978:C1 9.83571 
14 *125:42 *2958:B1 9.72857 
15 *125:40 *3498:B 10.5679 
16 *125:38 *3504:A 10.0321 
17 *125:23 *3497:A 13.8 
*END

*D_NET *126 0.010627
*CONN
*I *3506:B2 I *D sky130_fd_sc_hd__a32o_1
*I *3503:A I *D sky130_fd_sc_hd__nor2_1
*I *3504:B I *D sky130_fd_sc_hd__and3_1
*I *3518:A I *D sky130_fd_sc_hd__and4_1
*I *2987:A I *D sky130_fd_sc_hd__xnor2_2
*I *2958:C1 I *D sky130_fd_sc_hd__o211a_1
*I *2927:A_N I *D sky130_fd_sc_hd__nand2b_1
*I *3412:B I *D sky130_fd_sc_hd__and4b_1
*I *3624:Q O *D sky130_fd_sc_hd__dfrtp_4
*CAP
1 *3506:B2 0
2 *3503:A 0
3 *3504:B 0
4 *3518:A 0
5 *2987:A 0
6 *2958:C1 0
7 *2927:A_N 0
8 *3412:B 0.000136513
9 *3624:Q 0.00035209
10 *126:74 0.000554848
11 *126:62 0.000867704
12 *126:50 0.000970921
13 *126:38 0.00084755
14 *126:30 0.000630756
15 *126:22 0.000557949
16 *126:18 0.000605282
17 *3412:B *2927:B 2.05484e-05
18 *3412:B *3412:A_N 8.46642e-05
19 *3412:B *3543:C 4.46186e-06
20 *3412:B *1073:50 4.28821e-05
21 *3412:B *1073:54 4.46186e-06
22 *126:18 *1100:DIODE 9.60875e-05
23 *126:18 *3505:A2 2.59355e-05
24 *126:18 *3506:A1 9.15745e-05
25 *126:18 *3506:A3 2.14658e-05
26 *126:18 *3519:A3 5.41794e-05
27 *126:18 *3624:CLK 5.03772e-05
28 *126:18 *917:32 0.000114655
29 *126:18 *975:21 4.33438e-05
30 *126:18 *975:36 2.03008e-05
31 *126:18 *1062:119 5.03772e-05
32 *126:22 *3503:B 1.97695e-05
33 *126:22 *3506:A1 5.35755e-05
34 *126:22 *3506:A3 2.42516e-05
35 *126:22 *3506:B1 3.33174e-05
36 *126:30 *3518:B 0.000113768
37 *126:30 *129:12 0.000200538
38 *126:30 *129:18 4.38265e-05
39 *126:30 *919:10 5.20359e-06
40 *126:38 *3518:D 0.000119778
41 *126:38 *914:23 1.02504e-05
42 *126:38 *1060:29 0.000118057
43 *126:50 *3491:B1 9.41642e-05
44 *126:50 *3493:B1 4.73656e-05
45 *126:50 *3518:B 1.74352e-05
46 *126:50 *3518:C 5.33005e-05
47 *126:50 *3518:D 4.43157e-05
48 *126:50 *3527:A2 6.42095e-05
49 *126:50 *843:22 0.000177815
50 *126:50 *974:8 0.00019021
51 *126:50 *974:19 0.000362538
52 *126:50 *1072:12 0.000314325
53 *126:50 *1072:75 0.000280028
54 *126:50 *1072:79 0.000213456
55 *126:62 *2974:A 0
56 *126:62 *130:6 5.62995e-05
57 *126:62 *1072:12 0.000152036
58 *126:62 *1073:75 0
59 *126:62 *1085:66 1.02504e-05
60 *126:62 *1085:77 0.000382025
61 *126:74 *2928:A 7.41431e-05
62 *126:74 *2934:A2 5.80591e-05
63 *126:74 *3417:B 0
64 *126:74 *3531:B 0
65 *126:74 *129:48 0
66 *126:74 *131:40 0.000118243
67 *126:74 *1072:26 4.1331e-06
68 *126:74 *1073:54 0
69 *3418:B *126:30 7.4826e-05
70 *121:25 *126:18 0.000190208
71 *125:38 *126:30 7.02611e-05
72 *125:38 *126:38 4.13496e-05
73 *125:40 *126:38 0.000141975
74 *125:42 *126:62 0.00040279
*RES
1 *3624:Q *126:18 26.5857 
2 *126:18 *126:22 4.25 
3 *126:22 *126:30 14.75 
4 *126:30 *126:38 14.0536 
5 *126:38 *126:50 24.5893 
6 *126:50 *126:62 20.1071 
7 *126:62 *126:74 16.8214 
8 *126:74 *3412:B 21.3893 
9 *126:74 *2927:A_N 9.3 
10 *126:62 *2958:C1 9.3 
11 *126:50 *2987:A 9.3 
12 *126:38 *3518:A 9.3 
13 *126:30 *3504:B 9.3 
14 *126:22 *3503:A 9.3 
15 *126:18 *3506:B2 9.3 
*END

*D_NET *127 0.00776761
*CONN
*I *3693:A I *D sky130_fd_sc_hd__clkbuf_4
*I *3514:A1 I *D sky130_fd_sc_hd__a21o_1
*I *3518:B I *D sky130_fd_sc_hd__and4_1
*I *3625:Q O *D sky130_fd_sc_hd__dfrtp_1
*CAP
1 *3693:A 0
2 *3514:A1 0
3 *3518:B 0.000636629
4 *3625:Q 0.000523695
5 *127:28 0.0017607
6 *127:12 0.00164777
7 *3518:B *3418:A 0.000112483
8 *3518:B *3419:B 0.00030926
9 *3518:B *3423:B 0.000140933
10 *3518:B *3515:C 0
11 *3518:B *3517:A3 0.000136958
12 *3518:B *3518:D 5.71472e-05
13 *3518:B *129:18 3.03395e-05
14 *3518:B *843:22 9.91956e-05
15 *3518:B *919:10 0.000178847
16 *3518:B *919:25 0.000257619
17 *3518:B *1062:94 0
18 *127:12 *2924:A2 1.29227e-05
19 *127:12 *3418:A 0.000162419
20 *127:12 *3682:A 0.000113073
21 *127:12 *147:70 0.000148038
22 *127:12 *1059:6 5.33005e-05
23 *127:12 *1059:12 9.71197e-05
24 *127:28 *3507:A1 9.00795e-06
25 *127:28 *3507:A2 4.01768e-05
26 *127:28 *3511:C1 9.41642e-05
27 *127:28 *3517:A2 5.19842e-06
28 *127:28 *3517:A3 0.000318983
29 *127:28 *3517:B1 1.58163e-05
30 *127:28 *3519:B1 4.45768e-06
31 *127:28 *245:10 0
32 *127:28 *919:25 1.24368e-05
33 *3418:B *3518:B 0.000171036
34 *3418:C *3518:B 2.73453e-05
35 *118:47 *127:12 0.000192771
36 *118:85 *127:12 0.000123589
37 *118:85 *127:28 0.000142974
38 *126:30 *3518:B 0.000113768
39 *126:50 *3518:B 1.74352e-05
*RES
1 *3625:Q *127:12 27.425 
2 *127:12 *127:28 25.1071 
3 *127:28 *3518:B 33.2464 
4 *127:28 *3514:A1 9.3 
5 *127:12 *3693:A 9.3 
*END

*D_NET *128 0.00500521
*CONN
*I *2944:B I *D sky130_fd_sc_hd__and4_1
*I *2920:B I *D sky130_fd_sc_hd__or4_1
*I *2946:A1 I *D sky130_fd_sc_hd__a31o_1
*I *2940:A I *D sky130_fd_sc_hd__nand2_1
*I *2941:A I *D sky130_fd_sc_hd__or2_1
*I *3607:Q O *D sky130_fd_sc_hd__dfrtp_1
*CAP
1 *2944:B 8.96527e-05
2 *2920:B 0.000669967
3 *2946:A1 0.000120892
4 *2940:A 0
5 *2941:A 0.000140712
6 *3607:Q 8.26403e-05
7 *128:47 0.000868838
8 *128:16 0.000429539
9 *128:12 0.000601915
10 *128:8 0.000384055
11 *2920:B *2920:D 5.34667e-05
12 *2920:B *2948:A 0.000125057
13 *2920:B *2948:B 8.18698e-05
14 *2920:B *375:14 2.59355e-05
15 *2920:B *375:18 6.05161e-06
16 *2920:B *1086:36 0
17 *2941:A *372:8 6.65398e-05
18 *2941:A *973:32 1.78353e-05
19 *2944:B *3654:A 2.59355e-05
20 *2944:B *143:32 6.34166e-05
21 *2944:B *375:14 7.14469e-05
22 *2946:A1 *2946:A2 2.06178e-05
23 *2946:A1 *143:10 0
24 *2946:A1 *370:14 5.41573e-05
25 *128:8 *3610:RESET_B 0
26 *128:8 *139:19 0.000150625
27 *128:12 *3610:RESET_B 9.92409e-05
28 *128:12 *143:10 2.89016e-05
29 *128:16 *2940:B 9.41642e-05
30 *128:16 *370:14 0.000228558
31 *128:47 *139:19 0.000146474
32 *128:47 *143:10 0.000121573
33 *128:47 *143:32 7.95909e-05
34 *128:47 *375:14 5.55405e-05
*RES
1 *3607:Q *128:8 15.7464 
2 *128:8 *128:12 8.32143 
3 *128:12 *128:16 5.48214 
4 *128:16 *2941:A 21.0857 
5 *128:16 *2940:A 9.3 
6 *128:12 *2946:A1 20.55 
7 *128:8 *128:47 3.16071 
8 *128:47 *2920:B 23.6214 
9 *128:47 *2944:B 15.3714 
*END

*D_NET *129 0.015507
*CONN
*I *3520:A1 I *D sky130_fd_sc_hd__a21bo_1
*I *3518:C I *D sky130_fd_sc_hd__and4_1
*I *3417:C I *D sky130_fd_sc_hd__and4b_1
*I *2926:D_N I *D sky130_fd_sc_hd__or4bb_1
*I *2986:A I *D sky130_fd_sc_hd__xnor2_2
*I *2967:B1 I *D sky130_fd_sc_hd__o21a_1
*I *2918:A2 I *D sky130_fd_sc_hd__a211o_1
*I *3514:B1 I *D sky130_fd_sc_hd__a21o_1
*I *3515:B I *D sky130_fd_sc_hd__and3_1
*I *3626:Q O *D sky130_fd_sc_hd__dfrtp_4
*CAP
1 *3520:A1 0.000188378
2 *3518:C 0.000127174
3 *3417:C 0
4 *2926:D_N 0
5 *2986:A 0.000415061
6 *2967:B1 4.47969e-05
7 *2918:A2 0.000186897
8 *3514:B1 0.000345122
9 *3515:B 0
10 *3626:Q 0.000124267
11 *129:81 0.00063439
12 *129:64 0.000583758
13 *129:56 0.00079998
14 *129:48 0.00147568
15 *129:40 0.00146711
16 *129:18 0.000473353
17 *129:12 0.00101678
18 *129:10 0.000759291
19 *2918:A2 *2969:A 2.11609e-05
20 *2918:A2 *3417:A_N 0.000180777
21 *2918:A2 *1071:30 1.02504e-05
22 *2918:A2 *1071:43 2.86989e-05
23 *2967:B1 *2983:B 2.44318e-05
24 *2967:B1 *390:66 1.98839e-05
25 *2967:B1 *393:8 5.52302e-05
26 *2967:B1 *1071:58 9.71197e-05
27 *2986:A *2983:B 6.32633e-05
28 *2986:A *2984:A 0.000121573
29 *2986:A *384:32 2.74501e-05
30 *2986:A *410:8 0.000315165
31 *2986:A *417:10 0.000182179
32 *2986:A *1070:40 4.49293e-05
33 *3514:B1 *3418:A 0.000375614
34 *3514:B1 *3505:B1 0.000148196
35 *3518:C *3518:D 0.000194228
36 *3518:C *902:21 0.000173044
37 *3518:C *914:23 3.40456e-05
38 *3520:A1 *3520:A2 0.000140933
39 *3520:A1 *3626:D 7.61932e-05
40 *3520:A1 *1066:108 0.000310298
41 *129:10 *3422:A1 9.87286e-05
42 *129:12 *3422:A1 0.000179162
43 *129:12 *3505:A1 1.01912e-05
44 *129:12 *3515:C 2.34423e-05
45 *129:12 *3624:D 0.000124529
46 *129:12 *919:10 2.26327e-05
47 *129:12 *1062:119 2.50479e-05
48 *129:18 *3418:A 9.90367e-05
49 *129:18 *3515:C 5.28461e-05
50 *129:40 *3505:A1 1.74806e-05
51 *129:40 *3506:A2 0.000410662
52 *129:48 *3419:A 0.000200828
53 *129:48 *3506:A2 0.00017985
54 *129:48 *3527:B2 0.000294579
55 *129:48 *3531:B 0
56 *129:48 *843:22 2.79092e-05
57 *129:48 *1085:66 0
58 *129:56 *2926:C_N 3.43598e-05
59 *129:56 *2928:A 5.52302e-05
60 *129:56 *2928:C 1.95646e-05
61 *129:56 *2928:D 0.000139913
62 *129:56 *2929:B1 0.000139907
63 *129:56 *2934:A2 9.94188e-05
64 *129:56 *3417:A_N 0.000128168
65 *129:56 *3417:B 5.71472e-05
66 *129:56 *132:62 0
67 *129:64 *3414:A 3.89493e-05
68 *129:64 *3417:A_N 0.0002083
69 *129:64 *131:53 2.11515e-05
70 *129:81 *2918:C1 0.000173804
71 *129:81 *350:23 6.07328e-05
72 *129:81 *384:10 4.038e-06
73 *129:81 *384:32 7.79781e-06
74 *129:81 *1070:31 0.000150625
75 *129:81 *1070:40 0.00038501
76 *129:81 *1071:58 0.000197991
77 *3418:B *129:12 5.50519e-05
78 *3518:B *129:18 3.03395e-05
79 *120:37 *3514:B1 0.000148196
80 *122:102 *129:10 0
81 *122:102 *129:12 0
82 *125:12 *129:12 0
83 *125:23 *129:12 0
84 *126:30 *129:12 0.000200538
85 *126:30 *129:18 4.38265e-05
86 *126:50 *3518:C 5.33005e-05
87 *126:74 *129:48 0
*RES
1 *3626:Q *129:10 16.2821 
2 *129:10 *129:12 10.2946 
3 *129:12 *129:18 6.9375 
4 *129:18 *3515:B 9.3 
5 *129:18 *3514:B1 24.0679 
6 *129:12 *129:40 4.68213 
7 *129:40 *129:48 12.5361 
8 *129:48 *129:56 10.0357 
9 *129:56 *129:64 12.2143 
10 *129:64 *2918:A2 21.1036 
11 *129:64 *129:81 11.3036 
12 *129:81 *2967:B1 15.1571 
13 *129:81 *2986:A 22.8 
14 *129:56 *2926:D_N 9.3 
15 *129:48 *3417:C 9.3 
16 *129:40 *3518:C 20.1475 
17 *129:10 *3520:A1 18.4429 
*END

*D_NET *130 0.00417363
*CONN
*I *3692:A I *D sky130_fd_sc_hd__buf_2
*I *3531:A I *D sky130_fd_sc_hd__and3_1
*I *3532:A I *D sky130_fd_sc_hd__and3_1
*I *3627:Q O *D sky130_fd_sc_hd__dfrtp_1
*CAP
1 *3692:A 0.000697841
2 *3531:A 7.62888e-06
3 *3532:A 0.000348708
4 *3627:Q 0.00019591
5 *130:10 0.000546402
6 *130:6 0.00108382
7 *3531:A *3531:C 2.39852e-05
8 *3532:A *3421:C 0
9 *3532:A *3525:B 0.00018854
10 *3532:A *3527:B2 0
11 *3532:A *3530:A1 2.69767e-06
12 *3532:A *3531:C 6.2589e-06
13 *3532:A *3532:C 4.3581e-05
14 *3532:A *131:28 2.70095e-05
15 *3532:A *967:159 0.000189115
16 *3532:A *1070:88 2.73478e-05
17 *3532:A *1085:66 9.92379e-05
18 *3692:A *3498:C 1.95435e-05
19 *3692:A *3627:D 0.000139913
20 *130:10 *3527:A2 0
21 *130:10 *3527:B2 0
22 *130:10 *3627:D 0
23 *130:10 *1085:66 0.000110269
24 *130:10 *1085:77 3.17067e-05
25 *3417:D *3531:A 2.39852e-05
26 *3504:A *3692:A 0
27 *125:40 *3692:A 3.14163e-05
28 *125:42 *3692:A 0.000211433
29 *125:42 *130:6 6.09804e-05
30 *126:62 *130:6 5.62995e-05
*RES
1 *3627:Q *130:6 11.8893 
2 *130:6 *130:10 8.26786 
3 *130:10 *3532:A 20.8804 
4 *130:10 *3531:A 14.0411 
5 *130:6 *3692:A 18.3714 
*END

*D_NET *131 0.0124295
*CONN
*I *3530:B1 I *D sky130_fd_sc_hd__a21oi_1
*I *3421:C I *D sky130_fd_sc_hd__or4b_1
*I *3534:B2 I *D sky130_fd_sc_hd__a32o_1
*I *3532:B I *D sky130_fd_sc_hd__and3_1
*I *3531:B I *D sky130_fd_sc_hd__and3_1
*I *2918:C1 I *D sky130_fd_sc_hd__a211o_1
*I *2917:B I *D sky130_fd_sc_hd__or2_1
*I *2990:B1 I *D sky130_fd_sc_hd__o31ai_1
*I *2926:B I *D sky130_fd_sc_hd__or4bb_1
*I *3411:B I *D sky130_fd_sc_hd__and4_1
*I *3628:Q O *D sky130_fd_sc_hd__dfrtp_4
*CAP
1 *3530:B1 0
2 *3421:C 0.00062864
3 *3534:B2 0
4 *3532:B 0
5 *3531:B 0.000172976
6 *2918:C1 0.000108203
7 *2917:B 0
8 *2990:B1 0.000260111
9 *2926:B 0
10 *3411:B 0.000127563
11 *3628:Q 0.000221469
12 *131:126 0.000751238
13 *131:68 0.000380906
14 *131:66 0.000456704
15 *131:53 0.000408978
16 *131:40 0.000870216
17 *131:34 0.000838731
18 *131:28 0.000465002
19 *131:16 0.000400399
20 *131:14 0.000383839
21 *2918:C1 *2926:C_N 1.33343e-05
22 *2918:C1 *2934:A2 5.52238e-05
23 *2918:C1 *3414:C 0.00014101
24 *2918:C1 *132:64 5.71472e-05
25 *2918:C1 *350:23 9.4724e-05
26 *2918:C1 *1070:22 5.80706e-06
27 *2918:C1 *1070:31 3.00441e-05
28 *2990:B1 *2968:B1 0.000217305
29 *2990:B1 *2969:B 4.24765e-05
30 *2990:B1 *3414:A 8.71847e-05
31 *2990:B1 *3637:RESET_B 9.25014e-06
32 *2990:B1 *395:10 0.000267353
33 *3411:B *3411:A 0.000151843
34 *3411:B *3411:D 5.71472e-05
35 *3411:B *3415:C 0
36 *3411:B *1061:176 0
37 *3421:C *3421:D_N 0.000144773
38 *3421:C *3423:A 0.000274288
39 *3421:C *3423:C 0.000311183
40 *3421:C *3423:D_N 2.14757e-05
41 *3421:C *3533:A1 1.92905e-05
42 *3421:C *3533:A2 1.32552e-05
43 *3421:C *931:16 1.68715e-05
44 *3421:C *974:49 0.000177821
45 *3421:C *1061:199 2.28499e-05
46 *3531:B *843:22 5.80706e-06
47 *3531:B *942:16 0.000159778
48 *3531:B *1085:66 0.000285327
49 *131:14 *3534:A3 0.000140933
50 *131:14 *3534:B1 0.000424562
51 *131:14 *3628:RESET_B 0.000188586
52 *131:14 *974:53 9.90364e-05
53 *131:14 *974:63 0.00017737
54 *131:14 *1063:98 0
55 *131:14 *1072:93 1.21258e-05
56 *131:14 *1073:30 0
57 *131:16 *3534:A3 0.000180764
58 *131:16 *3534:B1 0.000182694
59 *131:28 *1102:DIODE 1.90936e-05
60 *131:28 *3525:B 3.17148e-05
61 *131:28 *3530:A1 5.4695e-05
62 *131:28 *3532:C 6.12434e-05
63 *131:28 *3534:A1 2.64807e-05
64 *131:28 *3543:C 0
65 *131:28 *931:16 0
66 *131:28 *931:18 5.33005e-05
67 *131:28 *967:159 1.20729e-05
68 *131:34 *3532:C 6.09565e-06
69 *131:34 *942:16 9.2667e-05
70 *131:34 *1072:93 9.33978e-07
71 *131:34 *1085:66 9.45051e-05
72 *131:40 *2927:B 1.25355e-05
73 *131:40 *2934:A2 1.63181e-05
74 *131:40 *3414:D 3.55552e-05
75 *131:40 *3415:C 0.000181796
76 *131:53 *1124:DIODE 0
77 *131:53 *2926:A 0.000104044
78 *131:53 *2928:C 2.24537e-05
79 *131:53 *3411:A 0.000112954
80 *131:53 *3414:A 0
81 *131:53 *1073:54 0
82 *131:66 *2928:C 5.80706e-06
83 *131:66 *2959:B1_N 8.98897e-05
84 *131:66 *3414:A 2.42516e-05
85 *131:66 *350:23 0
86 *131:66 *384:10 0.000230475
87 *131:68 *3414:A 5.035e-05
88 *131:126 *1063:98 0.000138042
89 *3417:D *3531:B 1.58163e-05
90 *3417:D *131:28 3.25411e-05
91 *3532:A *3421:C 0
92 *3532:A *131:28 2.70095e-05
93 *126:74 *3531:B 0
94 *126:74 *131:40 0.000118243
95 *129:48 *3531:B 0
96 *129:64 *131:53 2.11515e-05
97 *129:81 *2918:C1 0.000173804
*RES
1 *3628:Q *131:14 26.1036 
2 *131:14 *131:16 1.76786 
3 *131:16 *131:28 14.5893 
4 *131:28 *131:34 6.375 
5 *131:34 *131:40 18.5714 
6 *131:40 *3411:B 16.5857 
7 *131:40 *131:53 3.76786 
8 *131:53 *2926:B 13.8 
9 *131:53 *131:66 9.75 
10 *131:66 *131:68 1.76786 
11 *131:68 *2990:B1 25.1571 
12 *131:68 *2917:B 9.3 
13 *131:66 *2918:C1 21.9964 
14 *131:34 *3531:B 18.1036 
15 *131:28 *3532:B 9.3 
16 *131:16 *3534:B2 9.3 
17 *131:14 *131:126 10.9464 
18 *131:126 *3421:C 21.6393 
19 *131:126 *3530:B1 9.3 
*END

*D_NET *132 0.00990529
*CONN
*I *3417:B I *D sky130_fd_sc_hd__and4b_1
*I *3539:A I *D sky130_fd_sc_hd__nand2_1
*I *3538:A I *D sky130_fd_sc_hd__or2_1
*I *3541:B2 I *D sky130_fd_sc_hd__a32o_1
*I *3542:A1 I *D sky130_fd_sc_hd__a21oi_1
*I *2926:C_N I *D sky130_fd_sc_hd__or4bb_1
*I *2969:A I *D sky130_fd_sc_hd__xnor2_2
*I *2919:A I *D sky130_fd_sc_hd__nand2_1
*I *3543:A I *D sky130_fd_sc_hd__and3_1
*I *3546:A I *D sky130_fd_sc_hd__and4_1
*I *3629:Q O *D sky130_fd_sc_hd__dfrtp_4
*CAP
1 *3417:B 0.000558845
2 *3539:A 0
3 *3538:A 0
4 *3541:B2 0
5 *3542:A1 0
6 *2926:C_N 7.61157e-05
7 *2969:A 0.000151179
8 *2919:A 9.36181e-05
9 *3543:A 0
10 *3546:A 2.36049e-05
11 *3629:Q 0.000174791
12 *132:64 0.000420633
13 *132:62 0.00065529
14 *132:40 8.70871e-05
15 *132:38 0.000484143
16 *132:36 0.000275532
17 *132:26 0.000463117
18 *132:18 0.000252531
19 *132:16 0.000136689
20 *132:10 0.000822702
21 *2919:A *2919:B 5.52238e-05
22 *2919:A *2934:A2 4.68019e-05
23 *2919:A *368:12 1.24368e-05
24 *2926:C_N *1124:DIODE 5.33005e-05
25 *2926:C_N *2934:A2 6.57914e-05
26 *2969:A *3637:RESET_B 0.000120187
27 *2969:A *1071:43 0
28 *3417:B *3416:A3 0
29 *3417:B *3423:A 4.28249e-05
30 *3417:B *3533:A2 1.93337e-05
31 *3417:B *3628:D 1.08359e-05
32 *3417:B *369:54 0
33 *3417:B *942:16 0.000566739
34 *3417:B *1073:50 0
35 *3546:A *998:20 5.71472e-05
36 *132:10 *3540:A2 2.37761e-05
37 *132:10 *3621:CLK 9.1469e-05
38 *132:10 *3628:D 6.21678e-05
39 *132:10 *3629:RESET_B 0.00012104
40 *132:10 *967:110 2.89114e-05
41 *132:10 *974:63 3.99674e-05
42 *132:10 *1085:66 0
43 *132:10 *1086:180 0
44 *132:16 *3538:B 0
45 *132:16 *942:16 5.52238e-05
46 *132:16 *942:25 4.7194e-05
47 *132:18 *942:25 0.000142856
48 *132:18 *1086:180 5.33005e-05
49 *132:26 *3541:A3 0.000142856
50 *132:26 *3541:B1 7.61109e-05
51 *132:26 *3551:B1 3.36817e-05
52 *132:26 *369:54 0.000174329
53 *132:26 *369:66 3.22325e-05
54 *132:26 *866:20 0.000420123
55 *132:26 *1086:180 0.000172827
56 *132:36 *3413:B 3.47641e-06
57 *132:36 *3415:C 6.18969e-06
58 *132:36 *3541:B1 0.000182871
59 *132:36 *3543:C 0.00014285
60 *132:36 *3544:B 1.00375e-05
61 *132:36 *3546:D 2.14658e-05
62 *132:36 *3547:B1 0.000347341
63 *132:36 *3551:B1 2.14757e-05
64 *132:36 *146:116 0
65 *132:36 *264:61 7.13375e-05
66 *132:36 *866:20 0.00010096
67 *132:36 *942:33 2.19226e-05
68 *132:38 *3542:B1 4.38128e-05
69 *132:38 *3543:C 0.000144773
70 *132:38 *3546:D 4.88637e-05
71 *132:40 *3542:B1 0.000142856
72 *132:40 *3543:C 8.74946e-05
73 *132:40 *998:20 4.18895e-05
74 *132:62 *1124:DIODE 5.74581e-06
75 *132:62 *3413:B 0
76 *132:62 *3414:C 0.000148099
77 *132:62 *998:14 0.000223732
78 *132:62 *998:18 0.000100474
79 *132:62 *1061:176 0.000115544
80 *132:62 *1070:22 3.09981e-05
81 *132:62 *1071:30 0
82 *132:64 *2919:B 5.52302e-05
83 *132:64 *2934:A2 0.000130079
84 *2918:A2 *2969:A 2.11609e-05
85 *2918:C1 *2926:C_N 1.33343e-05
86 *2918:C1 *132:64 5.71472e-05
87 *3416:A1 *3417:B 5.7903e-06
88 *3417:D *3417:B 2.22625e-05
89 *126:74 *3417:B 0
90 *129:56 *2926:C_N 3.43598e-05
91 *129:56 *3417:B 5.71472e-05
92 *129:56 *132:62 0
*RES
1 *3629:Q *132:10 18.7107 
2 *132:10 *132:16 6.28571 
3 *132:16 *132:18 1.35714 
4 *132:18 *132:26 16.1964 
5 *132:26 *132:36 16.8929 
6 *132:36 *132:38 1.35714 
7 *132:38 *132:40 1.76786 
8 *132:40 *3546:A 9.83571 
9 *132:40 *3543:A 9.3 
10 *132:38 *132:62 16.5714 
11 *132:62 *132:64 3.41071 
12 *132:64 *2919:A 11.0857 
13 *132:64 *2969:A 21.4607 
14 *132:62 *2926:C_N 11.0857 
15 *132:36 *3542:A1 9.3 
16 *132:26 *3541:B2 9.3 
17 *132:18 *3538:A 9.3 
18 *132:16 *3539:A 9.3 
19 *132:10 *3417:B 24.6929 
*END

*D_NET *133 0.00447135
*CONN
*I *3663:A I *D sky130_fd_sc_hd__clkbuf_1
*I *3768:A I *D sky130_fd_sc_hd__dlygate4sd1_1
*I *3691:A I *D sky130_fd_sc_hd__buf_6
*I *3630:Q O *D sky130_fd_sc_hd__dfrtp_1
*CAP
1 *3663:A 0.000701663
2 *3768:A 0.000194559
3 *3691:A 0.000338886
4 *3630:Q 0
5 *133:21 0.00115724
6 *133:4 0.000599902
7 *3663:A *3536:B1 0
8 *3663:A *3544:B 0
9 *3663:A *3545:A1 0.000312029
10 *3663:A *3545:A2 0.000125918
11 *3663:A *3630:RESET_B 0
12 *3663:A *3637:RESET_B 3.45255e-05
13 *3663:A *998:14 2.77235e-05
14 *3663:A *998:18 0
15 *3663:A *998:31 6.70402e-05
16 *3663:A *1061:12 4.11218e-05
17 *3663:A *1061:170 5.03772e-05
18 *3663:A *1071:30 4.53834e-05
19 *3663:A *1082:36 0
20 *3691:A *2793:A2 4.57352e-05
21 *3691:A *2935:B1 6.97972e-05
22 *3691:A *3631:RESET_B 0.000210742
23 *3768:A *2797:A 1.02504e-05
24 *3768:A *3545:A2 5.33786e-05
25 *3768:A *3568:RESET_B 0.000197269
26 *3768:A *169:12 0
27 *133:21 *3631:RESET_B 0.000101445
28 *133:21 *971:80 8.63667e-05
*RES
1 *3630:Q *133:4 9.3 
2 *133:4 *3691:A 23.7643 
3 *133:4 *133:21 8.32143 
4 *133:21 *3768:A 17.8714 
5 *133:21 *3663:A 27.925 
*END

*D_NET *134 0.00287773
*CONN
*I *3766:A I *D sky130_fd_sc_hd__dlygate4sd1_1
*I *3769:A I *D sky130_fd_sc_hd__dlygate4sd1_1
*I *3690:A I *D sky130_fd_sc_hd__buf_6
*I *3631:Q O *D sky130_fd_sc_hd__dfrtp_1
*CAP
1 *3766:A 0.00017492
2 *3769:A 0.000127252
3 *3690:A 0
4 *3631:Q 0.000238208
5 *134:19 0.000351552
6 *134:10 0.000287587
7 *3766:A *3551:A2 7.16592e-05
8 *3766:A *3632:CLK 4.73656e-05
9 *3766:A *984:10 0.000184018
10 *3769:A *3632:D 6.86693e-05
11 *134:10 *3632:CLK 0.000219734
12 *134:10 *967:116 0.000136951
13 *134:10 *971:10 0.00012401
14 *134:10 *971:27 9.60875e-05
15 *134:10 *971:80 5.52302e-05
16 *134:10 *971:94 0.000225314
17 *134:10 *984:10 0.000285455
18 *134:19 *3632:CLK 0.000117189
19 *134:19 *984:10 6.65302e-05
*RES
1 *3631:Q *134:10 22.2643 
2 *134:10 *3690:A 13.8 
3 *134:10 *134:19 1.64286 
4 *134:19 *3769:A 16.0143 
5 *134:19 *3766:A 17.6214 
*END

*D_NET *135 0.010464
*CONN
*I *3411:D I *D sky130_fd_sc_hd__and4_1
*I *3414:B I *D sky130_fd_sc_hd__or4_1
*I *3005:B2 I *D sky130_fd_sc_hd__a22oi_2
*I *2930:C I *D sky130_fd_sc_hd__nor3_1
*I *3554:A1 I *D sky130_fd_sc_hd__a31o_1
*I *2931:C I *D sky130_fd_sc_hd__or3_4
*I *2955:A3 I *D sky130_fd_sc_hd__o311a_1
*I *3551:A1 I *D sky130_fd_sc_hd__a22o_1
*I *3549:B I *D sky130_fd_sc_hd__nand3_1
*I *3550:A1 I *D sky130_fd_sc_hd__o211a_1
*I *3632:Q O *D sky130_fd_sc_hd__dfrtp_4
*CAP
1 *3411:D 0.000126104
2 *3414:B 0.000450317
3 *3005:B2 0.000342574
4 *2930:C 3.43708e-05
5 *3554:A1 0
6 *2931:C 0.000421757
7 *2955:A3 0
8 *3551:A1 0
9 *3549:B 0.000187057
10 *3550:A1 0
11 *3632:Q 7.67251e-05
12 *135:102 0.000491849
13 *135:65 0.000525341
14 *135:61 0.000267144
15 *135:57 0.000351122
16 *135:48 0.000133052
17 *135:24 0.000320158
18 *135:18 0.00062993
19 *135:12 0.00119725
20 *135:6 0.00051333
21 *2930:C *1069:12 0
22 *2931:C *2931:B 5.83694e-05
23 *2931:C *2963:A 8.17139e-05
24 *2931:C *136:66 5.80706e-06
25 *2931:C *136:79 0
26 *2931:C *141:25 0
27 *2931:C *141:79 5.58941e-05
28 *2931:C *380:19 0
29 *2931:C *382:8 2.74584e-05
30 *2931:C *383:14 8.03134e-05
31 *3005:B2 *2935:A1 3.34687e-05
32 *3005:B2 *2935:B1 1.02504e-05
33 *3005:B2 *2961:A_N 0.000430646
34 *3005:B2 *2964:A2 2.59355e-05
35 *3005:B2 *136:79 0
36 *3005:B2 *136:94 0
37 *3005:B2 *420:12 0.000193125
38 *3005:B2 *431:10 5.33005e-05
39 *3005:B2 *985:20 2.7814e-05
40 *3005:B2 *1069:67 7.06079e-05
41 *3411:D *3411:A 5.23057e-05
42 *3411:D *3411:C 0.000356028
43 *3414:B *3536:B1 6.21521e-06
44 *3414:B *3551:B1 0.000127353
45 *3414:B *3665:A 3.69047e-06
46 *3414:B *1061:170 0.000266479
47 *3414:B *1068:10 2.51989e-05
48 *3549:B *3549:A 4.46186e-06
49 *3549:B *3550:A2 1.04232e-05
50 *3549:B *3550:B1 0.000208436
51 *3549:B *3554:A3 1.56e-05
52 *3549:B *136:21 2.84398e-05
53 *3549:B *369:43 0.000219711
54 *3549:B *954:23 1.74352e-05
55 *3549:B *1064:83 0
56 *135:12 *3551:B1 5.66157e-05
57 *135:12 *3637:RESET_B 4.87953e-05
58 *135:12 *1068:10 2.19684e-05
59 *135:18 *3549:C 6.87831e-06
60 *135:18 *3632:D 0.000117553
61 *135:24 *2935:B1 3.90513e-05
62 *135:24 *3549:C 6.71755e-05
63 *135:24 *3551:B2 1.92905e-05
64 *135:24 *954:23 0.000183713
65 *135:24 *985:20 2.85406e-05
66 *135:24 *1004:10 8.15095e-05
67 *135:48 *985:20 0.000135911
68 *135:48 *1004:10 0.000145161
69 *135:57 *3551:B1 2.62395e-05
70 *135:57 *3665:A 0
71 *135:57 *1061:154 5.74499e-06
72 *135:61 *1106:DIODE 7.77652e-05
73 *135:61 *3551:B1 3.57366e-05
74 *135:61 *3554:A3 2.89016e-05
75 *135:61 *137:47 5.52302e-05
76 *135:61 *137:58 0.000175251
77 *135:61 *1061:154 4.58194e-05
78 *135:61 *1069:20 1.39726e-05
79 *135:65 *2931:B 5.80706e-06
80 *135:65 *136:21 1.02504e-05
81 *135:65 *136:32 0.000148189
82 *135:65 *136:66 3.17163e-05
83 *135:65 *137:58 0
84 *135:65 *1069:20 2.72545e-05
85 *135:102 *2935:B1 0.000128154
86 *135:102 *1069:12 4.46186e-06
87 *135:102 *1069:50 6.5185e-05
88 *135:102 *1069:67 4.46186e-06
89 *3411:B *3411:D 5.71472e-05
*RES
1 *3632:Q *135:6 11.0679 
2 *135:6 *135:12 9.875 
3 *135:12 *135:18 14.0536 
4 *135:18 *135:24 8.53571 
5 *135:24 *3550:A1 9.3 
6 *135:24 *3549:B 22.7643 
7 *135:18 *135:48 6.44643 
8 *135:48 *3551:A1 9.3 
9 *135:48 *135:57 1.375 
10 *135:57 *135:61 4.55357 
11 *135:61 *135:65 7.05357 
12 *135:65 *2955:A3 13.8 
13 *135:65 *2931:C 21.3357 
14 *135:61 *3554:A1 9.3 
15 *135:57 *135:102 7.10714 
16 *135:102 *2930:C 14.3357 
17 *135:102 *3005:B2 22.05 
18 *135:12 *3414:B 20.7464 
19 *135:6 *3411:D 13.8536 
*END

*D_NET *136 0.0114748
*CONN
*I *3002:B I *D sky130_fd_sc_hd__xnor2_2
*I *2780:A I *D sky130_fd_sc_hd__inv_2
*I *2933:A I *D sky130_fd_sc_hd__or4_1
*I *2955:B1 I *D sky130_fd_sc_hd__o311a_1
*I *2954:A I *D sky130_fd_sc_hd__nand2_2
*I *3552:A I *D sky130_fd_sc_hd__xnor2_1
*I *3554:A2 I *D sky130_fd_sc_hd__a31o_1
*I *3553:A1 I *D sky130_fd_sc_hd__a22o_1
*I *3633:Q O *D sky130_fd_sc_hd__dfrtp_4
*CAP
1 *3002:B 3.82418e-05
2 *2780:A 0.000750833
3 *2933:A 5.76759e-05
4 *2955:B1 1.8757e-05
5 *2954:A 2.23854e-05
6 *3552:A 0.000514163
7 *3554:A2 0
8 *3553:A1 0.000314506
9 *3633:Q 0.000169624
10 *136:94 0.00119082
11 *136:79 0.000667825
12 *136:66 0.000372101
13 *136:36 0.000844956
14 *136:32 0.000523664
15 *136:21 0.000317584
16 *136:8 0.000731398
17 *2780:A *2997:B2 0
18 *2780:A *2998:A1 2.44318e-05
19 *2780:A *2998:A2 1.39841e-05
20 *2780:A *2998:B1 3.56976e-05
21 *2780:A *138:8 0
22 *2780:A *138:63 0
23 *2780:A *382:79 0.000481568
24 *2780:A *423:8 0
25 *2780:A *424:10 5.39629e-06
26 *2933:A *2933:C 2.44318e-05
27 *2933:A *2933:D 5.52302e-05
28 *2933:A *3637:RESET_B 0.000195169
29 *2933:A *1069:67 3.14078e-05
30 *2954:A *3556:A 0
31 *2954:A *380:8 0
32 *2955:B1 *1068:18 5.52238e-05
33 *3552:A *2936:A 2.36643e-05
34 *3552:A *3552:B 5.49489e-05
35 *3552:A *3557:A3 0.000183713
36 *3552:A *369:12 0.000289441
37 *3552:A *960:6 0.000142053
38 *3552:A *960:12 5.62995e-05
39 *3552:A *1061:32 0
40 *3552:A *1061:50 0
41 *3553:A1 *3553:A2 5.52238e-05
42 *3553:A1 *3553:B1 2.44318e-05
43 *3553:A1 *3631:D 5.52302e-05
44 *3553:A1 *369:43 9.10431e-06
45 *3553:A1 *967:131 0
46 *3553:A1 *1061:123 0.00012401
47 *3553:A1 *1064:42 0.000259934
48 *3553:A1 *1064:83 0
49 *136:8 *3549:A 0.000167119
50 *136:8 *954:8 9.60939e-05
51 *136:8 *967:131 0.00016345
52 *136:21 *3549:A 0
53 *136:21 *3554:A3 4.22135e-06
54 *136:21 *1061:24 3.46512e-05
55 *136:21 *1061:117 0.00012244
56 *136:21 *1061:123 0.000197984
57 *136:21 *1064:83 0
58 *136:21 *1069:12 0
59 *136:32 *1069:20 7.6644e-05
60 *136:36 *2931:A 4.35336e-05
61 *136:36 *380:8 0.000138881
62 *136:36 *380:19 4.88637e-05
63 *136:36 *960:6 1.21289e-05
64 *136:66 *2931:A 3.69047e-06
65 *136:66 *2933:B 4.97121e-06
66 *136:66 *137:58 1.41706e-05
67 *136:66 *1068:18 2.24195e-05
68 *136:79 *2933:B 0.000150625
69 *136:79 *141:79 1.37292e-05
70 *136:79 *382:8 1.02504e-05
71 *136:94 *2961:A_N 0
72 *136:94 *2965:A1 0.000138946
73 *136:94 *2965:B1 1.41029e-05
74 *136:94 *352:41 0.000170654
75 *136:94 *382:8 9.0573e-05
76 *136:94 *382:79 0.000757318
77 *136:94 *420:12 1.78353e-05
78 *136:94 *985:20 0
79 *2931:C *136:66 5.80706e-06
80 *2931:C *136:79 0
81 *3005:B2 *136:79 0
82 *3005:B2 *136:94 0
83 *3549:B *136:21 2.84398e-05
84 *135:65 *136:21 1.02504e-05
85 *135:65 *136:32 0.000148189
86 *135:65 *136:66 3.17163e-05
*RES
1 *3633:Q *136:8 18.4429 
2 *136:8 *3553:A1 20.0679 
3 *136:8 *136:21 4.98214 
4 *136:21 *3554:A2 13.8 
5 *136:21 *136:32 6.44643 
6 *136:32 *136:36 4.25 
7 *136:36 *3552:A 29.3893 
8 *136:36 *2954:A 9.72857 
9 *136:32 *136:66 6.71429 
10 *136:66 *2955:B1 14.3357 
11 *136:66 *136:79 4.10714 
12 *136:79 *2933:A 15.9964 
13 *136:79 *136:94 15.5536 
14 *136:94 *2780:A 28.2821 
15 *136:94 *3002:B 10.0321 
*END

*D_NET *137 0.00487111
*CONN
*I *2933:B I *D sky130_fd_sc_hd__or4_1
*I *2955:C1 I *D sky130_fd_sc_hd__o311a_1
*I *3554:B1 I *D sky130_fd_sc_hd__a31o_1
*I *3557:B2 I *D sky130_fd_sc_hd__a32o_1
*I *2997:B2 I *D sky130_fd_sc_hd__o32ai_4
*I *2954:B I *D sky130_fd_sc_hd__nand2_2
*I *3634:Q O *D sky130_fd_sc_hd__dfrtp_4
*CAP
1 *2933:B 5.40092e-05
2 *2955:C1 7.38628e-05
3 *3554:B1 0
4 *3557:B2 0
5 *2997:B2 0.000672857
6 *2954:B 0
7 *3634:Q 1.54703e-05
8 *137:58 0.000235605
9 *137:47 0.000195339
10 *137:40 0.000380709
11 *137:10 0.00080483
12 *137:6 0.000440547
13 *2933:B *1069:50 3.17148e-05
14 *2933:B *1069:67 0.000141375
15 *2955:C1 *2930:A 5.52238e-05
16 *2955:C1 *1068:18 2.44318e-05
17 *2997:B2 *2931:B 0.000111765
18 *2997:B2 *2932:A 0
19 *2997:B2 *2963:B 8.00806e-05
20 *2997:B2 *2996:C1 4.57352e-05
21 *2997:B2 *2997:B1 0
22 *2997:B2 *3555:B 0
23 *2997:B2 *138:8 0
24 *2997:B2 *138:12 0
25 *2997:B2 *138:36 0
26 *2997:B2 *141:49 0
27 *2997:B2 *380:30 0
28 *2997:B2 *420:22 0
29 *2997:B2 *423:8 1.99099e-05
30 *2997:B2 *960:12 0
31 *2997:B2 *1061:50 0
32 *2997:B2 *1064:106 0
33 *137:6 *3634:D 4.72818e-05
34 *137:6 *1061:28 0.00010096
35 *137:10 *3555:B 0
36 *137:10 *3557:A3 0.000121573
37 *137:10 *1061:50 0
38 *137:40 *3557:A1 0
39 *137:40 *3557:A2 0.00018077
40 *137:40 *3557:A3 5.52302e-05
41 *137:40 *3634:D 1.24368e-05
42 *137:40 *1061:28 2.91249e-05
43 *137:40 *1064:83 4.46186e-06
44 *137:40 *1064:106 2.61337e-05
45 *137:40 *1069:20 2.8266e-06
46 *137:47 *3554:A3 2.95726e-05
47 *137:47 *3557:A2 5.52302e-05
48 *137:47 *1061:24 9.90367e-05
49 *137:47 *1069:20 7.16452e-05
50 *137:58 *1069:12 5.66157e-05
51 *137:58 *1069:20 0.000102197
52 *137:58 *1069:50 9.22948e-05
53 *2780:A *2997:B2 0
54 *135:61 *137:47 5.52302e-05
55 *135:61 *137:58 0.000175251
56 *135:65 *137:58 0
57 *136:66 *2933:B 4.97121e-06
58 *136:66 *137:58 1.41706e-05
59 *136:79 *2933:B 0.000150625
*RES
1 *3634:Q *137:6 10.2464 
2 *137:6 *137:10 6.75 
3 *137:10 *2954:B 13.8 
4 *137:10 *2997:B2 26.3714 
5 *137:6 *137:40 13.7143 
6 *137:40 *3557:B2 9.3 
7 *137:40 *137:47 2.58929 
8 *137:47 *3554:B1 9.3 
9 *137:47 *137:58 8.21429 
10 *137:58 *2955:C1 15.175 
11 *137:58 *2933:B 16.05 
*END

*D_NET *138 0.00387488
*CONN
*I *2999:A I *D sky130_fd_sc_hd__xnor2_2
*I *2781:A I *D sky130_fd_sc_hd__inv_2
*I *3560:B2 I *D sky130_fd_sc_hd__a32o_1
*I *3563:A1 I *D sky130_fd_sc_hd__a31o_1
*I *2932:A I *D sky130_fd_sc_hd__or2_1
*I *3559:A I *D sky130_fd_sc_hd__nand2_1
*I *3558:A I *D sky130_fd_sc_hd__or2_1
*I *3635:Q O *D sky130_fd_sc_hd__dfrtp_2
*CAP
1 *2999:A 9.94721e-05
2 *2781:A 0.000127284
3 *3560:B2 0.000128477
4 *3563:A1 0
5 *2932:A 9.60209e-05
6 *3559:A 1.20576e-05
7 *3558:A 8.91875e-05
8 *3635:Q 0
9 *138:63 0.000312707
10 *138:36 0.000298786
11 *138:23 0.000252308
12 *138:12 0.000226012
13 *138:8 0.00030208
14 *138:6 0.000160215
15 *2781:A *3007:A1 7.61932e-05
16 *2781:A *433:6 3.14193e-05
17 *2932:A *2932:B 0.000201771
18 *2932:A *140:32 1.02504e-05
19 *2999:A *2999:B 8.89289e-05
20 *2999:A *3007:B1 2.48938e-05
21 *2999:A *424:10 1.76135e-05
22 *3558:A *2783:A 1.04232e-05
23 *3558:A *3558:B 9.60875e-05
24 *3558:A *3561:B 5.49489e-05
25 *3558:A *251:8 1.39841e-05
26 *3558:A *963:8 2.14757e-05
27 *3559:A *2783:A 1.04232e-05
28 *3560:B2 *1107:DIODE 3.08664e-05
29 *3560:B2 *3560:A3 0.000141729
30 *138:8 *3007:B1 0.000143804
31 *138:12 *3007:B1 0.000126439
32 *138:12 *3564:A2 5.83233e-05
33 *138:23 *2783:A 3.18676e-05
34 *138:23 *251:8 6.05161e-06
35 *138:23 *963:8 1.21289e-05
36 *138:36 *2783:A 9.378e-05
37 *138:36 *3559:B 6.51101e-05
38 *138:36 *3564:A2 0
39 *138:36 *140:32 7.29667e-05
40 *138:36 *960:21 1.72148e-05
41 *138:63 *2998:B1 0
42 *138:63 *3007:B1 0.000244087
43 *138:63 *424:10 6.74911e-05
44 *2780:A *138:8 0
45 *2780:A *138:63 0
46 *2997:B2 *2932:A 0
47 *2997:B2 *138:8 0
48 *2997:B2 *138:12 0
49 *2997:B2 *138:36 0
*RES
1 *3635:Q *138:6 13.8 
2 *138:6 *138:8 1.94643 
3 *138:8 *138:12 6.75 
4 *138:12 *3558:A 11.4964 
5 *138:12 *138:23 0.946429 
6 *138:23 *3559:A 9.72857 
7 *138:23 *138:36 8.71429 
8 *138:36 *2932:A 16.3536 
9 *138:36 *3563:A1 13.8 
10 *138:8 *3560:B2 16.3893 
11 *138:6 *138:63 3.16071 
12 *138:63 *2781:A 16.4071 
13 *138:63 *2999:A 16.3536 
*END

*D_NET *139 0.00380738
*CONN
*I *2920:D I *D sky130_fd_sc_hd__or4_1
*I *2946:A2 I *D sky130_fd_sc_hd__a31o_1
*I *2944:D I *D sky130_fd_sc_hd__and4_1
*I *3732:A I *D sky130_fd_sc_hd__dlygate4sd3_1
*I *3608:Q O *D sky130_fd_sc_hd__dfrtp_1
*CAP
1 *2920:D 0.000173578
2 *2946:A2 0.000164785
3 *2944:D 0.000120939
4 *3732:A 0
5 *3608:Q 0.000108106
6 *139:23 0.000345956
7 *139:19 0.000572006
8 *139:8 0.000446301
9 *2920:D *2948:A 2.28598e-05
10 *2920:D *2948:B 0.00040381
11 *2920:D *3610:D 0.000227532
12 *2920:D *378:18 0.000172309
13 *2944:D *2944:C 6.28948e-05
14 *2944:D *2947:A_N 7.14469e-05
15 *2944:D *2950:A 6.87839e-06
16 *2944:D *142:16 0
17 *2944:D *143:10 1.19191e-05
18 *2944:D *143:32 3.63245e-05
19 *2944:D *370:14 0
20 *2946:A2 *142:16 0.000146482
21 *2946:A2 *370:14 1.21955e-05
22 *2946:A2 *1086:132 2.86703e-05
23 *139:8 *3608:RESET_B 0
24 *139:19 *3608:RESET_B 0
25 *139:19 *3610:RESET_B 0
26 *139:19 *378:18 0
27 *139:19 *1084:19 0
28 *139:19 *1084:87 0
29 *139:23 *2948:B 5.33005e-05
30 *139:23 *2950:B 9.71197e-05
31 *139:23 *375:18 1.38323e-05
32 *139:23 *378:18 0.000136951
33 *2920:B *2920:D 5.34667e-05
34 *2946:A1 *2946:A2 2.06178e-05
35 *128:8 *139:19 0.000150625
36 *128:47 *139:19 0.000146474
*RES
1 *3608:Q *139:8 15.7464 
2 *139:8 *3732:A 13.8 
3 *139:8 *139:19 11.3036 
4 *139:19 *139:23 6.26786 
5 *139:23 *2944:D 16.05 
6 *139:23 *2946:A2 21.4483 
7 *139:19 *2920:D 15.4964 
*END

*D_NET *140 0.00393083
*CONN
*I *2783:A I *D sky130_fd_sc_hd__inv_2
*I *3563:A2 I *D sky130_fd_sc_hd__a31o_1
*I *2932:B I *D sky130_fd_sc_hd__or2_1
*I *3562:A1 I *D sky130_fd_sc_hd__a22o_1
*I *3561:A I *D sky130_fd_sc_hd__xnor2_1
*I *3636:Q O *D sky130_fd_sc_hd__dfrtp_2
*CAP
1 *2783:A 0.000128525
2 *3563:A2 0
3 *2932:B 7.71816e-05
4 *3562:A1 2.22847e-05
5 *3561:A 4.26117e-05
6 *3636:Q 9.67185e-05
7 *140:32 9.31953e-05
8 *140:30 0.000705275
9 *140:19 0.000724526
10 *140:6 0.000280835
11 *2783:A *3559:B 5.52302e-05
12 *2783:A *960:21 6.91157e-05
13 *2783:A *963:8 5.71472e-05
14 *2932:B *141:25 5.52302e-05
15 *2932:B *960:12 0.000201771
16 *2932:B *960:21 1.02504e-05
17 *3561:A *3635:CLK 6.74911e-05
18 *3561:A *3635:RESET_B 0.000128154
19 *140:6 *3636:RESET_B 0.00014183
20 *140:19 *3562:A2 2.07878e-05
21 *140:19 *3636:RESET_B 4.18895e-05
22 *140:30 *3562:A2 2.32127e-05
23 *140:30 *3562:B1 0.000139202
24 *140:30 *3564:A2 0.000139632
25 *140:30 *3564:B1 1.21289e-05
26 *140:30 *3564:C1 5.62995e-05
27 *140:30 *1061:67 3.58573e-05
28 *140:32 *960:21 7.29667e-05
29 *2932:A *2932:B 0.000201771
30 *2932:A *140:32 1.02504e-05
31 *3558:A *2783:A 1.04232e-05
32 *3559:A *2783:A 1.04232e-05
33 *138:23 *2783:A 3.18676e-05
34 *138:36 *2783:A 9.378e-05
35 *138:36 *140:32 7.29667e-05
*RES
1 *3636:Q *140:6 10.6571 
2 *140:6 *3561:A 19.9429 
3 *140:6 *140:19 1.76786 
4 *140:19 *3562:A1 9.72857 
5 *140:19 *140:30 11.6071 
6 *140:30 *140:32 1.03571 
7 *140:32 *2932:B 16.8893 
8 *140:32 *3563:A2 13.8 
9 *140:30 *2783:A 17.05 
*END

*D_NET *141 0.00715022
*CONN
*I *2933:C I *D sky130_fd_sc_hd__or4_1
*I *2956:B1 I *D sky130_fd_sc_hd__o21a_2
*I *3013:A1 I *D sky130_fd_sc_hd__a21oi_1
*I *2782:A I *D sky130_fd_sc_hd__inv_2
*I *3564:A1 I *D sky130_fd_sc_hd__o311a_1
*I *3565:B1 I *D sky130_fd_sc_hd__a2bb2o_1
*I *2957:B1 I *D sky130_fd_sc_hd__o21ai_2
*I *3637:Q O *D sky130_fd_sc_hd__dfrtp_4
*CAP
1 *2933:C 9.51404e-05
2 *2956:B1 0
3 *3013:A1 0.000441085
4 *2782:A 0.000110609
5 *3564:A1 0.000183227
6 *3565:B1 0
7 *2957:B1 0
8 *3637:Q 0.000112018
9 *141:79 0.000214837
10 *141:49 0.000711838
11 *141:25 0.000729623
12 *141:17 0.000756973
13 *141:13 0.000233872
14 *141:6 0.00017576
15 *2933:C *2933:D 0.000183726
16 *2933:C *1069:67 1.33343e-05
17 *3013:A1 *3013:A2 0.000108848
18 *3013:A1 *3013:B1 0
19 *3013:A1 *380:30 0.000437941
20 *3013:A1 *390:14 0.000550264
21 *3013:A1 *392:12 6.73313e-05
22 *3013:A1 *423:8 0
23 *3013:A1 *428:8 8.2731e-05
24 *3013:A1 *431:10 0
25 *3013:A1 *439:6 4.88515e-05
26 *3564:A1 *3560:B1 7.6612e-06
27 *3564:A1 *3564:A3 5.37741e-06
28 *3564:A1 *3565:A1_N 1.02937e-05
29 *3564:A1 *3565:B2 4.77427e-05
30 *3564:A1 *1064:121 8.46197e-05
31 *141:6 *3637:RESET_B 0.000315158
32 *141:13 *3637:RESET_B 0.000135028
33 *141:17 *2931:A 9.91086e-05
34 *141:17 *380:19 4.78056e-05
35 *141:25 *2931:B 0.000135028
36 *141:25 *2963:A 1.55885e-05
37 *141:25 *3565:A1_N 5.48009e-05
38 *141:25 *365:6 6.15352e-05
39 *141:49 *2931:A 4.49293e-05
40 *141:49 *2963:B 0
41 *141:49 *380:19 2.84494e-05
42 *141:49 *380:30 0.000108295
43 *141:79 *2933:D 0.000137983
44 *141:79 *2956:A2 4.13595e-05
45 *141:79 *3637:RESET_B 0.000304394
46 *141:79 *365:19 5.33005e-05
47 *141:79 *382:8 4.46186e-06
48 *2931:C *141:25 0
49 *2931:C *141:79 5.58941e-05
50 *2932:B *141:25 5.52302e-05
51 *2933:A *2933:C 2.44318e-05
52 *2997:B2 *141:49 0
53 *136:79 *141:79 1.37292e-05
*RES
1 *3637:Q *141:6 12.3 
2 *141:6 *2957:B1 9.3 
3 *141:6 *141:13 1.35714 
4 *141:13 *141:17 5.83929 
5 *141:17 *141:25 12.9821 
6 *141:25 *3565:B1 9.3 
7 *141:25 *3564:A1 22.1214 
8 *141:17 *141:49 7.96429 
9 *141:49 *2782:A 11.0679 
10 *141:49 *3013:A1 31.1571 
11 *141:13 *141:79 12.7321 
12 *141:79 *2956:B1 9.3 
13 *141:79 *2933:C 11.4786 
*END

*D_NET *142 0.00342764
*CONN
*I *2946:B1 I *D sky130_fd_sc_hd__a31o_1
*I *2920:C I *D sky130_fd_sc_hd__or4_1
*I *2944:C I *D sky130_fd_sc_hd__and4_1
*I *3609:Q O *D sky130_fd_sc_hd__dfrtp_1
*CAP
1 *2946:B1 0
2 *2920:C 0.000569448
3 *2944:C 3.40041e-05
4 *3609:Q 0.000214915
5 *142:16 0.000735711
6 *142:8 0.000347174
7 *2920:C *378:18 9.26125e-05
8 *2920:C *1084:87 0
9 *2920:C *1086:132 0.000811082
10 *2944:C *143:32 6.28948e-05
11 *142:8 *2946:A3 2.89114e-05
12 *142:8 *375:18 0
13 *142:16 *2950:A 2.28378e-05
14 *142:16 *370:8 0
15 *142:16 *1086:132 0.00029867
16 *2944:D *2944:C 6.28948e-05
17 *2944:D *142:16 0
18 *2946:A2 *142:16 0.000146482
*RES
1 *3609:Q *142:8 12.6214 
2 *142:8 *142:16 9.27333 
3 *142:16 *2944:C 18.0939 
4 *142:16 *2920:C 19.6696 
5 *142:8 *2946:B1 9.3 
*END

*D_NET *143 0.00382293
*CONN
*I *2949:A1 I *D sky130_fd_sc_hd__a21oi_1
*I *2921:B I *D sky130_fd_sc_hd__or4_1
*I *2952:B I *D sky130_fd_sc_hd__and4_1
*I *3734:A I *D sky130_fd_sc_hd__dlygate4sd3_1
*I *2950:B I *D sky130_fd_sc_hd__and3_1
*I *3610:Q O *D sky130_fd_sc_hd__dfrtp_1
*CAP
1 *2949:A1 0.000303719
2 *2921:B 0
3 *2952:B 0.000122701
4 *3734:A 0
5 *2950:B 7.87896e-05
6 *3610:Q 0.000120372
7 *143:49 0.000464281
8 *143:32 0.000516993
9 *143:12 7.87896e-05
10 *143:10 0.000354102
11 *2949:A1 *2949:B1 8.15939e-05
12 *2949:A1 *3434:A2 0
13 *2949:A1 *354:10 0
14 *2949:A1 *973:20 0.000137505
15 *2950:B *2947:A_N 3.03221e-06
16 *2950:B *375:18 0.000132287
17 *2952:B *2952:C 6.55936e-05
18 *2952:B *3647:A 9.71197e-05
19 *2952:B *144:14 0.000178847
20 *143:32 *2950:A 0
21 *143:32 *374:10 5.99324e-05
22 *143:32 *375:14 0.000102794
23 *143:32 *973:24 0
24 *143:49 *2921:C 5.59013e-05
25 *143:49 *2945:B 9.25014e-06
26 *143:49 *2945:C 2.04866e-05
27 *143:49 *2952:C 0.00012401
28 *143:49 *353:22 7.83587e-05
29 *143:49 *354:10 5.74562e-05
30 *143:49 *374:10 2.04866e-05
31 *143:49 *375:14 2.78822e-05
32 *143:49 *973:20 2.89114e-05
33 *2944:B *143:32 6.34166e-05
34 *2944:C *143:32 6.28948e-05
35 *2944:D *143:10 1.19191e-05
36 *2944:D *143:32 3.63245e-05
37 *2946:A1 *143:10 0
38 *128:12 *143:10 2.89016e-05
39 *128:47 *143:10 0.000121573
40 *128:47 *143:32 7.95909e-05
41 *139:23 *2950:B 9.71197e-05
*RES
1 *3610:Q *143:10 15.9786 
2 *143:10 *143:12 4.5 
3 *143:12 *2950:B 11.3893 
4 *143:12 *3734:A 9.3 
5 *143:10 *143:32 5.64286 
6 *143:32 *2952:B 16.8179 
7 *143:32 *143:49 8.5 
8 *143:49 *2921:B 9.3 
9 *143:49 *2949:A1 22.8357 
*END

*D_NET *144 0.00298507
*CONN
*I *3736:A I *D sky130_fd_sc_hd__dlygate4sd3_1
*I *2921:A I *D sky130_fd_sc_hd__or4_1
*I *2952:A I *D sky130_fd_sc_hd__and4_1
*I *2950:A I *D sky130_fd_sc_hd__and3_1
*I *3611:Q O *D sky130_fd_sc_hd__dfrtp_1
*CAP
1 *3736:A 0
2 *2921:A 4.2427e-05
3 *2952:A 0
4 *2950:A 0.000200964
5 *3611:Q 0.000309898
6 *144:36 0.000176514
7 *144:14 0.000430566
8 *144:10 0.000673588
9 *2921:A *145:24 0.00018077
10 *2921:A *973:20 0.00018077
11 *2950:A *1120:DIODE 0.000104974
12 *2950:A *2947:A_N 3.07021e-05
13 *2950:A *370:8 0
14 *2950:A *973:24 0.000175519
15 *144:10 *375:14 5.33882e-05
16 *144:10 *1084:87 0
17 *144:14 *353:22 4.88104e-05
18 *144:36 *375:14 0.000107334
19 *144:36 *973:12 0
20 *2920:A *144:10 3.50001e-05
21 *2944:D *2950:A 6.87839e-06
22 *2952:B *144:14 0.000178847
23 *117:12 *2950:A 1.78447e-05
24 *117:23 *144:10 7.43578e-06
25 *142:16 *2950:A 2.28378e-05
26 *143:32 *2950:A 0
*RES
1 *3611:Q *144:10 18.1393 
2 *144:10 *144:14 8.32143 
3 *144:14 *2950:A 22.6125 
4 *144:14 *2952:A 9.3 
5 *144:10 *144:36 7.35714 
6 *144:36 *2921:A 11.0679 
7 *144:36 *3736:A 9.3 
*END

*D_NET *145 0.00458716
*CONN
*I *3726:A I *D sky130_fd_sc_hd__dlygate4sd3_1
*I *2921:C I *D sky130_fd_sc_hd__or4_1
*I *2952:C I *D sky130_fd_sc_hd__and4_1
*I *3612:Q O *D sky130_fd_sc_hd__dfrtp_1
*CAP
1 *3726:A 0
2 *2921:C 1.84799e-05
3 *2952:C 0.000138503
4 *3612:Q 0.000176578
5 *145:24 0.00101627
6 *145:12 0.00103587
7 *2921:C *2945:C 4.56437e-05
8 *2952:C *2945:C 0.000100831
9 *2952:C *2952:D 0.000222666
10 *2952:C *3647:A 9.71197e-05
11 *2952:C *374:10 3.17148e-05
12 *145:12 *3616:RESET_B 0
13 *145:12 *147:104 0.000129515
14 *145:24 *2949:B1 0.00010096
15 *145:24 *2951:B 2.94103e-05
16 *145:24 *2953:A 0.000242184
17 *145:24 *147:104 0.000315165
18 *145:24 *353:22 9.41642e-05
19 *145:24 *354:10 5.33005e-05
20 *145:24 *973:12 0.000126945
21 *145:24 *973:20 0.000181876
22 *2921:A *145:24 0.00018077
23 *2952:B *2952:C 6.55936e-05
24 *117:8 *2952:C 3.69047e-06
25 *143:49 *2921:C 5.59013e-05
26 *143:49 *2952:C 0.00012401
*RES
1 *3612:Q *145:12 21.6036 
2 *145:12 *145:24 31.7321 
3 *145:24 *2952:C 18.0321 
4 *145:24 *2921:C 14.5321 
5 *145:12 *3726:A 9.3 
*END

*D_NET *146 0.0191926
*CONN
*I *3426:A I *D sky130_fd_sc_hd__nand2_1
*I *3427:A I *D sky130_fd_sc_hd__or2_1
*I *3412:D I *D sky130_fd_sc_hd__and4b_1
*I *3415:A I *D sky130_fd_sc_hd__or3_1
*I *2775:A I *D sky130_fd_sc_hd__inv_2
*I *2923:A1 I *D sky130_fd_sc_hd__a21oi_1
*I *3332:B I *D sky130_fd_sc_hd__or3b_1
*I *3432:A I *D sky130_fd_sc_hd__and3_1
*I *3433:A1 I *D sky130_fd_sc_hd__a21oi_1
*I *3429:B2 I *D sky130_fd_sc_hd__a32o_1
*I *3613:Q O *D sky130_fd_sc_hd__dfrtp_4
*CAP
1 *3426:A 0
2 *3427:A 4.17446e-05
3 *3412:D 0.000222852
4 *3415:A 1.99394e-05
5 *2775:A 0.000149862
6 *2923:A1 0.000264616
7 *3332:B 8.31785e-05
8 *3432:A 0
9 *3433:A1 5.64349e-05
10 *3429:B2 0.000319346
11 *3613:Q 2.52229e-05
12 *146:116 0.000792338
13 *146:112 0.00235911
14 *146:98 0.00197199
15 *146:61 0.000914794
16 *146:57 0.000918088
17 *146:46 0.00049824
18 *146:27 0.000932533
19 *146:12 0.000967634
20 *146:8 0.000189885
21 *146:6 2.52229e-05
22 *2775:A *2949:B1 1.02504e-05
23 *2775:A *3410:A1 0.000137983
24 *2775:A *3434:A2 0
25 *2775:A *3434:B1 4.78056e-05
26 *2775:A *3614:D 0.000125717
27 *2923:A1 *2923:A2 5.33005e-05
28 *2923:A1 *3455:A 1.94879e-05
29 *2923:A1 *3625:D 1.59782e-05
30 *2923:A1 *148:73 1.21258e-05
31 *2923:A1 *975:60 8.47986e-05
32 *2923:A1 *975:62 0.000103384
33 *3332:B *3455:A 7.43578e-06
34 *3332:B *3455:B 1.39841e-05
35 *3412:D *3412:C 0.000128001
36 *3412:D *3413:A 0
37 *3412:D *3413:B 4.27437e-05
38 *3412:D *3413:C 9.16325e-06
39 *3412:D *3416:A3 0.000199581
40 *3412:D *3416:B1 0.000118545
41 *3412:D *3543:C 0.000126534
42 *3412:D *1073:50 0.000175928
43 *3415:A *3413:A 3.30237e-05
44 *3415:A *3413:B 9.90367e-05
45 *3427:A *3428:A2 3.48235e-05
46 *3427:A *369:85 1.00375e-05
47 *3427:A *379:22 5.33882e-05
48 *3429:B2 *3429:A3 0.000184745
49 *3429:B2 *3429:B1 5.59013e-05
50 *3429:B2 *967:73 0.000122159
51 *3429:B2 *972:8 0
52 *3429:B2 *1060:55 0
53 *3429:B2 *1083:37 0
54 *3433:A1 *2939:A 2.56694e-05
55 *3433:A1 *3615:CLK 0
56 *146:6 *836:20 5.52238e-05
57 *146:12 *3429:A3 0
58 *146:12 *1060:55 0.000126439
59 *146:27 *2945:A 0.000484524
60 *146:27 *967:73 0.000172803
61 *146:46 *2945:A 0.000173328
62 *146:46 *2945:C 6.04072e-05
63 *146:46 *3433:B1 3.34366e-05
64 *146:46 *3434:A1 5.51411e-05
65 *146:46 *354:10 0.000101545
66 *146:57 *3410:A1 0.00010946
67 *146:57 *3434:A2 1.21258e-05
68 *146:57 *147:29 1.51444e-05
69 *146:57 *836:20 2.59355e-05
70 *146:61 *3410:A2 2.00751e-05
71 *146:61 *3410:B1 0.000158031
72 *146:61 *3434:A2 0
73 *146:61 *3434:B1 5.59013e-05
74 *146:61 *3439:B 1.90936e-05
75 *146:61 *3440:A 3.57844e-05
76 *146:61 *3619:CLK 0.000181199
77 *146:61 *147:55 5.8099e-05
78 *146:61 *243:23 0
79 *146:61 *863:25 0.00017118
80 *146:61 *975:62 0.00016949
81 *146:98 *3428:A1 0.000148196
82 *146:98 *3428:A2 1.52978e-05
83 *146:98 *3429:A3 0
84 *146:98 *369:85 4.97121e-06
85 *146:98 *379:22 3.57844e-05
86 *146:98 *836:20 0
87 *146:98 *1060:55 0.00019384
88 *146:112 *1111:DIODE 9.7659e-05
89 *146:112 *3428:A2 9.71197e-05
90 *146:112 *3582:RESET_B 4.96155e-05
91 *146:112 *254:62 0.000269109
92 *146:112 *369:66 4.884e-05
93 *146:112 *369:72 0.000570226
94 *146:112 *369:81 0.000354105
95 *146:112 *967:10 0
96 *146:112 *967:104 0
97 *146:112 *1060:55 1.21289e-05
98 *146:112 *1086:180 0.000340893
99 *146:116 *3413:A 7.55759e-05
100 *146:116 *3541:A2 2.11419e-05
101 *146:116 *3566:B1_N 0.000101527
102 *146:116 *264:61 0
103 *146:116 *369:54 0
104 *146:116 *369:66 0
105 *146:116 *1063:40 0.000116673
106 *146:116 *1086:180 0
107 *118:27 *146:61 0.000337644
108 *118:47 *2923:A1 0.000467923
109 *118:47 *146:61 0.000682105
110 *118:61 *2923:A1 5.33005e-05
111 *132:36 *146:116 0
*RES
1 *3613:Q *146:6 9.83571 
2 *146:6 *146:8 4.5 
3 *146:8 *146:12 6.14286 
4 *146:12 *3429:B2 23.1571 
5 *146:12 *146:27 7.92857 
6 *146:27 *3433:A1 19.3357 
7 *146:27 *146:46 13.75 
8 *146:46 *3432:A 9.3 
9 *146:46 *146:57 3.14286 
10 *146:57 *146:61 21.625 
11 *146:61 *3332:B 14.8714 
12 *146:61 *2923:A1 20.9429 
13 *146:57 *2775:A 21.3 
14 *146:8 *146:98 3.46429 
15 *146:98 *146:112 44.9107 
16 *146:112 *146:116 14.6429 
17 *146:116 *3415:A 10.2464 
18 *146:116 *3412:D 24.7062 
19 *146:98 *3427:A 15.1393 
20 *146:6 *3426:A 9.3 
*END

*D_NET *147 0.0194418
*CONN
*I *3345:A I *D sky130_fd_sc_hd__or2_1
*I *3344:A I *D sky130_fd_sc_hd__nor2_1
*I *3357:A I *D sky130_fd_sc_hd__nand3_1
*I *3356:B1 I *D sky130_fd_sc_hd__a21o_1
*I *3418:A I *D sky130_fd_sc_hd__or4b_1
*I *2923:B1 I *D sky130_fd_sc_hd__a21oi_1
*I *3332:C_N I *D sky130_fd_sc_hd__or3b_1
*I *3433:B1 I *D sky130_fd_sc_hd__a21oi_1
*I *3432:B I *D sky130_fd_sc_hd__and3_1
*I *3435:B2 I *D sky130_fd_sc_hd__a32o_1
*I *3614:Q O *D sky130_fd_sc_hd__dfrtp_4
*CAP
1 *3345:A 0.000328869
2 *3344:A 0.000127054
3 *3357:A 0
4 *3356:B1 2.76557e-05
5 *3418:A 0.000721813
6 *2923:B1 2.76349e-05
7 *3332:C_N 0.000152462
8 *3433:B1 0.000243503
9 *3432:B 3.92359e-05
10 *3435:B2 1.69713e-05
11 *3614:Q 0
12 *147:124 0.000761397
13 *147:115 0.000404325
14 *147:104 0.00117419
15 *147:70 0.000924944
16 *147:55 0.000969731
17 *147:29 0.00060109
18 *147:27 0.00130825
19 *147:12 0.000791177
20 *147:4 0.00147377
21 *2923:B1 *148:73 2.89114e-05
22 *3332:C_N *3454:B 4.98411e-05
23 *3332:C_N *3455:B 0.000272425
24 *3332:C_N *3456:A1 0.0003377
25 *3332:C_N *3461:B 2.04252e-06
26 *3332:C_N *876:19 1.24368e-05
27 *3344:A *3361:A2 0.000137983
28 *3344:A *3362:A 1.02504e-05
29 *3344:A *3363:A 5.80706e-06
30 *3344:A *756:24 2.26327e-05
31 *3344:A *765:10 5.58941e-05
32 *3345:A *3366:A2 9.71197e-05
33 *3345:A *3366:B1 0.000242157
34 *3345:A *3366:B2 1.02504e-05
35 *3345:A *3374:B 9.71197e-05
36 *3345:A *765:10 0.000282876
37 *3345:A *800:14 0.000170661
38 *3356:B1 *3363:A 2.89016e-05
39 *3418:A *3419:B 2.44318e-05
40 *3418:A *3509:A 0.000611084
41 *3418:A *3509:C 3.75609e-05
42 *3418:A *3510:B 0.000268409
43 *3418:A *3511:B2 0.000310502
44 *3418:A *3511:C1 0.00045886
45 *3418:A *3515:C 1.81478e-05
46 *3418:A *3516:A 0.000117543
47 *3418:A *879:22 0
48 *3418:A *1071:12 4.22627e-05
49 *3418:A *1071:14 5.73015e-05
50 *3432:B *3434:A2 5.52238e-05
51 *3433:B1 *3432:C 0.000158497
52 *3433:B1 *3434:A1 6.19181e-05
53 *3433:B1 *354:10 4.75715e-05
54 *3433:B1 *379:53 3.99614e-06
55 *3433:B1 *836:20 2.0037e-05
56 *3433:B1 *857:29 4.46186e-06
57 *3435:B2 *3435:A2 0.00010096
58 *3435:B2 *1059:26 7.43578e-06
59 *147:12 *1127:DIODE 1.92789e-05
60 *147:12 *3430:B1 6.05161e-06
61 *147:12 *3431:A1 0
62 *147:12 *3435:A2 0.000360521
63 *147:12 *3616:RESET_B 0
64 *147:12 *3704:A 0.000186662
65 *147:12 *1086:47 0.000367382
66 *147:12 *1086:58 3.17148e-05
67 *147:27 *3435:B1 8.04343e-05
68 *147:27 *1059:26 0.000342694
69 *147:27 *1083:23 0
70 *147:29 *3410:A1 5.74499e-06
71 *147:29 *3410:B1 5.33334e-05
72 *147:29 *3434:A2 0.000125547
73 *147:29 *1059:26 0.00010096
74 *147:55 *3409:A 4.42999e-05
75 *147:55 *3467:A3 0
76 *147:55 *3472:A2 0
77 *147:55 *3475:C_N 1.78353e-05
78 *147:55 *3480:A2 7.83659e-05
79 *147:55 *243:23 9.87983e-06
80 *147:55 *881:22 0
81 *147:55 *1014:79 0.000549542
82 *147:55 *1086:85 0
83 *147:55 *1086:109 0
84 *147:70 *2924:A2 0.000197378
85 *147:70 *879:22 0
86 *147:70 *1086:109 0
87 *147:104 *2953:A 3.18676e-05
88 *147:104 *3358:A 0
89 *147:104 *3363:A 0
90 *147:104 *782:12 0
91 *147:104 *783:12 7.58664e-05
92 *147:104 *784:23 0
93 *147:124 *3362:A 0.000210835
94 *147:124 *3363:A 0
95 *147:124 *3366:B1 1.19402e-05
96 *147:124 *765:10 2.26327e-05
97 *3514:B1 *3418:A 0.000375614
98 *3518:B *3418:A 0.000112483
99 *118:27 *147:55 0.000174854
100 *118:47 *147:55 0.000400214
101 *118:47 *147:70 0.000100766
102 *118:85 *3418:A 2.09846e-05
103 *127:12 *3418:A 0.000162419
104 *127:12 *147:70 0.000148038
105 *129:18 *3418:A 9.90367e-05
106 *145:12 *147:104 0.000129515
107 *145:24 *147:104 0.000315165
108 *146:46 *3433:B1 3.34366e-05
109 *146:57 *147:29 1.51444e-05
110 *146:61 *147:55 5.8099e-05
*RES
1 *3614:Q *147:4 9.3 
2 *147:4 *147:12 19.8571 
3 *147:12 *3435:B2 10.2464 
4 *147:12 *147:27 14.2679 
5 *147:27 *147:29 4.23214 
6 *147:29 *3432:B 9.83571 
7 *147:29 *3433:B1 22.55 
8 *147:27 *147:55 21.3214 
9 *147:55 *3332:C_N 18.175 
10 *147:55 *147:70 4.67857 
11 *147:70 *2923:B1 14.3357 
12 *147:70 *3418:A 43.4786 
13 *147:4 *147:104 24.25 
14 *147:104 *3356:B1 14.3357 
15 *147:104 *147:115 1.35714 
16 *147:115 *3357:A 13.8 
17 *147:115 *147:124 5.58929 
18 *147:124 *3344:A 24.8893 
19 *147:124 *3345:A 23.9786 
*END

*D_NET *148 0.0130612
*CONN
*I *2776:A I *D sky130_fd_sc_hd__inv_2
*I *3255:A I *D sky130_fd_sc_hd__or3_1
*I *2922:A I *D sky130_fd_sc_hd__nand2_1
*I *3420:A I *D sky130_fd_sc_hd__or4b_1
*I *3439:A I *D sky130_fd_sc_hd__and2_1
*I *3443:B2 I *D sky130_fd_sc_hd__a32o_1
*I *3441:A I *D sky130_fd_sc_hd__or2_1
*I *3615:Q O *D sky130_fd_sc_hd__dfrtp_2
*CAP
1 *2776:A 0
2 *3255:A 0.000847899
3 *2922:A 1.63101e-05
4 *3420:A 0.000117994
5 *3439:A 0.000193416
6 *3443:B2 3.11815e-05
7 *3441:A 0
8 *3615:Q 0.000200527
9 *148:73 0.00219448
10 *148:49 0.000292316
11 *148:45 0.0020791
12 *148:23 0.000562025
13 *148:19 0.000959371
14 *148:10 0.000247965
15 *2922:A *3505:B1 5.59013e-05
16 *3255:A *3255:C 0.000166426
17 *3255:A *3335:B1 0
18 *3255:A *3338:A1 4.48206e-05
19 *3255:A *3338:A2 2.4905e-05
20 *3255:A *3397:C1 0
21 *3255:A *3403:B 0.00012401
22 *3255:A *3501:B 5.25998e-05
23 *3255:A *811:23 1.74352e-05
24 *3255:A *821:12 0
25 *3255:A *826:32 0
26 *3255:A *828:33 0.000180315
27 *3255:A *833:14 0.000132708
28 *3420:A *3420:C 1.92905e-05
29 *3420:A *3422:B2 5.71472e-05
30 *3420:A *3505:B1 8.84874e-05
31 *3439:A *3439:B 1.58163e-05
32 *3439:A *3444:A2 5.21467e-05
33 *3443:B2 *3443:B1 2.02165e-05
34 *148:10 *3443:A3 4.1331e-06
35 *148:10 *3444:A1 9.25014e-06
36 *148:10 *3615:RESET_B 0
37 *148:10 *857:29 0
38 *148:10 *1062:37 5.97284e-05
39 *148:10 *1083:23 5.62995e-05
40 *148:19 *3441:B 1.05524e-05
41 *148:19 *3443:A3 2.56125e-05
42 *148:19 *3444:A1 9.15804e-05
43 *148:23 *3443:A2 1.69961e-05
44 *148:23 *3444:A2 6.91438e-06
45 *148:23 *3444:B1 0.000183726
46 *148:23 *1067:37 0.000186966
47 *148:23 *1067:58 5.10796e-05
48 *148:45 *2925:A2 0.000100476
49 *148:45 *3443:A3 5.33308e-05
50 *148:45 *3444:A1 0.000279164
51 *148:45 *3458:A2 0
52 *148:45 *3463:B 5.33882e-05
53 *148:45 *355:12 7.48679e-06
54 *148:45 *851:33 0.000803425
55 *148:45 *851:59 4.10486e-05
56 *148:45 *866:79 0.000154876
57 *148:45 *1061:236 6.84396e-05
58 *148:49 *2925:A2 2.77173e-05
59 *148:49 *3649:A 0.000139907
60 *148:49 *355:12 0.000266473
61 *148:49 *975:10 9.60875e-05
62 *148:73 *2923:A2 6.42095e-05
63 *148:73 *3403:B 4.88637e-05
64 *148:73 *3529:A1 0.000311196
65 *148:73 *3529:B2 9.05645e-05
66 *148:73 *3529:C1 4.58976e-05
67 *148:73 *369:169 5.33433e-05
68 *148:73 *756:16 0
69 *148:73 *826:32 1.74352e-05
70 *148:73 *975:10 0.000517573
71 *2923:A1 *148:73 1.21258e-05
72 *2923:B1 *148:73 2.89114e-05
73 *118:61 *148:49 6.57914e-05
74 *120:37 *2922:A 4.73656e-05
75 *120:37 *3420:A 0.000168465
76 *121:25 *3420:A 0
*RES
1 *3615:Q *148:10 16.9964 
2 *148:10 *3441:A 13.8 
3 *148:10 *148:19 1.33929 
4 *148:19 *148:23 9.14286 
5 *148:23 *3443:B2 10.0321 
6 *148:23 *3439:A 12.3357 
7 *148:19 *148:45 20.4107 
8 *148:45 *148:49 8.73214 
9 *148:49 *3420:A 16.5857 
10 *148:49 *2922:A 14.5321 
11 *148:45 *148:73 22.625 
12 *148:73 *3255:A 33.8 
13 *148:73 *2776:A 9.3 
*END

*D_NET *149 0.000445271
*CONN
*I *3707:A I *D sky130_fd_sc_hd__buf_2
*I *2843:X O *D sky130_fd_sc_hd__and2_1
*CAP
1 *3707:A 0.000179772
2 *2843:X 0.000179772
3 *3707:A *3610:CLK 8.15939e-05
4 *3707:A *378:18 0
5 *2920:A *3707:A 4.1331e-06
*RES
1 *2843:X *3707:A 30.9036 
*END

*D_NET *150 0.00712325
*CONN
*I *2853:A_N I *D sky130_fd_sc_hd__and2b_2
*I *2867:B1 I *D sky130_fd_sc_hd__o21a_1
*I *2858:A I *D sky130_fd_sc_hd__and2_1
*I *2861:A3 I *D sky130_fd_sc_hd__a31o_1
*I *2862:B I *D sky130_fd_sc_hd__nand3_1
*I *3566:A1 I *D sky130_fd_sc_hd__o21ba_1
*I *3638:Q O *D sky130_fd_sc_hd__dfrtp_1
*CAP
1 *2853:A_N 0
2 *2867:B1 0.000191033
3 *2858:A 0
4 *2861:A3 2.99504e-05
5 *2862:B 0.000276774
6 *3566:A1 0.000627735
7 *3638:Q 0
8 *150:51 0.000745359
9 *150:47 0.00090027
10 *150:19 0.000499101
11 *150:6 0.0010571
12 *150:4 0.000582935
13 *2861:A3 *308:40 9.41642e-05
14 *2862:B *967:10 0
15 *2862:B *1086:164 0.000221156
16 *2867:B1 *2867:A2 9.90367e-05
17 *2867:B1 *967:16 5.52302e-05
18 *3566:A1 *3566:A2 3.28977e-05
19 *3566:A1 *3638:CLK 0.000125412
20 *3566:A1 *3638:D 0.000188586
21 *3566:A1 *169:20 0
22 *3566:A1 *255:29 2.65105e-05
23 *3566:A1 *255:46 1.84754e-05
24 *150:6 *3638:CLK 8.37235e-05
25 *150:6 *3638:RESET_B 0.000136638
26 *150:19 *967:10 0
27 *150:19 *1086:164 0.000209476
28 *150:19 *1086:180 0
29 *150:47 *2853:B 0
30 *150:47 *3638:CLK 0
31 *150:47 *3638:RESET_B 0.00014285
32 *150:47 *309:46 0
33 *150:47 *369:72 0
34 *150:47 *967:10 0
35 *150:51 *2853:B 0
36 *150:51 *2858:B 6.42242e-05
37 *150:51 *2860:B2 0
38 *150:51 *2867:A2 2.8266e-06
39 *150:51 *3584:D 0
40 *150:51 *308:55 0
41 *150:51 *309:46 0
42 *150:51 *309:58 0
43 *150:51 *967:16 0
44 *2837:A *2862:B 8.29245e-05
45 *2861:A1 *2862:B 0.000135028
46 *109:12 *2861:A3 9.41642e-05
47 *109:12 *150:19 0.000123295
48 *109:32 *2867:B1 0
49 *109:75 *2862:B 1.74352e-05
50 *110:16 *2867:B1 6.13011e-05
51 *111:12 *2862:B 9.60875e-05
52 *112:20 *150:51 0.000101545
*RES
1 *3638:Q *150:4 9.3 
2 *150:4 *150:6 3.41071 
3 *150:6 *3566:A1 17.9607 
4 *150:6 *150:19 8.875 
5 *150:19 *2862:B 19.9786 
6 *150:19 *2861:A3 14.7464 
7 *150:4 *150:47 10.2321 
8 *150:47 *150:51 14.0357 
9 *150:51 *2858:A 9.3 
10 *150:51 *2867:B1 13.4607 
11 *150:47 *2853:A_N 13.8 
*END

*D_NET *151 0.017031
*CONN
*I *2830:B1 I *D sky130_fd_sc_hd__a21oi_1
*I *2811:C1 I *D sky130_fd_sc_hd__a221o_1
*I *2824:A1 I *D sky130_fd_sc_hd__o21ai_1
*I *2819:B1 I *D sky130_fd_sc_hd__a21oi_1
*I *2816:A I *D sky130_fd_sc_hd__and3_1
*I *2831:C1 I *D sky130_fd_sc_hd__o211a_1
*I *2805:C1 I *D sky130_fd_sc_hd__o311a_1
*I *2851:A I *D sky130_fd_sc_hd__xnor2_1
*I *3640:A I *D sky130_fd_sc_hd__clkbuf_1
*I *2785:A I *D sky130_fd_sc_hd__inv_2
*I *3581:Q O *D sky130_fd_sc_hd__dfxtp_2
*CAP
1 *2830:B1 1.49604e-05
2 *2811:C1 0.000119136
3 *2824:A1 0.000287668
4 *2819:B1 0.000244175
5 *2816:A 1.11927e-05
6 *2831:C1 0.000152092
7 *2805:C1 0
8 *2851:A 0
9 *3640:A 9.00419e-05
10 *2785:A 0.000149737
11 *3581:Q 0
12 *151:130 0.000172187
13 *151:115 0.000416905
14 *151:98 0.000447834
15 *151:89 0.000225024
16 *151:76 0.000528838
17 *151:65 0.00101457
18 *151:32 0.00174829
19 *151:14 0.00203345
20 *151:4 0.00126408
21 *2785:A *3600:CLK 0
22 *2785:A *3752:A 0.000344932
23 *2811:C1 *2811:B2 3.60427e-05
24 *2811:C1 *2830:A2 0.000123295
25 *2811:C1 *2832:A2 0
26 *2811:C1 *1078:101 9.60939e-05
27 *2819:B1 *2827:A1 0
28 *2819:B1 *2827:A2 2.05915e-05
29 *2819:B1 *2827:C1 4.79704e-05
30 *2819:B1 *2829:B1 0.000311028
31 *2819:B1 *2832:A2 0.000402467
32 *2819:B1 *283:8 2.54435e-05
33 *2824:A1 *2824:B1 0.000230828
34 *2824:A1 *2829:B1 0
35 *2824:A1 *2832:A2 0.000118349
36 *2824:A1 *2840:A1 0.000144773
37 *2824:A1 *3758:A 0.000120575
38 *2824:A1 *291:12 0.000127446
39 *2830:B1 *2830:A2 5.33005e-05
40 *2830:B1 *291:12 1.56e-05
41 *2831:C1 *2814:A 4.75521e-05
42 *2831:C1 *2820:B1 7.05447e-05
43 *2831:C1 *2829:A1 0.000312036
44 *2831:C1 *1078:72 0
45 *151:14 *3581:D 7.83587e-05
46 *151:14 *3596:CLK 0.000143625
47 *151:14 *967:33 0.000274288
48 *151:14 *969:25 0
49 *151:14 *969:64 7.15846e-05
50 *151:32 *2846:A 0.000172607
51 *151:32 *2848:B 0
52 *151:32 *2849:B 0.000125724
53 *151:32 *2851:B 0.000318107
54 *151:32 *2891:A 0
55 *151:32 *2897:B1 2.59355e-05
56 *151:32 *2898:B 9.11365e-06
57 *151:32 *2901:A1 0
58 *151:32 *2902:A1 0
59 *151:32 *2906:A 0
60 *151:32 *3596:CLK 4.72818e-05
61 *151:32 *3596:D 0.00101286
62 *151:32 *3598:D 9.41642e-05
63 *151:32 *3599:D 0.00010326
64 *151:32 *3600:CLK 0
65 *151:32 *3642:A 0.00010096
66 *151:32 *3754:A 2.13687e-05
67 *151:32 *162:25 5.58941e-05
68 *151:32 *163:16 4.02462e-05
69 *151:32 *166:8 0.000143566
70 *151:32 *167:38 9.25014e-06
71 *151:32 *303:22 7.83587e-05
72 *151:32 *307:52 0
73 *151:32 *339:22 6.05161e-06
74 *151:32 *967:33 0.00030669
75 *151:32 *968:16 0
76 *151:32 *968:18 0
77 *151:65 *2805:B1 5.80706e-06
78 *151:65 *2812:A_N 3.5707e-05
79 *151:65 *2870:B 8.07951e-05
80 *151:65 *2871:A_N 1.76039e-05
81 *151:65 *2875:A2 0.000166397
82 *151:65 *2875:B1 3.65178e-05
83 *151:65 *3587:D 0
84 *151:65 *3754:A 7.33209e-05
85 *151:65 *1079:10 0.000153306
86 *151:65 *1079:12 4.1331e-06
87 *151:76 *2805:A1 0
88 *151:76 *2805:A3 5.33334e-05
89 *151:76 *2815:C_N 5.52302e-05
90 *151:76 *2816:C 1.33343e-05
91 *151:76 *268:21 8.56752e-05
92 *151:76 *1078:14 3.30237e-05
93 *151:76 *1078:16 7.49387e-06
94 *151:89 *2816:C 5.85901e-05
95 *151:89 *1078:14 9.0145e-05
96 *151:115 *2811:A1 6.05161e-06
97 *151:130 *2811:A1 2.14757e-05
98 *151:130 *2830:A2 5.52238e-05
99 *151:130 *291:12 1.58163e-05
100 gpio_oeb[1] *2785:A 0.000144773
101 *2803:A_N *2831:C1 5.58941e-05
102 *2804:B *2831:C1 0.000171375
103 *2806:B *2811:C1 0
104 *2823:A *2811:C1 0.000144038
105 *2823:A *2824:A1 0.000128155
106 *2834:C1 *2824:A1 0
107 *3639:A *2785:A 0.000376792
108 *3639:A *151:32 9.25014e-06
109 *108:39 *2785:A 2.44318e-05
110 *108:60 *2824:A1 9.89536e-05
111 *116:29 *2824:A1 0
*RES
1 *3581:Q *151:4 9.3 
2 *151:4 *151:14 18.1786 
3 *151:14 *151:32 46.6071 
4 *151:32 *2785:A 20.1393 
5 *151:32 *3640:A 15.1571 
6 *151:14 *2851:A 9.3 
7 *151:4 *151:65 22.0714 
8 *151:65 *2805:C1 9.3 
9 *151:65 *151:76 5.08929 
10 *151:76 *2831:C1 23.2821 
11 *151:76 *151:89 2.17857 
12 *151:89 *2816:A 9.72857 
13 *151:89 *151:98 1.76786 
14 *151:98 *2819:B1 25.0679 
15 *151:98 *151:115 1.35714 
16 *151:115 *2824:A1 27.3714 
17 *151:115 *151:130 0.946429 
18 *151:130 *2811:C1 21.6214 
19 *151:130 *2830:B1 9.83571 
*END

*D_NET *152 0.00241936
*CONN
*I *2885:A2 I *D sky130_fd_sc_hd__a21oi_1
*I *2844:B I *D sky130_fd_sc_hd__and3_1
*I *3716:A I *D sky130_fd_sc_hd__dlygate4sd3_1
*I *3590:Q O *D sky130_fd_sc_hd__dfxtp_1
*CAP
1 *2885:A2 0.000260678
2 *2844:B 0.000156311
3 *3716:A 0.000178878
4 *3590:Q 0
5 *152:21 0.000611127
6 *152:4 0.000373016
7 *2844:B *2844:A 0.000106299
8 *2844:B *2844:C 8.00806e-05
9 *2844:B *2886:B 0
10 *2844:B *159:10 1.17968e-05
11 *2885:A2 *2885:A1 0.000361408
12 *2885:A2 *2885:B1 5.65955e-05
13 *2885:A2 *3718:A 0.000217359
14 *3716:A *2884:B 0
15 *3716:A *2886:B 0
16 *3716:A *3592:D 5.80706e-06
*RES
1 *3590:Q *152:4 9.3 
2 *152:4 *3716:A 20.8893 
3 *152:4 *152:21 3.01786 
4 *152:21 *2844:B 22.0679 
5 *152:21 *2885:A2 16.55 
*END

*D_NET *153 0.0039382
*CONN
*I *3739:A I *D sky130_fd_sc_hd__dlygate4sd3_1
*I *2848:D_N I *D sky130_fd_sc_hd__or4b_1
*I *2904:B I *D sky130_fd_sc_hd__and3_1
*I *3600:Q O *D sky130_fd_sc_hd__dfxtp_1
*CAP
1 *3739:A 2.11774e-05
2 *2848:D_N 0.000132261
3 *2904:B 0.000461879
4 *3600:Q 0.000233217
5 *153:16 0.000678841
6 *153:12 0.000339095
7 *2848:D_N *2848:B 7.63537e-05
8 *2848:D_N *2897:A1 1.98839e-05
9 *2848:D_N *2898:B 7.80077e-05
10 *2848:D_N *2900:C 4.58194e-05
11 *2848:D_N *165:38 5.33005e-05
12 *2848:D_N *339:50 8.21514e-05
13 *2848:D_N *343:14 6.9019e-05
14 *2848:D_N *343:16 1.76135e-05
15 *2904:B *2848:C 5.33005e-05
16 *2904:B *2900:C 5.33005e-05
17 *2904:B *2909:A2 5.52238e-05
18 *2904:B *2910:B 5.15644e-05
19 *2904:B *3602:CLK 2.84109e-05
20 *2904:B *3722:A 8.9905e-05
21 *2904:B *154:38 9.71197e-05
22 *2904:B *303:22 3.17114e-05
23 *2904:B *968:80 9.97164e-05
24 *3739:A *2908:A 2.89114e-05
25 *153:12 *2903:B1 0.00015304
26 *153:12 *2906:A 3.77061e-05
27 *153:12 *2908:A 4.43256e-05
28 *153:12 *3600:D 0
29 *153:12 *154:23 0.000312729
30 *153:12 *307:31 0.000175892
31 *153:12 *307:52 4.46186e-06
32 *153:12 *339:65 0.000135028
33 *153:16 *2903:A2 1.52978e-05
34 *153:16 *339:50 7.50697e-05
35 *153:16 *343:16 4.43046e-05
36 *153:16 *343:20 4.25619e-05
37 *3639:A *153:12 0
*RES
1 *3600:Q *153:12 24.55 
2 *153:12 *153:16 6.75 
3 *153:16 *2904:B 31.55 
4 *153:16 *2848:D_N 17.9071 
5 *153:12 *3739:A 9.83571 
*END

*D_NET *154 0.00530821
*CONN
*I *2848:C I *D sky130_fd_sc_hd__or4b_1
*I *2909:A1 I *D sky130_fd_sc_hd__a21oi_1
*I *2908:A I *D sky130_fd_sc_hd__and3_1
*I *3729:A I *D sky130_fd_sc_hd__dlygate4sd3_1
*I *3601:Q O *D sky130_fd_sc_hd__dfxtp_1
*CAP
1 *2848:C 0.000200981
2 *2909:A1 0
3 *2908:A 0.000210117
4 *3729:A 0.000542436
5 *3601:Q 0
6 *154:38 0.000463541
7 *154:23 0.000684782
8 *154:6 0.000754541
9 *2848:C *2900:C 9.58181e-05
10 *2848:C *2909:B1 3.17148e-05
11 *2848:C *165:38 4.82947e-05
12 *2848:C *303:22 3.38136e-05
13 *2848:C *343:14 0.000244354
14 *2848:C *343:16 5.41794e-05
15 *2908:A *2908:C 0.000139637
16 *2908:A *339:65 9.41642e-05
17 *3729:A *2907:A 0.000196205
18 *3729:A *2907:B 5.11365e-05
19 *3729:A *3601:D 4.60153e-05
20 *154:23 *2903:A1 0.000290986
21 *154:23 *2907:B 0
22 *154:23 *3600:D 0
23 *154:23 *307:52 1.59782e-05
24 *154:38 *2903:A1 0.000101545
25 *154:38 *167:19 1.07719e-05
26 *154:38 *303:22 1.04066e-05
27 *154:38 *307:52 3.38136e-05
28 gpio_out[0] *3729:A 0.00027275
29 *2904:B *2848:C 5.33005e-05
30 *2904:B *154:38 9.71197e-05
31 *3739:A *2908:A 2.89114e-05
32 *108:39 *3729:A 0.00013359
33 *108:39 *154:23 1.02504e-05
34 *153:12 *2908:A 4.43256e-05
35 *153:12 *154:23 0.000312729
*RES
1 *3601:Q *154:6 13.8 
2 *154:6 *3729:A 23.6214 
3 *154:6 *154:23 6.19643 
4 *154:23 *2908:A 17.6214 
5 *154:23 *154:38 8.42857 
6 *154:38 *2909:A1 9.3 
7 *154:38 *2848:C 22.9429 
*END

*D_NET *155 0.00217593
*CONN
*I *2847:A I *D sky130_fd_sc_hd__or4b_1
*I *3721:A I *D sky130_fd_sc_hd__dlygate4sd3_1
*I *2908:B I *D sky130_fd_sc_hd__and3_1
*I *3602:Q O *D sky130_fd_sc_hd__dfxtp_1
*CAP
1 *2847:A 5.67424e-05
2 *3721:A 0
3 *2908:B 0.000352275
4 *3602:Q 9.068e-05
5 *155:14 0.000413953
6 *155:10 0.0002091
7 *2847:A *2850:B 2.14658e-05
8 *2847:A *2913:C 9.90431e-05
9 *2908:B *2850:B 0.000585685
10 *2908:B *303:22 0.00016896
11 *2908:B *345:12 9.57311e-05
12 *155:10 *2847:B 0
13 *155:10 *2851:B 0
14 *155:10 *2913:C 3.34366e-05
15 *155:14 *2850:B 4.88637e-05
*RES
1 *3602:Q *155:10 19.9429 
2 *155:10 *155:14 1.375 
3 *155:14 *2908:B 18.2107 
4 *155:14 *3721:A 9.3 
5 *155:10 *2847:A 10.6571 
*END

*D_NET *156 0.00302844
*CONN
*I *2913:A I *D sky130_fd_sc_hd__and3_1
*I *2847:D_N I *D sky130_fd_sc_hd__or4b_1
*I *3727:A I *D sky130_fd_sc_hd__dlygate4sd3_1
*I *2914:A1 I *D sky130_fd_sc_hd__a21oi_1
*I *3603:Q O *D sky130_fd_sc_hd__dfxtp_1
*CAP
1 *2913:A 0.000414811
2 *2847:D_N 0
3 *3727:A 8.0178e-05
4 *2914:A1 0
5 *3603:Q 0.000142715
6 *156:32 0.000568294
7 *156:19 0.000459093
8 *156:8 0.000368147
9 *2913:A *2913:C 0.000428847
10 *3727:A *2914:B1 9.46929e-05
11 *3727:A *157:12 0.000140933
12 *156:19 *2912:A2 0
13 *156:19 *2914:B1 0
14 *156:19 *2915:A 0
15 *156:19 *157:8 4.25716e-05
16 *156:19 *345:36 0
17 *156:32 *2847:B 5.99125e-05
18 *156:32 *2847:C 4.16207e-05
19 *156:32 *2915:A 0
20 *156:32 *2916:A 1.19402e-05
21 *156:32 *3605:D 0
22 *156:32 *157:8 6.8646e-06
23 *108:39 *156:8 3.47797e-05
24 *108:39 *156:19 0.000133037
*RES
1 *3603:Q *156:8 11.3893 
2 *156:8 *2914:A1 9.3 
3 *156:8 *156:19 9.33929 
4 *156:19 *3727:A 15.9786 
5 *156:19 *156:32 7.66071 
6 *156:32 *2847:D_N 9.3 
7 *156:32 *2913:A 15.2107 
*END

*D_NET *157 0.0015989
*CONN
*I *2847:C I *D sky130_fd_sc_hd__or4b_1
*I *3723:A I *D sky130_fd_sc_hd__dlygate4sd3_1
*I *2913:B I *D sky130_fd_sc_hd__and3_1
*I *3604:Q O *D sky130_fd_sc_hd__dfxtp_1
*CAP
1 *2847:C 9.31768e-05
2 *3723:A 0
3 *2913:B 5.60223e-05
4 *3604:Q 8.47634e-05
5 *157:12 0.000346864
6 *157:8 0.000468782
7 *2847:C *2847:B 6.0038e-05
8 *2847:C *2913:C 0
9 *2913:B *2915:A 4.35048e-05
10 *2913:B *3604:CLK 6.75007e-05
11 *157:8 *2913:C 0
12 *157:8 *2914:B1 7.83587e-05
13 *157:8 *345:36 0
14 *157:12 *2914:B1 6.79057e-05
15 *3727:A *157:12 0.000140933
16 *156:19 *157:8 4.25716e-05
17 *156:32 *2847:C 4.16207e-05
18 *156:32 *157:8 6.8646e-06
*RES
1 *3604:Q *157:8 15.7464 
2 *157:8 *157:12 9.96429 
3 *157:12 *2913:B 19.9429 
4 *157:12 *3723:A 9.3 
5 *157:8 *2847:C 16.05 
*END

*D_NET *158 0.000723199
*CONN
*I *3719:A I *D sky130_fd_sc_hd__dlygate4sd3_1
*I *2847:B I *D sky130_fd_sc_hd__or4b_1
*I *3605:Q O *D sky130_fd_sc_hd__dfxtp_1
*CAP
1 *3719:A 0.000100196
2 *2847:B 0.000201428
3 *3605:Q 0
4 *158:6 0.000301624
5 *2847:B *2913:C 0
6 *2847:B *2916:A 0
7 *3719:A *2916:A 0
8 *3719:A *969:33 0
9 *2847:C *2847:B 6.0038e-05
10 *155:10 *2847:B 0
11 *156:32 *2847:B 5.99125e-05
*RES
1 *3605:Q *158:6 13.8 
2 *158:6 *2847:B 17.8714 
3 *158:6 *3719:A 15.4429 
*END

*D_NET *159 0.00282005
*CONN
*I *3725:A I *D sky130_fd_sc_hd__dlygate4sd3_1
*I *2885:A1 I *D sky130_fd_sc_hd__a21oi_1
*I *2844:A I *D sky130_fd_sc_hd__and3_1
*I *3591:Q O *D sky130_fd_sc_hd__dfxtp_1
*CAP
1 *3725:A 0.000149492
2 *2885:A1 0.000392432
3 *2844:A 0.000170829
4 *3591:Q 0.000102444
5 *159:10 0.000706
6 *159:8 0.000394675
7 *2844:A *2844:C 0.000168939
8 *2844:A *2888:B 0
9 *2844:A *3717:A 7.36174e-05
10 *2844:A *970:109 0
11 *2885:A1 *2885:B1 5.65955e-05
12 *3725:A *3635:CLK 6.48957e-05
13 *3725:A *970:128 0
14 *159:8 *970:130 5.30637e-06
15 *159:8 *970:147 3.65178e-05
16 *159:10 *3717:A 1.88048e-05
17 *159:10 *970:128 0
18 *2844:B *2844:A 0.000106299
19 *2844:B *159:10 1.17968e-05
20 *2885:A2 *2885:A1 0.000361408
*RES
1 *3591:Q *159:8 15.1571 
2 *159:8 *159:10 2.55357 
3 *159:10 *2844:A 18.4786 
4 *159:10 *2885:A1 19.2643 
5 *159:8 *3725:A 16.9607 
*END

*D_NET *160 0.00149741
*CONN
*I *3717:A I *D sky130_fd_sc_hd__dlygate4sd3_1
*I *2844:C I *D sky130_fd_sc_hd__and3_1
*I *3592:Q O *D sky130_fd_sc_hd__dfxtp_1
*CAP
1 *3717:A 0.000140373
2 *2844:C 0.000275288
3 *3592:Q 0.000116457
4 *160:6 0.000532119
5 *2844:C *2886:B 0
6 *2844:C *3720:A 7.47744e-05
7 *3717:A *970:109 1.6959e-05
8 *3717:A *970:128 0
9 *2844:A *2844:C 0.000168939
10 *2844:A *3717:A 7.36174e-05
11 *2844:B *2844:C 8.00806e-05
12 *159:10 *3717:A 1.88048e-05
*RES
1 *3592:Q *160:6 10.6571 
2 *160:6 *2844:C 22.925 
3 *160:6 *3717:A 21.4607 
*END

*D_NET *161 0.00174078
*CONN
*I *3720:A I *D sky130_fd_sc_hd__dlygate4sd3_1
*I *2845:A I *D sky130_fd_sc_hd__and2_1
*I *3593:Q O *D sky130_fd_sc_hd__dfxtp_1
*CAP
1 *3720:A 0.000195488
2 *2845:A 0.000215602
3 *3593:Q 0
4 *161:6 0.00041109
5 *2845:A *2888:B 0
6 *2845:A *3711:A 0.000128154
7 *2845:A *301:14 0.000186923
8 *2845:A *1081:68 0.000125155
9 *3720:A *2888:A 1.72148e-05
10 *3720:A *2888:B 0.000312215
11 *3720:A *301:6 6.05161e-06
12 *3720:A *301:14 6.81083e-05
13 *2844:C *3720:A 7.47744e-05
*RES
1 *3593:Q *161:6 13.8 
2 *161:6 *2845:A 19.3893 
3 *161:6 *3720:A 18.4429 
*END

*D_NET *162 0.00350428
*CONN
*I *2889:A I *D sky130_fd_sc_hd__nand2_1
*I *2893:B I *D sky130_fd_sc_hd__and4_1
*I *2894:A2 I *D sky130_fd_sc_hd__a31o_1
*I *2849:B I *D sky130_fd_sc_hd__or4bb_1
*I *2890:A I *D sky130_fd_sc_hd__or2_1
*I *3594:Q O *D sky130_fd_sc_hd__dfxtp_1
*CAP
1 *2889:A 6.33899e-05
2 *2893:B 4.16687e-05
3 *2894:A2 0
4 *2849:B 0.000407907
5 *2890:A 0.000113377
6 *3594:Q 0
7 *162:25 0.000517595
8 *162:12 0.000292477
9 *162:8 0.000268412
10 *162:6 0.000220722
11 *2849:B *2849:A 3.42509e-05
12 *2849:B *2849:D_N 9.76689e-05
13 *2849:B *2891:A 3.75052e-05
14 *2849:B *2894:A3 1.02504e-05
15 *2849:B *2896:B 8.57166e-06
16 *2849:B *166:8 0.00014183
17 *2849:B *166:15 2.14658e-05
18 *2889:A *2891:B 0
19 *2889:A *2892:A 8.32171e-05
20 *2889:A *334:8 2.59355e-05
21 *2890:A *2891:A 0.000265447
22 *2890:A *336:28 9.3111e-05
23 *2893:B *968:14 2.89016e-05
24 *162:8 *2891:B 0
25 *162:8 *2892:A 0.00012501
26 *162:8 *2894:A3 0
27 *162:8 *302:28 2.46999e-05
28 *162:12 *2891:A 1.52978e-05
29 *162:12 *2893:C 5.01213e-05
30 *162:25 *2891:A 9.71197e-05
31 *162:25 *2894:A3 4.56437e-05
32 *162:25 *2895:B 1.02936e-05
33 *162:25 *3596:D 0.00018077
34 *151:32 *2849:B 0.000125724
35 *151:32 *162:25 5.58941e-05
*RES
1 *3594:Q *162:6 13.8 
2 *162:6 *162:8 2.55357 
3 *162:8 *162:12 5.83929 
4 *162:12 *2890:A 12.3 
5 *162:12 *162:25 7.41071 
6 *162:25 *2849:B 20.0857 
7 *162:25 *2894:A2 13.8 
8 *162:8 *2893:B 14.3357 
9 *162:6 *2889:A 15.3714 
*END

*D_NET *163 0.00297267
*CONN
*I *3730:A I *D sky130_fd_sc_hd__dlygate4sd3_1
*I *2893:A I *D sky130_fd_sc_hd__and4_1
*I *2849:A I *D sky130_fd_sc_hd__or4bb_1
*I *2894:A1 I *D sky130_fd_sc_hd__a31o_1
*I *3595:Q O *D sky130_fd_sc_hd__dfxtp_1
*CAP
1 *3730:A 0
2 *2893:A 0.000236646
3 *2849:A 0.0002378
4 *2894:A1 4.35905e-05
5 *3595:Q 0.000229905
6 *163:16 0.000412535
7 *163:12 0.000422181
8 *163:10 0.000284297
9 *2849:A *2848:B 4.43698e-05
10 *2849:A *2893:C 0.000129515
11 *2849:A *2894:B1 5.52302e-05
12 *2849:A *2896:B 0.000141729
13 *2849:A *2904:A 3.47641e-06
14 *2849:A *3596:D 0.000119193
15 *2849:A *164:8 0.000140933
16 *2849:A *165:29 2.37525e-05
17 *2893:A *968:14 0.000197277
18 *2894:A1 *2893:C 9.90431e-05
19 *2894:A1 *2894:B1 5.52238e-05
20 *2894:A1 *3596:D 2.14757e-05
21 *163:10 *2894:A3 0
22 *163:10 *302:12 0
23 *163:12 *2894:A3 0
24 *163:16 *2894:A3 0
25 *2849:B *2849:A 3.42509e-05
26 *151:32 *163:16 4.02462e-05
*RES
1 *3595:Q *163:10 17.1036 
2 *163:10 *163:12 0.732143 
3 *163:12 *163:16 6.75 
4 *163:16 *2894:A1 10.675 
5 *163:16 *2849:A 24.4964 
6 *163:12 *2893:A 17.2286 
7 *163:10 *3730:A 13.8 
*END

*D_NET *164 0.00340595
*CONN
*I *3737:A I *D sky130_fd_sc_hd__dlygate4sd3_1
*I *2848:B I *D sky130_fd_sc_hd__or4b_1
*I *2893:C I *D sky130_fd_sc_hd__and4_1
*I *3596:Q O *D sky130_fd_sc_hd__dfxtp_1
*CAP
1 *3737:A 3.80696e-05
2 *2848:B 0.000342817
3 *2893:C 0.000486345
4 *3596:Q 6.73611e-05
5 *164:8 0.000951954
6 *164:6 0.000228222
7 *2848:B *2898:B 8.43785e-05
8 *2848:B *2900:C 9.41642e-05
9 *2848:B *2904:A 2.04825e-05
10 *2848:B *165:29 0
11 *2848:B *343:14 8.51168e-05
12 *2893:C *2846:A 1.50563e-05
13 *2893:C *2891:A 0
14 *2893:C *2895:B 9.71197e-05
15 *2893:C *3596:D 5.54432e-05
16 *2893:C *302:28 1.02504e-05
17 *2893:C *302:32 0.000159929
18 *2893:C *336:28 7.9836e-05
19 *164:6 *3596:D 3.44481e-05
20 *164:8 *3596:D 1.46264e-05
21 *2848:D_N *2848:B 7.63537e-05
22 *2849:A *2848:B 4.43698e-05
23 *2849:A *2893:C 0.000129515
24 *2849:A *164:8 0.000140933
25 *2894:A1 *2893:C 9.90431e-05
26 *151:32 *2848:B 0
27 *162:12 *2893:C 5.01213e-05
*RES
1 *3596:Q *164:6 10.2464 
2 *164:6 *164:8 1.76786 
3 *164:8 *2893:C 26.3179 
4 *164:8 *2848:B 24.2286 
5 *164:6 *3737:A 10.0321 
*END

*D_NET *165 0.00319562
*CONN
*I *2897:A1 I *D sky130_fd_sc_hd__a21o_1
*I *2898:A I *D sky130_fd_sc_hd__and3_1
*I *2848:A I *D sky130_fd_sc_hd__or4b_1
*I *3728:A I *D sky130_fd_sc_hd__dlygate4sd3_1
*I *3597:Q O *D sky130_fd_sc_hd__dfxtp_1
*CAP
1 *2897:A1 0.000236961
2 *2898:A 0
3 *2848:A 0
4 *3728:A 0.000143381
5 *3597:Q 0
6 *165:38 0.000408368
7 *165:29 0.000676327
8 *165:6 0.000648301
9 *2897:A1 *2898:C 3.9087e-05
10 *2897:A1 *2900:C 8.61749e-06
11 *2897:A1 *336:28 1.55885e-05
12 *2897:A1 *336:37 9.41642e-05
13 *3728:A *2899:A 0.000188311
14 *3728:A *2904:A 0.000155704
15 *3728:A *968:80 0
16 *165:29 *2851:B 0
17 *165:29 *2896:A 3.88309e-05
18 *165:29 *2896:B 0.000153848
19 *165:29 *2904:A 4.46325e-05
20 *165:29 *3597:D 2.84026e-05
21 *165:29 *339:22 0.000121416
22 *165:29 *343:14 5.7836e-06
23 *165:29 *968:80 0
24 *165:38 *2900:C 4.26617e-05
25 *2848:B *165:29 0
26 *2848:C *165:38 4.82947e-05
27 *2848:D_N *2897:A1 1.98839e-05
28 *2848:D_N *165:38 5.33005e-05
29 *2849:A *165:29 2.37525e-05
*RES
1 *3597:Q *165:6 13.8 
2 *165:6 *3728:A 17.2107 
3 *165:6 *165:29 21.9286 
4 *165:29 *2848:A 9.3 
5 *165:29 *165:38 3.01786 
6 *165:38 *2898:A 9.3 
7 *165:38 *2897:A1 12.3179 
*END

*D_NET *166 0.00175268
*CONN
*I *2849:D_N I *D sky130_fd_sc_hd__or4bb_1
*I *2898:B I *D sky130_fd_sc_hd__and3_1
*I *3738:A I *D sky130_fd_sc_hd__dlygate4sd3_1
*I *3598:Q O *D sky130_fd_sc_hd__dfxtp_1
*CAP
1 *2849:D_N 6.30178e-05
2 *2898:B 0.000137496
3 *3738:A 0
4 *3598:Q 0.000168876
5 *166:15 0.000214249
6 *166:8 0.000182611
7 *2849:D_N *2896:B 2.44318e-05
8 *2849:D_N *167:38 0.000125547
9 *2898:B *2896:B 0.00012051
10 *2898:B *167:38 4.82166e-05
11 *2898:B *339:50 9.25014e-06
12 *166:8 *167:38 2.14757e-05
13 *166:8 *339:22 5.74499e-06
14 *166:15 *167:38 5.52238e-05
15 *2848:B *2898:B 8.43785e-05
16 *2848:D_N *2898:B 7.80077e-05
17 *2849:B *2849:D_N 9.76689e-05
18 *2849:B *166:8 0.00014183
19 *2849:B *166:15 2.14658e-05
20 *151:32 *2898:B 9.11365e-06
21 *151:32 *166:8 0.000143566
*RES
1 *3598:Q *166:8 13.1393 
2 *166:8 *3738:A 9.3 
3 *166:8 *166:15 0.535714 
4 *166:15 *2898:B 21.7643 
5 *166:15 *2849:D_N 11.4964 
*END

*D_NET *167 0.00587299
*CONN
*I *3733:A I *D sky130_fd_sc_hd__dlygate4sd3_1
*I *2849:C_N I *D sky130_fd_sc_hd__or4bb_1
*I *2904:A I *D sky130_fd_sc_hd__and3_1
*I *2903:A1 I *D sky130_fd_sc_hd__a21o_1
*I *2901:A1 I *D sky130_fd_sc_hd__a21boi_1
*I *3599:Q O *D sky130_fd_sc_hd__dfxtp_1
*CAP
1 *3733:A 0
2 *2849:C_N 0
3 *2904:A 0.00087187
4 *2903:A1 0.00021611
5 *2901:A1 8.89988e-05
6 *3599:Q 0
7 *167:38 0.0011318
8 *167:21 0.000476044
9 *167:19 0.000144571
10 *167:4 0.00023357
11 *2901:A1 *2902:A1 8.00806e-05
12 *2901:A1 *307:52 3.79104e-05
13 *2903:A1 *2903:A2 0.000221163
14 *2903:A1 *2906:C 5.33005e-05
15 *2903:A1 *307:52 0
16 *2903:A1 *339:50 0.000188734
17 *2904:A *2851:B 0
18 *2904:A *2896:A 5.65955e-05
19 *2904:A *2899:A 7.09928e-05
20 *2904:A *3755:A 0.000169504
21 *167:19 *303:22 0.000313241
22 *167:38 *2891:A 0
23 *167:38 *2896:B 0.000303008
24 *167:38 *307:52 0
25 *167:38 *339:22 0.000204893
26 *167:38 *339:50 0.000123288
27 *2848:B *2904:A 2.04825e-05
28 *2849:A *2904:A 3.47641e-06
29 *2849:D_N *167:38 0.000125547
30 *2898:B *167:38 4.82166e-05
31 *3728:A *2904:A 0.000155704
32 *151:32 *2901:A1 0
33 *151:32 *167:38 9.25014e-06
34 *154:23 *2903:A1 0.000290986
35 *154:38 *2903:A1 0.000101545
36 *154:38 *167:19 1.07719e-05
37 *165:29 *2904:A 4.46325e-05
38 *166:8 *167:38 2.14757e-05
39 *166:15 *167:38 5.52238e-05
*RES
1 *3599:Q *167:4 9.3 
2 *167:4 *2901:A1 20.55 
3 *167:4 *167:19 3.42857 
4 *167:19 *167:21 4.5 
5 *167:21 *2903:A1 20.2286 
6 *167:21 *167:38 11.3571 
7 *167:38 *2904:A 30.1594 
8 *167:38 *2849:C_N 9.3 
9 *167:19 *3733:A 9.3 
*END

*D_NET *168 0.004092
*CONN
*I *2796:B I *D sky130_fd_sc_hd__and2_1
*I *2797:B I *D sky130_fd_sc_hd__nor2_1
*I *2791:B I *D sky130_fd_sc_hd__nor2_1
*I *2792:B I *D sky130_fd_sc_hd__or3_1
*I *2787:B I *D sky130_fd_sc_hd__and2_1
*I *2788:B I *D sky130_fd_sc_hd__nand2_2
*I *2852:B1 I *D sky130_fd_sc_hd__o32a_1
*I *3567:Q O *D sky130_fd_sc_hd__dfrtp_2
*CAP
1 *2796:B 0.000122552
2 *2797:B 1.96283e-05
3 *2791:B 0
4 *2792:B 0.000246439
5 *2787:B 0.000116008
6 *2788:B 0
7 *2852:B1 4.41591e-05
8 *3567:Q 0.000259168
9 *168:50 1.96283e-05
10 *168:48 0.00014557
11 *168:37 0.000329309
12 *168:19 0.000116008
13 *168:17 0.000147011
14 *168:6 0.000390486
15 *2787:B *2788:A 1.04232e-05
16 *2787:B *169:28 6.48656e-05
17 *2787:B *255:14 2.89016e-05
18 *2792:B *264:10 0.000353073
19 *2796:B *2797:A 9.90431e-05
20 *2796:B *3568:RESET_B 0.000168939
21 *2796:B *169:20 4.72917e-05
22 *2796:B *255:14 0.000155096
23 *2796:B *255:29 6.86713e-05
24 *2796:B *263:6 0.000137983
25 *2797:B *2857:B1 5.33005e-05
26 *2797:B *264:10 1.98839e-05
27 *2797:B *264:61 1.24368e-05
28 *168:6 *1080:37 0.000361914
29 *168:17 *3568:RESET_B 0.000125731
30 *168:17 *169:24 5.80706e-06
31 *168:37 *3568:RESET_B 0.000148189
32 *168:37 *169:24 3.32442e-05
33 *168:37 *255:14 7.6644e-05
34 *168:48 *3568:RESET_B 7.90803e-05
35 *168:48 *255:14 7.15449e-05
36 *3700:A *2852:B1 0
37 *3700:A *168:6 1.39726e-05
*RES
1 *3567:Q *168:6 13.1214 
2 *168:6 *2852:B1 10.0321 
3 *168:6 *168:17 6.14286 
4 *168:17 *168:19 4.5 
5 *168:19 *2788:B 9.3 
6 *168:19 *2787:B 11.925 
7 *168:17 *168:37 1.94643 
8 *168:37 *2792:B 17.2107 
9 *168:37 *168:48 1.03571 
10 *168:48 *168:50 4.5 
11 *168:50 *2791:B 9.3 
12 *168:50 *2797:B 9.83571 
13 *168:48 *2796:B 18.2286 
*END

*D_NET *169 0.00367823
*CONN
*I *2773:A I *D sky130_fd_sc_hd__inv_2
*I *2791:A I *D sky130_fd_sc_hd__nor2_1
*I *2792:A I *D sky130_fd_sc_hd__or3_1
*I *2787:A I *D sky130_fd_sc_hd__and2_1
*I *2852:B2 I *D sky130_fd_sc_hd__o32a_1
*I *2788:A I *D sky130_fd_sc_hd__nand2_2
*I *3568:Q O *D sky130_fd_sc_hd__dfrtp_2
*CAP
1 *2773:A 0
2 *2791:A 0
3 *2792:A 7.83488e-05
4 *2787:A 0
5 *2852:B2 0.000116194
6 *2788:A 1.20576e-05
7 *3568:Q 0.000239137
8 *169:55 7.83488e-05
9 *169:28 0.00022713
10 *169:24 0.000240016
11 *169:20 0.000546933
12 *169:12 0.000644932
13 *2792:A *2800:B1 0.000139087
14 *2792:A *257:22 5.71472e-05
15 *2792:A *264:10 0.000315158
16 *2792:A *264:61 3.99614e-06
17 *2852:B2 *2852:A1 0
18 *2852:B2 *3568:RESET_B 0.0001406
19 *2852:B2 *308:40 0
20 *2852:B2 *1080:23 7.05143e-06
21 *169:12 *254:62 4.05411e-05
22 *169:12 *264:61 0
23 *169:20 *2797:A 3.48705e-05
24 *169:20 *242:6 1.74352e-05
25 *169:20 *254:29 3.84385e-05
26 *169:20 *255:14 0.000125724
27 *169:20 *263:6 0.000219711
28 *169:24 *254:29 4.62632e-05
29 *169:24 *255:14 0.000147474
30 *2787:B *2788:A 1.04232e-05
31 *2787:B *169:28 6.48656e-05
32 *2796:B *169:20 4.72917e-05
33 *3566:A1 *169:20 0
34 *3768:A *169:12 0
35 *168:17 *169:24 5.80706e-06
36 *168:37 *169:24 3.32442e-05
*RES
1 *3568:Q *169:12 21.6036 
2 *169:12 *169:20 11.1071 
3 *169:20 *169:24 7.35714 
4 *169:24 *169:28 1.78571 
5 *169:28 *2788:A 9.72857 
6 *169:28 *2852:B2 20.7821 
7 *169:24 *2787:A 9.3 
8 *169:20 *169:55 4.5 
9 *169:55 *2792:A 12.7286 
10 *169:55 *2791:A 9.3 
11 *169:12 *2773:A 9.3 
*END

*D_NET *170 0.00126729
*CONN
*I *3567:D I *D sky130_fd_sc_hd__dfrtp_2
*I *2799:X O *D sky130_fd_sc_hd__a211o_1
*CAP
1 *3567:D 0.000375194
2 *2799:X 0.000375194
3 *3567:D *2790:A_N 7.6021e-05
4 *3567:D *2800:B2 6.42338e-05
5 *3567:D *2801:B1 4.15914e-05
6 *3567:D *3579:RESET_B 0
7 *3567:D *257:14 0.000151333
8 *3567:D *264:10 0
9 *3567:D *1064:14 0
10 *3567:D *1080:45 0.000183726
*RES
1 *2799:X *3567:D 35.5643 
*END

*D_NET *171 0.000522983
*CONN
*I *3568:D I *D sky130_fd_sc_hd__dfrtp_2
*I *2802:X O *D sky130_fd_sc_hd__a221o_1
*CAP
1 *3568:D 0.000191871
2 *2802:X 0.000191871
3 *3568:D *2793:A2 7.8327e-05
4 *3568:D *2935:B1 9.15186e-06
5 *3568:D *3568:CLK 5.17614e-05
*RES
1 *2802:X *3568:D 31.3143 
*END

*D_NET *172 0.0014207
*CONN
*I *2795:B I *D sky130_fd_sc_hd__or3_1
*I *2801:A2 I *D sky130_fd_sc_hd__o31a_1
*I *2789:A2 I *D sky130_fd_sc_hd__o21ai_1
*I *3570:Q O *D sky130_fd_sc_hd__dfrtp_1
*CAP
1 *2795:B 3.92359e-05
2 *2801:A2 1.35541e-05
3 *2789:A2 4.42974e-05
4 *3570:Q 7.48963e-05
5 *172:12 0.000109284
6 *172:8 0.000165565
7 *2789:A2 *2801:A1 4.70078e-05
8 *2789:A2 *2802:C1 0.00010096
9 *2795:B *253:14 5.52238e-05
10 *2801:A2 *2802:C1 4.18895e-05
11 *172:8 *2793:A1 0.000195562
12 *172:8 *1064:27 0.000120751
13 *172:12 *2793:A1 9.91086e-05
14 *172:12 *1064:27 3.2534e-05
15 *1:21 *2789:A2 0.000227532
16 *1:21 *2801:A2 5.33005e-05
*RES
1 *3570:Q *172:8 16.3536 
2 *172:8 *172:12 5.83929 
3 *172:12 *2789:A2 11.4786 
4 *172:12 *2801:A2 9.83571 
5 *172:8 *2795:B 14.3357 
*END

*D_NET *173 0.000616688
*CONN
*I *3708:A I *D sky130_fd_sc_hd__dlygate4sd3_1
*I *3571:Q O *D sky130_fd_sc_hd__dfrtp_1
*CAP
1 *3708:A 0.000289981
2 *3571:Q 0.000289981
3 *3708:A *3569:D 3.67257e-05
*RES
1 *3571:Q *3708:A 23.6536 
*END

*D_NET *174 0.00059
*CONN
*I *2784:A I *D sky130_fd_sc_hd__inv_2
*I *3715:A I *D sky130_fd_sc_hd__dlygate4sd3_1
*I *3569:Q O *D sky130_fd_sc_hd__dfrtp_1
*CAP
1 *2784:A 6.28442e-05
2 *3715:A 0
3 *3569:Q 0.000168156
4 *174:6 0.000231
5 *2784:A *3570:RESET_B 3.18676e-05
6 *174:6 *3569:RESET_B 7.86973e-05
7 *174:6 *3570:D 1.74352e-05
*RES
1 *3569:Q *174:6 12.7107 
2 *174:6 *3715:A 9.3 
3 *174:6 *2784:A 10.675 
*END

*D_NET *175 0.000584714
*CONN
*I *2790:A_N I *D sky130_fd_sc_hd__nand2b_1
*I *3579:Q O *D sky130_fd_sc_hd__dfrtp_1
*CAP
1 *2790:A_N 0.000189412
2 *3579:Q 0.000189412
3 *2790:A_N *3567:CLK 0.000129868
4 *3567:D *2790:A_N 7.6021e-05
*RES
1 *3579:Q *2790:A_N 31.6714 
*END

*D_NET *176 0.00242348
*CONN
*I *3710:A I *D sky130_fd_sc_hd__dlygate4sd3_1
*I *3580:Q O *D sky130_fd_sc_hd__dfrtp_1
*CAP
1 *3710:A 0.000752134
2 *3580:Q 0.000752134
3 *3710:A *2786:B 0.000305698
4 *3710:A *3578:CLK 3.13687e-05
5 *3710:A *3578:D 0.000101409
6 *3710:A *3580:RESET_B 1.32552e-05
7 *3710:A *3731:A 0.000146523
8 *3710:A *183:8 0.000228937
9 *3710:A *1080:64 9.20236e-05
*RES
1 *3580:Q *3710:A 40.9929 
*END

*D_NET *177 0.000708634
*CONN
*I *3714:A I *D sky130_fd_sc_hd__dlygate4sd3_1
*I *2790:B I *D sky130_fd_sc_hd__nand2b_1
*I *3578:Q O *D sky130_fd_sc_hd__dfrtp_1
*CAP
1 *3714:A 0
2 *2790:B 0.000157239
3 *3578:Q 0.000155801
4 *177:6 0.00031304
5 *2790:B *257:14 1.92789e-05
6 *177:6 *3579:D 3.18676e-05
7 *177:6 *1080:58 3.14078e-05
*RES
1 *3578:Q *177:6 12.3 
2 *177:6 *2790:B 12.0411 
3 *177:6 *3714:A 9.3 
*END

*D_NET *178 0.000226158
*CONN
*I *2794:A_N I *D sky130_fd_sc_hd__and2b_1
*I *3573:Q O *D sky130_fd_sc_hd__dfrtp_1
*CAP
1 *2794:A_N 6.35574e-05
2 *3573:Q 6.35574e-05
3 *2794:A_N *2794:B 9.90431e-05
*RES
1 *3573:Q *2794:A_N 19.9571 
*END

*D_NET *179 0.000466282
*CONN
*I *3711:A I *D sky130_fd_sc_hd__dlygate4sd3_1
*I *3574:Q O *D sky130_fd_sc_hd__dfrtp_1
*CAP
1 *3711:A 0.00010413
2 *3574:Q 0.00010413
3 *3711:A *301:14 0.000129868
4 *2845:A *3711:A 0.000128154
*RES
1 *3574:Q *3711:A 30.1893 
*END

*D_NET *180 0.00142356
*CONN
*I *2794:B I *D sky130_fd_sc_hd__and2b_1
*I *3713:A I *D sky130_fd_sc_hd__dlygate4sd3_1
*I *3572:Q O *D sky130_fd_sc_hd__dfrtp_1
*CAP
1 *2794:B 0.000320352
2 *3713:A 0
3 *3572:Q 0.00015428
4 *180:8 0.000474632
5 *2794:B *3553:B2 5.52238e-05
6 *2794:B *3573:D 0
7 *2794:B *1064:27 0
8 *180:8 *3553:B2 0.000320024
9 *2794:A_N *2794:B 9.90431e-05
*RES
1 *3572:Q *180:8 13.0321 
2 *180:8 *3713:A 9.3 
3 *180:8 *2794:B 23.8714 
*END

*D_NET *181 7.0902e-05
*CONN
*I *2786:A_N I *D sky130_fd_sc_hd__and2b_1
*I *3576:Q O *D sky130_fd_sc_hd__dfrtp_1
*CAP
1 *2786:A_N 1.95172e-05
2 *3576:Q 1.95172e-05
3 *1:21 *2786:A_N 3.18676e-05
*RES
1 *3576:Q *2786:A_N 19.1357 
*END

*D_NET *182 0.000636118
*CONN
*I *3709:A I *D sky130_fd_sc_hd__dlygate4sd3_1
*I *3577:Q O *D sky130_fd_sc_hd__dfrtp_1
*CAP
1 *3709:A 0.000123302
2 *3577:Q 0.000123302
3 *3709:A *3576:CLK 0.000183726
4 *3709:A *3576:RESET_B 5.33433e-05
5 *3709:A *3577:RESET_B 7.50697e-05
6 *3709:A *302:10 7.73758e-05
*RES
1 *3577:Q *3709:A 31.3143 
*END

*D_NET *183 0.0016552
*CONN
*I *2786:B I *D sky130_fd_sc_hd__and2b_1
*I *3712:A I *D sky130_fd_sc_hd__dlygate4sd3_1
*I *3575:Q O *D sky130_fd_sc_hd__dfrtp_1
*CAP
1 *2786:B 0.00035919
2 *3712:A 0
3 *3575:Q 0.000172718
4 *183:8 0.000531908
5 *2786:B *252:12 2.00751e-05
6 *2786:B *253:14 5.80706e-06
7 *2786:B *1064:14 0
8 *183:8 *3576:D 3.08664e-05
9 *3710:A *2786:B 0.000305698
10 *3710:A *183:8 0.000228937
*RES
1 *3575:Q *183:8 13.1393 
2 *183:8 *3712:A 9.3 
3 *183:8 *2786:B 25.8 
*END

*D_NET *184 0.000581507
*CONN
*I *3581:D I *D sky130_fd_sc_hd__dfxtp_2
*I *2851:Y O *D sky130_fd_sc_hd__xnor2_1
*CAP
1 *3581:D 0.000193839
2 *2851:Y 0.000193839
3 *3581:D *3596:CLK 9.90367e-05
4 *3581:D *969:25 0
5 *3581:D *969:64 1.64343e-05
6 *151:14 *3581:D 7.83587e-05
*RES
1 *2851:Y *3581:D 30.9616 
*END

*D_NET *185 0.00106544
*CONN
*I *3582:D I *D sky130_fd_sc_hd__dfrtp_2
*I *2857:Y O *D sky130_fd_sc_hd__a21oi_1
*CAP
1 *3582:D 0.000302363
2 *2857:Y 0.000302363
3 *3582:D *264:61 0.000460715
*RES
1 *2857:Y *3582:D 24.6179 
*END

*D_NET *186 0.000938458
*CONN
*I *3583:D I *D sky130_fd_sc_hd__dfrtp_2
*I *2860:X O *D sky130_fd_sc_hd__a22o_1
*CAP
1 *3583:D 0.000463934
2 *2860:X 0.000463934
3 *3583:D *972:12 0
4 *3583:D *1077:10 1.05901e-05
5 *3583:D *1083:46 0
6 *3583:D *1083:48 0
*RES
1 *2860:X *3583:D 33.1714 
*END

*D_NET *187 0.00120414
*CONN
*I *3584:D I *D sky130_fd_sc_hd__dfrtp_4
*I *2863:X O *D sky130_fd_sc_hd__and3_1
*CAP
1 *3584:D 0.000425348
2 *2863:X 0.000425348
3 *3584:D *2853:B 8.60735e-05
4 *3584:D *3584:RESET_B 5.33005e-05
5 *3584:D *308:49 9.71197e-05
6 *3584:D *309:22 3.80953e-06
7 *3584:D *309:46 9.91086e-05
8 *3584:D *967:66 1.40306e-05
9 *150:51 *3584:D 0
*RES
1 *2863:X *3584:D 33.7071 
*END

*D_NET *188 0.00100856
*CONN
*I *3585:D I *D sky130_fd_sc_hd__dfrtp_2
*I *2868:X O *D sky130_fd_sc_hd__and3b_1
*CAP
1 *3585:D 0.000460727
2 *2868:X 0.000460727
3 *3585:D *2858:B 5.03772e-05
4 *112:20 *3585:D 3.67257e-05
*RES
1 *2868:X *3585:D 26.5464 
*END

*D_NET *189 0.000636077
*CONN
*I *3586:D I *D sky130_fd_sc_hd__dfrtp_1
*I *2871:X O *D sky130_fd_sc_hd__and3b_1
*CAP
1 *3586:D 0.000200192
2 *2871:X 0.000200192
3 *3586:D *2871:C 5.71472e-05
4 *3586:D *3582:CLK 9.76689e-05
5 *3586:D *308:10 4.15914e-05
6 *3586:D *1080:16 3.92854e-05
*RES
1 *2871:X *3586:D 31.3679 
*END

*D_NET *190 0.000396922
*CONN
*I *3587:D I *D sky130_fd_sc_hd__dfrtp_1
*I *2875:Y O *D sky130_fd_sc_hd__a21oi_1
*CAP
1 *3587:D 0.000198461
2 *2875:Y 0.000198461
3 *3587:D *2870:A 0
4 *3587:D *969:25 0
5 *3587:D *969:27 0
6 *151:65 *3587:D 0
*RES
1 *2875:Y *3587:D 30.6893 
*END

*D_NET *191 0.000349967
*CONN
*I *3588:D I *D sky130_fd_sc_hd__dfrtp_1
*I *2878:X O *D sky130_fd_sc_hd__a22o_1
*CAP
1 *3588:D 9.70556e-05
2 *2878:X 9.70556e-05
3 *3588:D *3588:RESET_B 5.52302e-05
4 *3588:D *3589:CLK 3.18676e-05
5 *3588:D *972:20 6.87574e-05
*RES
1 *2878:X *3588:D 20.7964 
*END

*D_NET *192 0.000592686
*CONN
*I *3589:D I *D sky130_fd_sc_hd__dfrtp_2
*I *2883:X O *D sky130_fd_sc_hd__a32o_1
*CAP
1 *3589:D 0.000237494
2 *2883:X 0.000237494
3 *3589:D *2874:B 6.05161e-06
4 *3589:D *2879:B 0
5 *3589:D *2883:A1 5.52238e-05
6 *3589:D *3589:CLK 3.79467e-05
7 *3589:D *324:18 1.84754e-05
*RES
1 *2883:X *3589:D 31.1179 
*END

*D_NET *193 0.000289503
*CONN
*I *3590:D I *D sky130_fd_sc_hd__dfxtp_1
*I *2774:Y O *D sky130_fd_sc_hd__inv_2
*CAP
1 *3590:D 9.7143e-05
2 *2774:Y 9.7143e-05
3 *3590:D *2884:B 3.5707e-05
4 *3590:D *3590:CLK 5.95099e-05
*RES
1 *2774:Y *3590:D 29.5152 
*END

*D_NET *194 0.000329681
*CONN
*I *3591:D I *D sky130_fd_sc_hd__dfxtp_1
*I *2884:X O *D sky130_fd_sc_hd__xor2_1
*CAP
1 *3591:D 9.81746e-05
2 *2884:X 9.81746e-05
3 *3591:D *970:147 0.000133331
*RES
1 *2884:X *3591:D 20.7071 
*END

*D_NET *195 0.000663186
*CONN
*I *3592:D I *D sky130_fd_sc_hd__dfxtp_1
*I *2886:Y O *D sky130_fd_sc_hd__nor2_1
*CAP
1 *3592:D 0.000185929
2 *2886:Y 0.000185929
3 *3592:D *2886:B 0.000102138
4 *3592:D *3592:CLK 0.000128154
5 *3592:D *970:14 5.52302e-05
6 *3716:A *3592:D 5.80706e-06
*RES
1 *2886:Y *3592:D 31.35 
*END

*D_NET *196 0.000855829
*CONN
*I *3593:D I *D sky130_fd_sc_hd__dfxtp_1
*I *2888:Y O *D sky130_fd_sc_hd__nor2_1
*CAP
1 *3593:D 0.000180375
2 *2888:Y 0.000180375
3 *3593:D *2888:A 6.75007e-05
4 *3593:D *970:22 0.000427577
*RES
1 *2888:Y *3593:D 32.6937 
*END

*D_NET *197 0.000439752
*CONN
*I *3594:D I *D sky130_fd_sc_hd__dfxtp_1
*I *2891:X O *D sky130_fd_sc_hd__and3_1
*CAP
1 *3594:D 0.00016871
2 *2891:X 0.00016871
3 *3594:D *2891:B 0
4 *3594:D *968:14 4.01768e-05
5 *3594:D *968:45 4.79842e-05
6 *3594:D *968:54 1.41706e-05
*RES
1 *2891:X *3594:D 30.658 
*END

*D_NET *198 0.00145555
*CONN
*I *3731:A I *D sky130_fd_sc_hd__dlygate4sd3_1
*I *2892:Y O *D sky130_fd_sc_hd__xnor2_1
*CAP
1 *3731:A 0.000429767
2 *2892:Y 0.000429767
3 *3731:A *2892:A 2.32517e-05
4 *3731:A *3575:CLK 0.00010096
5 *3731:A *3580:RESET_B 2.89016e-05
6 *3731:A *302:10 4.57352e-05
7 *3731:A *1080:64 0.000126639
8 *3731:A *1080:74 0.00012401
9 *3710:A *3731:A 0.000146523
*RES
1 *2892:Y *3731:A 35.6536 
*END

*D_NET *199 0.00232719
*CONN
*I *3596:D I *D sky130_fd_sc_hd__dfxtp_1
*I *2895:X O *D sky130_fd_sc_hd__and2b_1
*CAP
1 *3596:D 0.000369185
2 *2895:X 0.000369185
3 *3596:D *2894:B1 9.80173e-05
4 *3596:D *2895:B 2.89016e-05
5 *3596:D *336:28 2.30799e-05
6 *2849:A *3596:D 0.000119193
7 *2893:C *3596:D 5.54432e-05
8 *2894:A1 *3596:D 2.14757e-05
9 *151:32 *3596:D 0.00101286
10 *162:25 *3596:D 0.00018077
11 *164:6 *3596:D 3.44481e-05
12 *164:8 *3596:D 1.46264e-05
*RES
1 *2895:X *3596:D 30.6938 
*END

*D_NET *200 0.000765849
*CONN
*I *3597:D I *D sky130_fd_sc_hd__dfxtp_1
*I *2896:X O *D sky130_fd_sc_hd__xor2_1
*CAP
1 *3597:D 0.000368723
2 *2896:X 0.000368723
3 *165:29 *3597:D 2.84026e-05
*RES
1 *2896:X *3597:D 24.533 
*END

*D_NET *201 0.000761293
*CONN
*I *3598:D I *D sky130_fd_sc_hd__dfxtp_1
*I *2900:X O *D sky130_fd_sc_hd__and3_1
*CAP
1 *3598:D 0.000281935
2 *2900:X 0.000281935
3 *3598:D *2846:A 0.00010326
4 *3598:D *336:28 0
5 *151:32 *3598:D 9.41642e-05
*RES
1 *2900:X *3598:D 32.3902 
*END

*D_NET *202 0.000512485
*CONN
*I *3599:D I *D sky130_fd_sc_hd__dfxtp_1
*I *2902:X O *D sky130_fd_sc_hd__o21a_1
*CAP
1 *3599:D 0.000204613
2 *2902:X 0.000204613
3 *3599:D *3600:CLK 0
4 *151:32 *3599:D 0.00010326
*RES
1 *2902:X *3599:D 31.158 
*END

*D_NET *203 0.000463967
*CONN
*I *3600:D I *D sky130_fd_sc_hd__dfxtp_1
*I *2906:X O *D sky130_fd_sc_hd__and3_1
*CAP
1 *3600:D 0.000205285
2 *2906:X 0.000205285
3 *3639:A *3600:D 5.33978e-05
4 *153:12 *3600:D 0
5 *154:23 *3600:D 0
*RES
1 *2906:X *3600:D 30.7473 
*END

*D_NET *204 0.000662107
*CONN
*I *3601:D I *D sky130_fd_sc_hd__dfxtp_1
*I *2907:X O *D sky130_fd_sc_hd__xor2_1
*CAP
1 *3601:D 0.000263378
2 *2907:X 0.000263378
3 *3601:D *2907:B 0
4 *3601:D *3603:D 0
5 *3601:D *968:84 4.46186e-06
6 gpio_out[0] *3601:D 5.52302e-05
7 *3729:A *3601:D 4.60153e-05
8 *108:39 *3601:D 2.96436e-05
*RES
1 *2907:X *3601:D 31.7607 
*END

*D_NET *205 0.00153632
*CONN
*I *3602:D I *D sky130_fd_sc_hd__dfxtp_1
*I *2910:Y O *D sky130_fd_sc_hd__nor2_1
*CAP
1 *3602:D 0.000566952
2 *2910:Y 0.000566952
3 *3602:D *2851:B 0
4 *3602:D *2909:B1 6.27272e-06
5 *3602:D *307:31 0.000396143
6 *3602:D *968:84 0
*RES
1 *2910:Y *3602:D 35.7652 
*END

*D_NET *206 0.000851502
*CONN
*I *3603:D I *D sky130_fd_sc_hd__dfxtp_1
*I *2912:Y O *D sky130_fd_sc_hd__a21oi_1
*CAP
1 *3603:D 0.000258986
2 *2912:Y 0.000258986
3 *3603:D *2912:A1 0.000148903
4 gpio_out[0] *3603:D 9.80173e-05
5 *3601:D *3603:D 0
6 *108:39 *3603:D 8.66095e-05
*RES
1 *2912:Y *3603:D 32.7116 
*END

*D_NET *207 0.000508365
*CONN
*I *3604:D I *D sky130_fd_sc_hd__dfxtp_1
*I *2915:Y O *D sky130_fd_sc_hd__nor2_1
*CAP
1 *3604:D 0.000181017
2 *2915:Y 0.000181017
3 *3604:D *2915:A 7.8327e-05
4 *3604:D *3724:A 0
5 *108:39 *3604:D 6.80039e-05
*RES
1 *2915:Y *3604:D 31.3545 
*END

*D_NET *208 0.000562799
*CONN
*I *3605:D I *D sky130_fd_sc_hd__dfxtp_1
*I *2916:X O *D sky130_fd_sc_hd__xor2_1
*CAP
1 *3605:D 0.000207829
2 *2916:X 0.000207829
3 *3605:D *2916:A 0
4 *3605:D *3604:CLK 0
5 *3605:D *969:33 0.000147142
6 *156:32 *3605:D 0
*RES
1 *2916:X *3605:D 31.2473 
*END

*D_NET *209 0.00169067
*CONN
*I *3606:D I *D sky130_fd_sc_hd__dfrtp_1
*I *2939:Y O *D sky130_fd_sc_hd__nor2_1
*CAP
1 *3606:D 0.00030893
2 *2939:Y 0.00030893
3 *3606:D *2938:A2 0.000126446
4 *3606:D *2939:B 0.00048287
5 *3606:D *379:16 9.60939e-05
6 *3606:D *1060:55 0.000367396
*RES
1 *2939:Y *3606:D 36.1 
*END

*D_NET *210 0.00027749
*CONN
*I *3607:D I *D sky130_fd_sc_hd__dfrtp_1
*I *2942:X O *D sky130_fd_sc_hd__and2_1
*CAP
1 *3607:D 0.000116275
2 *2942:X 0.000116275
3 *3607:D *2942:B 2.56601e-05
4 *3607:D *3608:CLK 0
5 *3607:D *1084:34 1.92789e-05
*RES
1 *2942:X *3607:D 29.7786 
*END

*D_NET *211 0.000288623
*CONN
*I *3608:D I *D sky130_fd_sc_hd__dfrtp_1
*I *2943:Y O *D sky130_fd_sc_hd__xnor2_1
*CAP
1 *3608:D 0.000115738
2 *2943:Y 0.000115738
3 *3608:D *3608:CLK 5.71472e-05
*RES
1 *2943:Y *3608:D 20.7964 
*END

*D_NET *212 0.000173035
*CONN
*I *3609:D I *D sky130_fd_sc_hd__dfrtp_1
*I *2947:X O *D sky130_fd_sc_hd__and2b_1
*CAP
1 *3609:D 6.97965e-05
2 *2947:X 6.97965e-05
3 *3609:D *972:12 3.34419e-05
*RES
1 *2947:X *3609:D 28.9393 
*END

*D_NET *213 0.00100173
*CONN
*I *3610:D I *D sky130_fd_sc_hd__dfrtp_1
*I *2948:X O *D sky130_fd_sc_hd__xor2_1
*CAP
1 *3610:D 0.000303888
2 *2948:X 0.000303888
3 *3610:D *3610:CLK 0
4 *3610:D *378:18 0.000102207
5 *3610:D *1084:87 6.42145e-05
6 *2920:D *3610:D 0.000227532
*RES
1 *2948:X *3610:D 33.1893 
*END

*D_NET *214 0.00182423
*CONN
*I *3611:D I *D sky130_fd_sc_hd__dfrtp_1
*I *2951:Y O *D sky130_fd_sc_hd__nor2_1
*CAP
1 *3611:D 0.000694461
2 *2951:Y 0.000694461
3 *3611:D *3610:CLK 0
4 *3611:D *3611:RESET_B 0.000297566
5 *3611:D *3614:RESET_B 9.24299e-05
6 *3611:D *3616:CLK 4.53124e-05
7 *3611:D *973:87 0
8 *3611:D *1086:47 0
*RES
1 *2951:Y *3611:D 38.9393 
*END

*D_NET *215 0.000350126
*CONN
*I *3612:D I *D sky130_fd_sc_hd__dfrtp_1
*I *2953:X O *D sky130_fd_sc_hd__xor2_1
*CAP
1 *3612:D 0.000101633
2 *2953:X 0.000101633
3 *3612:D *973:81 9.80173e-05
4 *3612:D *1084:87 4.8843e-05
*RES
1 *2953:X *3612:D 20.7786 
*END

*D_NET *216 0.000575136
*CONN
*I *3613:D I *D sky130_fd_sc_hd__dfrtp_4
*I *3429:X O *D sky130_fd_sc_hd__a32o_1
*CAP
1 *3613:D 0.000170334
2 *3429:X 0.000170334
3 *3613:D *3584:RESET_B 5.52238e-05
4 *3613:D *967:66 3.80385e-05
5 *3613:D *972:87 3.79467e-05
6 *3613:D *1083:35 0.00010326
*RES
1 *3429:X *3613:D 30.7071 
*END

*D_NET *217 0.000910373
*CONN
*I *3614:D I *D sky130_fd_sc_hd__dfrtp_4
*I *3435:X O *D sky130_fd_sc_hd__a32o_1
*CAP
1 *3614:D 0.000251732
2 *3435:X 0.000251732
3 *3614:D *2949:B1 7.48356e-05
4 *3614:D *2951:B 0
5 *3614:D *243:10 0.000100831
6 *3614:D *973:12 7.36588e-05
7 *3614:D *973:20 3.18676e-05
8 *2775:A *3614:D 0.000125717
*RES
1 *3435:X *3614:D 32.7473 
*END

*D_NET *218 0.000669671
*CONN
*I *3615:D I *D sky130_fd_sc_hd__dfrtp_2
*I *3444:X O *D sky130_fd_sc_hd__a21o_1
*CAP
1 *3615:D 0.00026701
2 *3444:X 0.00026701
3 *3615:D *255:68 8.3223e-05
4 *3615:D *1083:23 5.24274e-05
*RES
1 *3444:X *3615:D 31.5286 
*END

*D_NET *219 0.00128744
*CONN
*I *3616:D I *D sky130_fd_sc_hd__dfrtp_4
*I *3451:X O *D sky130_fd_sc_hd__a22o_1
*CAP
1 *3616:D 0.000287993
2 *3451:X 0.000287993
3 *3616:D *3438:A 9.25014e-06
4 *3616:D *3614:RESET_B 5.56943e-05
5 *3616:D *1083:23 0.000328406
6 *3616:D *1086:47 0
7 *3616:D *1086:58 0
8 *3616:D *1086:85 0
9 *118:14 *3616:D 0.000318101
*RES
1 *3451:X *3616:D 34.6714 
*END

*D_NET *220 0.000318427
*CONN
*I *3617:D I *D sky130_fd_sc_hd__dfrtp_4
*I *3458:X O *D sky130_fd_sc_hd__a22o_1
*CAP
1 *3617:D 0.000104426
2 *3458:X 0.000104426
3 *3617:D *3500:A3 5.71472e-05
4 *3617:D *245:10 5.24274e-05
5 *118:85 *3617:D 0
*RES
1 *3458:X *3617:D 29.475 
*END

*D_NET *221 0.00102046
*CONN
*I *3618:D I *D sky130_fd_sc_hd__dfrtp_1
*I *3464:X O *D sky130_fd_sc_hd__a221o_1
*CAP
1 *3618:D 0.000201495
2 *3464:X 0.000201495
3 *3618:D *3458:A2 4.73656e-05
4 *3618:D *3480:A2 1.84523e-06
5 *3618:D *3618:RESET_B 8.71192e-05
6 *3618:D *866:79 0.000242198
7 *3618:D *1067:29 2.59355e-05
8 *3618:D *1067:31 0.000135502
9 *3618:D *1067:37 5.7616e-05
10 *3618:D *1085:6 1.98839e-05
*RES
1 *3464:X *3618:D 32.9393 
*END

*D_NET *222 0.000556156
*CONN
*I *3619:D I *D sky130_fd_sc_hd__dfrtp_2
*I *3471:X O *D sky130_fd_sc_hd__a32o_1
*CAP
1 *3619:D 9.15521e-05
2 *3471:X 9.15521e-05
3 *3619:D *3423:D_N 9.97669e-05
4 *3619:D *3619:CLK 3.49811e-05
5 *3619:D *3689:A 0.000101346
6 *3619:D *1062:67 0.000136958
*RES
1 *3471:X *3619:D 30.2964 
*END

*D_NET *223 0.00043127
*CONN
*I *3620:D I *D sky130_fd_sc_hd__dfrtp_4
*I *3480:X O *D sky130_fd_sc_hd__a32o_1
*CAP
1 *3620:D 0.000135546
2 *3480:X 0.000135546
3 *3620:D *3423:D_N 4.78056e-05
4 *3620:D *3480:A3 5.52238e-05
5 *3620:D *851:12 0
6 *3620:D *1066:55 5.71472e-05
*RES
1 *3480:X *3620:D 30.0107 
*END

*D_NET *224 0.000447648
*CONN
*I *3621:D I *D sky130_fd_sc_hd__dfrtp_1
*I *3486:X O *D sky130_fd_sc_hd__a32o_1
*CAP
1 *3621:D 0.000106908
2 *3486:X 0.000106908
3 *3621:D *254:62 8.07313e-05
4 *3621:D *369:66 0.00014285
5 *3621:D *967:104 0
6 *3417:D *3621:D 1.02504e-05
*RES
1 *3486:X *3621:D 30.2964 
*END

*D_NET *225 0.000463999
*CONN
*I *3622:D I *D sky130_fd_sc_hd__dfrtp_1
*I *3493:X O *D sky130_fd_sc_hd__a2bb2o_1
*CAP
1 *3622:D 0.000167642
2 *3493:X 0.000167642
3 *3622:D *3622:CLK 0.000128716
4 *3622:D *1074:64 0
*RES
1 *3493:X *3622:D 30.6 
*END

*D_NET *226 0.000346665
*CONN
*I *3623:D I *D sky130_fd_sc_hd__dfrtp_4
*I *3500:X O *D sky130_fd_sc_hd__a32o_1
*CAP
1 *3623:D 8.16147e-05
2 *3500:X 8.16147e-05
3 *3623:D *1066:108 5.01213e-05
4 *3623:D *1066:114 3.07696e-05
5 *124:10 *3623:D 0.000102545
*RES
1 *3500:X *3623:D 29.475 
*END

*D_NET *227 0.00029576
*CONN
*I *3624:D I *D sky130_fd_sc_hd__dfrtp_4
*I *3506:X O *D sky130_fd_sc_hd__a32o_1
*CAP
1 *3624:D 5.23731e-05
2 *3506:X 5.23731e-05
3 *3624:D *3422:A1 5.69374e-05
4 *3624:D *1062:119 9.54798e-06
5 *129:12 *3624:D 0.000124529
*RES
1 *3506:X *3624:D 29.2429 
*END

*D_NET *228 0.00090045
*CONN
*I *3625:D I *D sky130_fd_sc_hd__dfrtp_1
*I *3511:X O *D sky130_fd_sc_hd__a221o_1
*CAP
1 *3625:D 0.000211632
2 *3511:X 0.000211632
3 *3625:D *2923:A2 0.000122879
4 *3625:D *2924:A2 5.52238e-05
5 *3625:D *3511:A2 3.92854e-05
6 *3625:D *3511:B1 0
7 *3625:D *3625:CLK 2.59355e-05
8 *3625:D *975:60 0.000161268
9 *3625:D *975:62 5.66157e-05
10 *2923:A1 *3625:D 1.59782e-05
11 *118:47 *3625:D 0
12 *118:85 *3625:D 0
*RES
1 *3511:X *3625:D 32.8143 
*END

*D_NET *229 0.00104334
*CONN
*I *3626:D I *D sky130_fd_sc_hd__dfrtp_4
*I *3520:X O *D sky130_fd_sc_hd__a21bo_1
*CAP
1 *3626:D 0.000405249
2 *3520:X 0.000405249
3 *3626:D *3626:CLK 5.33882e-05
4 *3520:A1 *3626:D 7.61932e-05
5 *121:25 *3626:D 0.00010326
*RES
1 *3520:X *3626:D 33.1714 
*END

*D_NET *230 0.000617732
*CONN
*I *3627:D I *D sky130_fd_sc_hd__dfrtp_1
*I *3527:X O *D sky130_fd_sc_hd__a22o_1
*CAP
1 *3627:D 0.000148022
2 *3527:X 0.000148022
3 *3627:D *3506:A2 2.21972e-05
4 *3627:D *3527:A2 6.68309e-05
5 *3627:D *3527:B2 1.95091e-05
6 *3692:A *3627:D 0.000139913
7 *125:42 *3627:D 7.3237e-05
8 *130:10 *3627:D 0
*RES
1 *3527:X *3627:D 31.2071 
*END

*D_NET *231 0.000715174
*CONN
*I *3628:D I *D sky130_fd_sc_hd__dfrtp_4
*I *3534:X O *D sky130_fd_sc_hd__a32o_1
*CAP
1 *3628:D 0.000128566
2 *3534:X 0.000128566
3 *3628:D *866:20 1.15172e-05
4 *3628:D *942:16 0.000153054
5 *3628:D *974:63 5.52238e-05
6 *3628:D *1072:93 1.02504e-05
7 *3628:D *1085:52 6.05161e-06
8 *3628:D *1085:66 0.00014894
9 *3417:B *3628:D 1.08359e-05
10 *132:10 *3628:D 6.21678e-05
*RES
1 *3534:X *3628:D 31.9036 
*END

*D_NET *232 0.00107329
*CONN
*I *3629:D I *D sky130_fd_sc_hd__dfrtp_4
*I *3541:X O *D sky130_fd_sc_hd__a32o_1
*CAP
1 *3629:D 0.000327993
2 *3541:X 0.000327993
3 *3629:D *3544:B 0
4 *3629:D *3630:D 0
5 *3629:D *264:61 6.42145e-05
6 *3629:D *866:20 0.000353092
*RES
1 *3541:X *3629:D 32.6536 
*END

*D_NET *233 0.00100146
*CONN
*I *3630:D I *D sky130_fd_sc_hd__dfrtp_1
*I *3545:X O *D sky130_fd_sc_hd__a21bo_1
*CAP
1 *3630:D 0.000431095
2 *3545:X 0.000431095
3 *3630:D *3544:B 2.8266e-06
4 *3630:D *3545:A2 5.03772e-05
5 *3630:D *3551:B1 8.60626e-05
6 *3630:D *264:61 0
7 *3629:D *3630:D 0
*RES
1 *3545:X *3630:D 33.6714 
*END

*D_NET *234 0.00149119
*CONN
*I *3631:D I *D sky130_fd_sc_hd__dfrtp_1
*I *3548:X O *D sky130_fd_sc_hd__a2bb2o_1
*CAP
1 *3631:D 0.000443337
2 *3548:X 0.000443337
3 *3631:D *2793:A1 7.79781e-06
4 *3631:D *2793:B1 0.000250201
5 *3631:D *2799:C1 0
6 *3631:D *967:116 0
7 *3631:D *967:131 0
8 *3631:D *1064:27 0
9 *3631:D *1064:42 0.000291284
10 *3553:A1 *3631:D 5.52302e-05
*RES
1 *3548:X *3631:D 35.6893 
*END

*D_NET *235 0.000671636
*CONN
*I *3632:D I *D sky130_fd_sc_hd__dfrtp_4
*I *3551:X O *D sky130_fd_sc_hd__a22o_1
*CAP
1 *3632:D 0.000164111
2 *3551:X 0.000164111
3 *3632:D *3551:A2 9.97562e-05
4 *3632:D *1004:10 3.8341e-05
5 *3632:D *1061:154 1.90936e-05
6 *3769:A *3632:D 6.86693e-05
7 *135:18 *3632:D 0.000117553
*RES
1 *3551:X *3632:D 31.5464 
*END

*D_NET *236 0.000505326
*CONN
*I *3633:D I *D sky130_fd_sc_hd__dfrtp_4
*I *3553:X O *D sky130_fd_sc_hd__a22o_1
*CAP
1 *3633:D 0.000182454
2 *3553:X 0.000182454
3 *3633:D *3553:B1 7.61932e-05
4 *3633:D *1064:83 6.42242e-05
*RES
1 *3553:X *3633:D 30.6 
*END

*D_NET *237 0.00173213
*CONN
*I *3634:D I *D sky130_fd_sc_hd__dfrtp_4
*I *3557:X O *D sky130_fd_sc_hd__a32o_1
*CAP
1 *3634:D 0.000749736
2 *3557:X 0.000749736
3 *3634:D *3634:RESET_B 8.92153e-05
4 *3634:D *1061:28 8.3725e-05
5 *137:6 *3634:D 4.72818e-05
6 *137:40 *3634:D 1.24368e-05
*RES
1 *3557:X *3634:D 27.7786 
*END

*D_NET *238 0.000550903
*CONN
*I *3635:D I *D sky130_fd_sc_hd__dfrtp_2
*I *3560:X O *D sky130_fd_sc_hd__a32o_1
*CAP
1 *3635:D 0.00021187
2 *3560:X 0.00021187
3 *3635:D *3635:CLK 0
4 *3635:D *3635:RESET_B 0.000127162
*RES
1 *3560:X *3635:D 31.0286 
*END

*D_NET *239 0.00114264
*CONN
*I *3636:D I *D sky130_fd_sc_hd__dfrtp_2
*I *3562:X O *D sky130_fd_sc_hd__a22o_1
*CAP
1 *3636:D 0.000458343
2 *3562:X 0.000458343
3 *3636:D *3562:A2 5.38444e-06
4 *3636:D *3636:CLK 5.33334e-05
5 *3636:D *3636:RESET_B 0.000167237
*RES
1 *3562:X *3636:D 27.3679 
*END

*D_NET *240 0.000395223
*CONN
*I *3637:D I *D sky130_fd_sc_hd__dfrtp_4
*I *3565:X O *D sky130_fd_sc_hd__a2bb2o_1
*CAP
1 *3637:D 0.000172947
2 *3565:X 0.000172947
3 *3637:D *3635:CLK 0
4 *3637:D *1081:123 4.93285e-05
*RES
1 *3565:X *3637:D 30.2964 
*END

*D_NET *241 0.000336
*CONN
*I *3638:D I *D sky130_fd_sc_hd__dfrtp_1
*I *3566:X O *D sky130_fd_sc_hd__o21ba_1
*CAP
1 *3638:D 2.67138e-05
2 *3566:X 2.67138e-05
3 *3638:D *3638:CLK 8.07313e-05
4 *3638:D *255:46 1.32552e-05
5 *3566:A1 *3638:D 0.000188586
*RES
1 *3566:X *3638:D 20.3679 
*END

*D_NET *242 0.000911235
*CONN
*I *2796:A I *D sky130_fd_sc_hd__and2_1
*I *2797:A I *D sky130_fd_sc_hd__nor2_1
*I *2773:Y O *D sky130_fd_sc_hd__inv_2
*CAP
1 *2796:A 0
2 *2797:A 0.000161648
3 *2773:Y 2.53597e-05
4 *242:6 0.000187008
5 *2797:A *2857:A1 0
6 *2797:A *3568:RESET_B 9.09345e-05
7 *2797:A *255:29 0.000186669
8 *242:6 *255:29 9.80173e-05
9 *2796:B *2797:A 9.90431e-05
10 *3768:A *2797:A 1.02504e-05
11 *169:20 *2797:A 3.48705e-05
12 *169:20 *242:6 1.74352e-05
*RES
1 *2773:Y *242:6 10.2464 
2 *242:6 *2797:A 22.6214 
3 *242:6 *2796:A 9.3 
*END

*D_NET *243 0.00584988
*CONN
*I *3409:A I *D sky130_fd_sc_hd__nor2_1
*I *3358:B I *D sky130_fd_sc_hd__and3_1
*I *3430:B2 I *D sky130_fd_sc_hd__a22oi_1
*I *3410:A1 I *D sky130_fd_sc_hd__a211o_1
*I *2775:Y O *D sky130_fd_sc_hd__inv_2
*CAP
1 *3409:A 0.00011889
2 *3358:B 0.000285211
3 *3430:B2 3.57222e-05
4 *3410:A1 0.000128391
5 *2775:Y 7.58667e-05
6 *243:31 0.00171619
7 *243:23 0.00158039
8 *243:10 0.000270492
9 *3358:B *3430:A1 0.000146533
10 *3358:B *3430:B1 6.89005e-05
11 *3358:B *3431:A1 3.61629e-06
12 *3409:A *3435:A1 3.82255e-05
13 *3409:A *3451:B2 9.25014e-06
14 *3409:A *1014:79 0.000171615
15 *3409:A *1062:37 0.000180764
16 *3409:A *1067:58 2.14658e-05
17 *3410:A1 *3410:B1 5.90995e-05
18 *3410:A1 *1059:26 6.81335e-05
19 *3430:B2 *3431:A1 9.10431e-06
20 *3430:B2 *3431:C1 7.88765e-05
21 *243:10 *2951:A 2.89114e-05
22 *243:10 *3435:A3 0.000154845
23 *243:23 *3434:B1 0
24 *243:23 *3435:A1 2.54135e-05
25 *243:23 *3435:A3 3.34366e-05
26 *243:31 *3431:C1 1.10632e-05
27 *243:31 *3438:B 0
28 *2775:A *3410:A1 0.000137983
29 *3614:D *243:10 0.000100831
30 *118:14 *3430:B2 0.000102184
31 *118:14 *243:31 1.90936e-05
32 *146:57 *3410:A1 0.00010946
33 *146:61 *243:23 0
34 *147:29 *3410:A1 5.74499e-06
35 *147:55 *3409:A 4.42999e-05
36 *147:55 *243:23 9.87983e-06
*RES
1 *2775:Y *243:10 15.9786 
2 *243:10 *3410:A1 17.2286 
3 *243:10 *243:23 1.49107 
4 *243:23 *243:31 9.59405 
5 *243:31 *3430:B2 15.1393 
6 *243:31 *3358:B 17.6214 
7 *243:23 *3409:A 17.3625 
*END

*D_NET *244 0.00186184
*CONN
*I *3337:A I *D sky130_fd_sc_hd__and3_1
*I *3330:A I *D sky130_fd_sc_hd__xnor2_2
*I *3338:A1 I *D sky130_fd_sc_hd__a21oi_1
*I *2776:Y O *D sky130_fd_sc_hd__inv_2
*CAP
1 *3337:A 0.000141139
2 *3330:A 0
3 *3338:A1 5.13369e-05
4 *2776:Y 3.47137e-05
5 *244:19 0.000231434
6 *244:6 0.000176346
7 *3337:A *3336:B 9.54798e-06
8 *3337:A *3339:A 0
9 *3337:A *3339:B 5.52238e-05
10 *3337:A *3340:A 5.52302e-05
11 *3337:A *3340:C 2.95641e-05
12 *3337:A *3366:B2 5.71472e-05
13 *3337:A *3749:A 9.90431e-05
14 *3337:A *756:16 2.44318e-05
15 *3337:A *766:6 9.71197e-05
16 *3337:A *766:16 6.19181e-05
17 *3338:A1 *826:32 0.000103267
18 *244:6 *826:32 9.90367e-05
19 *244:19 *3339:B 0.000232399
20 *244:19 *756:16 0.000202891
21 *244:19 *826:32 5.52302e-05
22 *3255:A *3338:A1 4.48206e-05
*RES
1 *2776:Y *244:6 10.2464 
2 *244:6 *3338:A1 19.9429 
3 *244:6 *244:19 3.82143 
4 *244:19 *3330:A 9.3 
5 *244:19 *3337:A 22.55 
*END

*D_NET *245 0.00629633
*CONN
*I *3214:A1 I *D sky130_fd_sc_hd__a21o_1
*I *3219:A I *D sky130_fd_sc_hd__xnor2_1
*I *2924:B1 I *D sky130_fd_sc_hd__o21ai_1
*I *3454:A I *D sky130_fd_sc_hd__nor2_1
*I *3455:A I *D sky130_fd_sc_hd__and2_1
*I *2777:Y O *D sky130_fd_sc_hd__inv_2
*CAP
1 *3214:A1 0.000282778
2 *3219:A 3.72704e-05
3 *2924:B1 9.97873e-05
4 *3454:A 0
5 *3455:A 0.000309251
6 *2777:Y 0.000137955
7 *245:49 0.000481518
8 *245:12 0.000394705
9 *245:10 0.000884672
10 *245:8 0.000998855
11 *2924:B1 *2924:A2 0.000225609
12 *3214:A1 *3214:A2 0.000132473
13 *3455:A *3455:B 9.41642e-05
14 *3455:A *3458:A2 4.5894e-05
15 *3455:A *3511:B1 2.07809e-05
16 *3455:A *3536:B1 0.000375617
17 *3455:A *3541:A2 0
18 *3455:A *758:16 5.33005e-05
19 *3455:A *975:62 2.11419e-05
20 *245:10 *3458:A2 0.00092295
21 *245:10 *3507:A2 0
22 *245:10 *3511:B1 0.000162247
23 *245:10 *997:63 0
24 *245:12 *3458:A2 0.000182286
25 *245:12 *3511:B1 9.34728e-05
26 *245:49 *3626:CLK 0
27 *2777:A *245:8 3.67142e-05
28 *2923:A1 *3455:A 1.94879e-05
29 *3332:B *3455:A 7.43578e-06
30 *3617:D *245:10 5.24274e-05
31 *118:85 *245:10 0
32 *118:85 *245:49 0
33 *119:22 *245:8 2.95726e-05
34 *119:33 *245:10 0.000154915
35 *119:33 *245:49 3.90513e-05
36 *119:61 *3214:A1 0
37 *119:61 *245:49 0
38 *121:25 *3214:A1 0
39 *127:28 *245:10 0
*RES
1 *2777:Y *245:8 15.5679 
2 *245:8 *245:10 16.2143 
3 *245:10 *245:12 2.55357 
4 *245:12 *3455:A 23.0471 
5 *245:12 *3454:A 13.8 
6 *245:10 *2924:B1 15.9786 
7 *245:8 *245:49 3.16071 
8 *245:49 *3219:A 14.3357 
9 *245:49 *3214:A1 18.7286 
*END

*D_NET *246 0.00676006
*CONN
*I *3422:A1 I *D sky130_fd_sc_hd__o22a_1
*I *2977:B I *D sky130_fd_sc_hd__and3_1
*I *2778:Y O *D sky130_fd_sc_hd__inv_2
*CAP
1 *3422:A1 0.00111684
2 *2977:B 0.00108345
3 *2778:Y 0
4 *246:4 0.0022003
5 *2977:B *2977:A 1.1979e-05
6 *3422:A1 *2929:A2 2.11419e-05
7 *3422:A1 *3420:C 3.37161e-05
8 *3422:A1 *3421:D_N 2.89016e-05
9 *3422:A1 *3422:A2 5.52302e-05
10 *3422:A1 *3422:B1 1.33343e-05
11 *3422:A1 *3422:B2 7.26753e-05
12 *3422:A1 *3506:A2 0.000277221
13 *3422:A1 *3515:C 0.000238006
14 *3422:A1 *3531:C 5.7903e-06
15 *3422:A1 *919:10 5.41794e-05
16 *3422:A1 *1062:119 5.55449e-05
17 *3422:A1 *1071:24 0.000141111
18 *3422:A1 *1075:30 3.10819e-05
19 *3422:A1 *1075:58 0.00010819
20 *3422:A1 *1075:62 0.000428448
21 *2778:A *2977:B 7.15962e-05
22 *2925:B1 *3422:A1 5.21291e-05
23 *3624:D *3422:A1 5.69374e-05
24 *122:108 *2977:B 0.000324364
25 *129:10 *3422:A1 9.87286e-05
26 *129:12 *3422:A1 0.000179162
*RES
1 *2778:Y *246:4 9.3 
2 *246:4 *2977:B 24.2107 
3 *246:4 *3422:A1 42.925 
*END

*D_NET *247 0.000531464
*CONN
*I *2980:A2 I *D sky130_fd_sc_hd__a21o_1
*I *2779:Y O *D sky130_fd_sc_hd__inv_2
*CAP
1 *2980:A2 0.000174813
2 *2779:Y 0.000174813
3 *2980:A2 *2978:B1 0.000128154
4 *2980:A2 *2979:B2 0
5 *2980:A2 *390:66 2.47724e-05
6 *2980:A2 *391:41 0
7 *2978:C1 *2980:A2 2.89114e-05
*RES
1 *2779:Y *2980:A2 30.6 
*END

*D_NET *248 0.000726213
*CONN
*I *2996:C1 I *D sky130_fd_sc_hd__a211oi_2
*I *2780:Y O *D sky130_fd_sc_hd__inv_2
*CAP
1 *2996:C1 0.000259189
2 *2780:Y 0.000259189
3 *2996:C1 *2997:B1 0.000103253
4 *2996:C1 *2998:B1 4.88104e-05
5 *2996:C1 *420:22 1.00375e-05
6 *2997:B2 *2996:C1 4.57352e-05
*RES
1 *2780:Y *2996:C1 31.8321 
*END

*D_NET *249 0.00027643
*CONN
*I *3007:A1 I *D sky130_fd_sc_hd__a21o_1
*I *2781:Y O *D sky130_fd_sc_hd__inv_2
*CAP
1 *3007:A1 2.92035e-05
2 *2781:Y 2.92035e-05
3 *3007:A1 *433:6 0.00014183
4 *2781:A *3007:A1 7.61932e-05
*RES
1 *2781:Y *3007:A1 19.9571 
*END

*D_NET *250 0.00152636
*CONN
*I *3563:B1 I *D sky130_fd_sc_hd__a31o_1
*I *2963:B I *D sky130_fd_sc_hd__or4_4
*I *2782:Y O *D sky130_fd_sc_hd__inv_2
*CAP
1 *3563:B1 0.000154252
2 *2963:B 0.00035804
3 *2782:Y 0
4 *250:4 0.000512292
5 *2963:B *2963:A 3.28018e-05
6 *2963:B *2963:C 3.28686e-05
7 *2963:B *365:6 0.000356022
8 *2997:B2 *2963:B 8.00806e-05
9 *141:49 *2963:B 0
*RES
1 *2782:Y *250:4 9.3 
2 *250:4 *2963:B 23.5679 
3 *250:4 *3563:B1 11.8 
*END

*D_NET *251 0.00197273
*CONN
*I *3007:B1 I *D sky130_fd_sc_hd__a21o_1
*I *3564:A2 I *D sky130_fd_sc_hd__o311a_1
*I *2783:Y O *D sky130_fd_sc_hd__inv_2
*CAP
1 *3007:B1 0.000240534
2 *3564:A2 0.000198403
3 *2783:Y 4.63894e-05
4 *251:8 0.000485326
5 *3007:B1 *3560:A3 4.39422e-05
6 *3007:B1 *1061:85 0
7 *3564:A2 *3558:B 2.04825e-05
8 *3564:A2 *3560:A3 2.93304e-05
9 *3564:A2 *3564:A3 4.42631e-05
10 *3564:A2 *3564:B1 3.72521e-05
11 *3564:A2 *963:19 3.71887e-05
12 *3564:A2 *1061:67 3.23989e-05
13 *2999:A *3007:B1 2.48938e-05
14 *3558:A *251:8 1.39841e-05
15 *138:8 *3007:B1 0.000143804
16 *138:12 *3007:B1 0.000126439
17 *138:12 *3564:A2 5.83233e-05
18 *138:23 *251:8 6.05161e-06
19 *138:36 *3564:A2 0
20 *138:63 *3007:B1 0.000244087
21 *140:30 *3564:A2 0.000139632
*RES
1 *2783:Y *251:8 14.3357 
2 *251:8 *3564:A2 18.4429 
3 *251:8 *3007:B1 20.6036 
*END

*D_NET *252 0.00145113
*CONN
*I *2795:A I *D sky130_fd_sc_hd__or3_1
*I *2789:A1 I *D sky130_fd_sc_hd__o21ai_1
*I *2801:A1 I *D sky130_fd_sc_hd__o31a_1
*I *2784:Y O *D sky130_fd_sc_hd__inv_2
*CAP
1 *2795:A 4.01403e-05
2 *2789:A1 0
3 *2801:A1 0.000122876
4 *2784:Y 5.394e-05
5 *252:12 0.000212552
6 *252:6 0.000183756
7 *2795:A *2795:C 5.52302e-05
8 *2795:A *3570:RESET_B 4.70078e-05
9 *2795:A *253:14 0.000171289
10 *2801:A1 *2793:A1 0.000120454
11 *2801:A1 *2802:C1 6.08625e-05
12 *252:6 *3570:RESET_B 5.41494e-05
13 *252:6 *253:14 5.33005e-05
14 *252:12 *253:14 0.000125724
15 *252:12 *1064:14 1.41706e-05
16 *252:12 *1064:27 5.53406e-05
17 *2786:B *252:12 2.00751e-05
18 *2789:A2 *2801:A1 4.70078e-05
19 *1:21 *2801:A1 1.32552e-05
*RES
1 *2784:Y *252:6 10.6571 
2 *252:6 *252:12 11.5536 
3 *252:12 *2801:A1 12.7286 
4 *252:12 *2789:A1 9.3 
5 *252:6 *2795:A 11.0679 
*END

*D_NET *253 0.00404171
*CONN
*I *2793:B1 I *D sky130_fd_sc_hd__a21oi_1
*I *2800:B2 I *D sky130_fd_sc_hd__a22o_1
*I *2801:A3 I *D sky130_fd_sc_hd__o31a_1
*I *2786:X O *D sky130_fd_sc_hd__and2b_1
*CAP
1 *2793:B1 0.000249744
2 *2800:B2 0.000259402
3 *2801:A3 1.42796e-05
4 *2786:X 0.000272985
5 *253:18 0.000355553
6 *253:14 0.000604601
7 *2793:B1 *2793:A1 0.00026889
8 *2793:B1 *2799:C1 5.30637e-06
9 *2793:B1 *261:10 0.000315887
10 *2793:B1 *261:16 4.73656e-05
11 *2800:B2 *2799:A1 2.06178e-05
12 *2800:B2 *2799:B1 1.07401e-05
13 *2800:B2 *2799:C1 0
14 *2800:B2 *2800:B1 5.71472e-05
15 *2800:B2 *2801:B1 0
16 *2800:B2 *2802:C1 0.000173328
17 *2800:B2 *257:22 5.71472e-05
18 *2800:B2 *261:16 0
19 *2800:B2 *264:10 0
20 *2801:A3 *2802:C1 5.52302e-05
21 *253:14 *2795:C 8.56654e-05
22 *253:14 *3570:RESET_B 8.25843e-06
23 *253:14 *262:10 9.41642e-05
24 *253:18 *261:16 0.000121573
25 *2786:B *253:14 5.80706e-06
26 *2795:A *253:14 0.000171289
27 *2795:B *253:14 5.52238e-05
28 *3567:D *2800:B2 6.42338e-05
29 *3631:D *2793:B1 0.000250201
30 *1:21 *2800:B2 0.000184745
31 *1:21 *2801:A3 5.33005e-05
32 *252:6 *253:14 5.33005e-05
33 *252:12 *253:14 0.000125724
*RES
1 *2786:X *253:14 28.675 
2 *253:14 *253:18 6.14286 
3 *253:18 *2801:A3 9.83571 
4 *253:18 *2800:B2 23.9964 
5 *253:14 *2793:B1 21.5679 
*END

*D_NET *254 0.010648
*CONN
*I *3689:A I *D sky130_fd_sc_hd__clkbuf_2
*I *3688:A I *D sky130_fd_sc_hd__buf_2
*I *3545:A2 I *D sky130_fd_sc_hd__a21bo_1
*I *3687:A I *D sky130_fd_sc_hd__buf_2
*I *2787:X O *D sky130_fd_sc_hd__and2_1
*CAP
1 *3689:A 0.000381927
2 *3688:A 0.000239495
3 *3545:A2 0.000244293
4 *3687:A 0.00047984
5 *2787:X 0
6 *254:62 0.00225285
7 *254:29 0.00255421
8 *254:4 0.00115833
9 *3545:A2 *3544:B 0
10 *3545:A2 *3551:B1 5.03772e-05
11 *3687:A *2798:A2_N 0
12 *3687:A *264:10 1.88048e-05
13 *3688:A *3423:D_N 7.48356e-05
14 *3688:A *3619:CLK 3.23542e-05
15 *3688:A *369:81 0.000184745
16 *3688:A *369:85 5.53406e-05
17 *3688:A *1060:55 0.000186669
18 *3688:A *1066:23 0
19 *3689:A *3423:D_N 0.00012278
20 *3689:A *3471:B1 6.09963e-05
21 *3689:A *3480:A2 0.000194283
22 *3689:A *3619:CLK 3.10885e-05
23 *3689:A *866:56 4.64488e-06
24 *3689:A *1066:23 0
25 *3689:A *1066:55 6.09919e-05
26 *254:29 *2793:A2 0
27 *254:29 *2798:A2_N 5.63101e-05
28 *254:29 *3568:RESET_B 0
29 *254:29 *255:14 6.2589e-06
30 *254:29 *255:29 1.69115e-05
31 *254:29 *984:10 0
32 *254:62 *3442:C 1.79251e-05
33 *254:62 *3621:CLK 0.000249834
34 *254:62 *3621:RESET_B 6.89314e-05
35 *254:62 *3686:A 4.58194e-05
36 *254:62 *369:66 0.000185799
37 *254:62 *866:20 3.15783e-05
38 *254:62 *866:56 3.98517e-05
39 *254:62 *967:8 0.000126629
40 *254:62 *1062:67 3.65069e-05
41 *254:62 *1063:8 9.41642e-05
42 *3619:D *3689:A 0.000101346
43 *3621:D *254:62 8.07313e-05
44 *3630:D *3545:A2 5.03772e-05
45 *3641:A *254:62 0.000122443
46 *3663:A *3545:A2 0.000125918
47 *3768:A *3545:A2 5.33786e-05
48 *122:18 *3689:A 0.000354111
49 *146:112 *254:62 0.000269109
50 *169:12 *254:62 4.05411e-05
51 *169:20 *254:29 3.84385e-05
52 *169:24 *254:29 4.62632e-05
*RES
1 *2787:X *254:4 9.3 
2 *254:4 *3687:A 24.4786 
3 *254:4 *254:29 20.5893 
4 *254:29 *3545:A2 23.6214 
5 *254:29 *254:62 35.2679 
6 *254:62 *3688:A 19.9429 
7 *254:62 *3689:A 23.7464 
*END

*D_NET *255 0.0136144
*CONN
*I *2945:A I *D sky130_fd_sc_hd__and3_1
*I *2937:B I *D sky130_fd_sc_hd__and3_1
*I *2938:A1 I *D sky130_fd_sc_hd__a21oi_1
*I *3424:A I *D sky130_fd_sc_hd__and2_1
*I *3442:A I *D sky130_fd_sc_hd__and3_1
*I *3566:A2 I *D sky130_fd_sc_hd__o21ba_1
*I *2798:A1_N I *D sky130_fd_sc_hd__a2bb2o_1
*I *2788:Y O *D sky130_fd_sc_hd__nand2_2
*CAP
1 *2945:A 0.00013148
2 *2937:B 0.000264604
3 *2938:A1 0.00027129
4 *3424:A 0
5 *3442:A 7.51448e-05
6 *3566:A2 4.99656e-05
7 *2798:A1_N 4.41051e-05
8 *2788:Y 0.000206802
9 *255:70 0.000643817
10 *255:68 0.00111386
11 *255:46 0.00218242
12 *255:29 0.00153109
13 *255:14 0.000499225
14 *2798:A1_N *263:6 0.000229456
15 *2798:A1_N *984:10 0.000100625
16 *2937:B *2945:B 1.93988e-05
17 *2937:B *1060:70 0.000154238
18 *2938:A1 *2938:A2 0
19 *2938:A1 *2938:B1 5.71472e-05
20 *2938:A1 *2939:B 0
21 *2938:A1 *2947:A_N 3.48705e-05
22 *2938:A1 *2947:B 0.00014285
23 *2938:A1 *3615:RESET_B 0.000100735
24 *2938:A1 *1084:41 0.000120645
25 *2945:A *967:73 0.000271352
26 *2945:A *967:84 0.000312209
27 *3442:A *3424:B 0.000219592
28 *3442:A *3621:RESET_B 6.8194e-05
29 *3442:A *1083:31 0.000158707
30 *255:29 *3568:RESET_B 1.69115e-05
31 *255:29 *263:6 2.24079e-05
32 *255:46 *3425:B 8.94484e-05
33 *255:46 *3638:CLK 0.000743695
34 *255:46 *3638:RESET_B 2.88018e-06
35 *255:46 *851:12 9.60875e-05
36 *255:68 *2939:B 0
37 *255:68 *3423:D_N 0.000269422
38 *255:68 *3424:B 5.33005e-05
39 *255:68 *3425:B 0.000134617
40 *255:68 *3444:A1 0
41 *255:68 *3615:RESET_B 0.000196516
42 *255:68 *379:22 0
43 *255:68 *851:12 0.000265453
44 *255:68 *1083:23 0
45 *255:70 *2939:B 0
46 *255:70 *3615:RESET_B 0.000104236
47 *2787:B *255:14 2.89016e-05
48 *2796:B *255:14 0.000155096
49 *2796:B *255:29 6.86713e-05
50 *2797:A *255:29 0.000186669
51 *3566:A1 *3566:A2 3.28977e-05
52 *3566:A1 *255:29 2.65105e-05
53 *3566:A1 *255:46 1.84754e-05
54 *3615:D *255:68 8.3223e-05
55 *3638:D *255:46 1.32552e-05
56 *1:21 *2798:A1_N 1.02821e-05
57 *1:21 *255:29 0.000791214
58 *146:27 *2945:A 0.000484524
59 *146:46 *2945:A 0.000173328
60 *168:37 *255:14 7.6644e-05
61 *168:48 *255:14 7.15449e-05
62 *169:20 *255:14 0.000125724
63 *169:24 *255:14 0.000147474
64 *242:6 *255:29 9.80173e-05
65 *254:29 *255:14 6.2589e-06
66 *254:29 *255:29 1.69115e-05
*RES
1 *2788:Y *255:14 19.0679 
2 *255:14 *2798:A1_N 15.9786 
3 *255:14 *255:29 13.5714 
4 *255:29 *3566:A2 10.5679 
5 *255:29 *255:46 18.25 
6 *255:46 *3442:A 21.1571 
7 *255:46 *3424:A 9.3 
8 *255:46 *255:68 22.4107 
9 *255:68 *255:70 2.55357 
10 *255:70 *2938:A1 20.8714 
11 *255:70 *2937:B 18.4607 
12 *255:68 *2945:A 20.0857 
*END

*D_NET *256 0.00262901
*CONN
*I *2793:A1 I *D sky130_fd_sc_hd__a21oi_1
*I *2789:Y O *D sky130_fd_sc_hd__o21ai_1
*CAP
1 *2793:A1 0.000583451
2 *2789:Y 0.000583451
3 *2793:A1 *2799:C1 2.65105e-05
4 *2793:A1 *2801:B1 1.88578e-05
5 *2793:A1 *2802:C1 2.0037e-05
6 *2793:A1 *261:10 0.000317409
7 *2793:A1 *261:16 0.00022803
8 *2793:A1 *1064:14 0
9 *2793:A1 *1064:27 0.000159453
10 *2793:B1 *2793:A1 0.00026889
11 *2801:A1 *2793:A1 0.000120454
12 *3631:D *2793:A1 7.79781e-06
13 *172:8 *2793:A1 0.000195562
14 *172:12 *2793:A1 9.91086e-05
*RES
1 *2789:Y *2793:A1 41.8143 
*END

*D_NET *257 0.00246485
*CONN
*I *2800:A2 I *D sky130_fd_sc_hd__a22o_1
*I *2792:C I *D sky130_fd_sc_hd__or3_1
*I *2798:A2_N I *D sky130_fd_sc_hd__a2bb2o_1
*I *2790:Y O *D sky130_fd_sc_hd__nand2b_1
*CAP
1 *2800:A2 0
2 *2792:C 0
3 *2798:A2_N 0.000121274
4 *2790:Y 0.00015101
5 *257:22 0.000420055
6 *257:14 0.00044979
7 *2798:A2_N *2793:A2 0
8 *257:14 *1064:14 5.33005e-05
9 *257:22 *2800:B1 0.000512196
10 *257:22 *264:10 0.000381024
11 *257:22 *1064:8 1.21289e-05
12 *257:22 *1064:14 2.28598e-05
13 *2790:B *257:14 1.92789e-05
14 *2792:A *257:22 5.71472e-05
15 *2800:B2 *257:22 5.71472e-05
16 *3567:D *257:14 0.000151333
17 *3687:A *2798:A2_N 0
18 *254:29 *2798:A2_N 5.63101e-05
*RES
1 *2790:Y *257:14 21.3179 
2 *257:14 *257:22 9.73214 
3 *257:22 *2798:A2_N 20.55 
4 *257:22 *2792:C 9.3 
5 *257:14 *2800:A2 9.3 
*END

*D_NET *258 0.00250169
*CONN
*I *2857:B1 I *D sky130_fd_sc_hd__a21oi_1
*I *2800:B1 I *D sky130_fd_sc_hd__a22o_1
*I *2791:Y O *D sky130_fd_sc_hd__nor2_1
*CAP
1 *2857:B1 0.000162352
2 *2800:B1 0.000407083
3 *2791:Y 0
4 *258:4 0.000569435
5 *2800:B1 *2793:A2 5.71472e-05
6 *2800:B1 *264:10 1.21258e-05
7 *2800:B1 *1064:8 0.00040279
8 *2857:B1 *264:10 8.43535e-06
9 *2857:B1 *264:61 0.000120587
10 *2792:A *2800:B1 0.000139087
11 *2797:B *2857:B1 5.33005e-05
12 *2800:B2 *2800:B1 5.71472e-05
13 *257:22 *2800:B1 0.000512196
*RES
1 *2791:Y *258:4 9.3 
2 *258:4 *2800:B1 20.1036 
3 *258:4 *2857:B1 12.3 
*END

*D_NET *259 0.00216744
*CONN
*I *2793:A2 I *D sky130_fd_sc_hd__a21oi_1
*I *2792:X O *D sky130_fd_sc_hd__or3_1
*CAP
1 *2793:A2 0.000775297
2 *2792:X 0.000775297
3 *2793:A2 *2799:C1 6.05161e-06
4 *2793:A2 *2935:B1 0
5 *2793:A2 *3568:CLK 0.000171375
6 *2793:A2 *3645:A 9.60939e-05
7 *2793:A2 *264:10 0
8 *2793:A2 *971:10 0.000138939
9 *2793:A2 *971:94 2.31791e-05
10 *2793:A2 *984:10 0
11 *2798:A2_N *2793:A2 0
12 *2800:B1 *2793:A2 5.71472e-05
13 *3568:D *2793:A2 7.8327e-05
14 *3691:A *2793:A2 4.57352e-05
15 *254:29 *2793:A2 0
*RES
1 *2792:X *2793:A2 41.725 
*END

*D_NET *260 0.00118358
*CONN
*I *2799:C1 I *D sky130_fd_sc_hd__a211o_1
*I *2793:Y O *D sky130_fd_sc_hd__a21oi_1
*CAP
1 *2799:C1 0.000433829
2 *2793:Y 0.000433829
3 *2799:C1 *2799:B1 9.54798e-06
4 *2799:C1 *2802:B2 2.86991e-05
5 *2799:C1 *2935:B1 0
6 *2799:C1 *3702:A 0
7 *2799:C1 *262:10 4.43046e-05
8 *2799:C1 *967:116 7.83587e-05
9 *2799:C1 *1069:12 0.000117144
10 *2793:A1 *2799:C1 2.65105e-05
11 *2793:A2 *2799:C1 6.05161e-06
12 *2793:B1 *2799:C1 5.30637e-06
13 *2800:B2 *2799:C1 0
14 *3631:D *2799:C1 0
*RES
1 *2793:Y *2799:C1 35.7607 
*END

*D_NET *261 0.00342847
*CONN
*I *2795:C I *D sky130_fd_sc_hd__or3_1
*I *2802:A1 I *D sky130_fd_sc_hd__a221o_1
*I *2799:A1 I *D sky130_fd_sc_hd__a211o_1
*I *2794:X O *D sky130_fd_sc_hd__and2b_1
*CAP
1 *2795:C 7.20461e-05
2 *2802:A1 0.000405797
3 *2799:A1 9.72553e-06
4 *2794:X 0.000180378
5 *261:16 0.000778176
6 *261:10 0.000615078
7 *2795:C *3570:RESET_B 0.000114577
8 *2799:A1 *2799:B1 9.60337e-06
9 *2802:A1 *2935:B1 9.54798e-06
10 *2802:A1 *264:10 2.06178e-05
11 *261:16 *2801:B1 2.11419e-05
12 *2793:A1 *261:10 0.000317409
13 *2793:A1 *261:16 0.00022803
14 *2793:B1 *261:10 0.000315887
15 *2793:B1 *261:16 4.73656e-05
16 *2795:A *2795:C 5.52302e-05
17 *2800:B2 *2799:A1 2.06178e-05
18 *2800:B2 *261:16 0
19 *253:14 *2795:C 8.56654e-05
20 *253:18 *261:16 0.000121573
*RES
1 *2794:X *261:10 18.8179 
2 *261:10 *261:16 6.89833 
3 *261:16 *2799:A1 17.4868 
4 *261:16 *2802:A1 18.1103 
5 *261:10 *2795:C 15.9786 
*END

*D_NET *262 0.0021479
*CONN
*I *2798:B1 I *D sky130_fd_sc_hd__a2bb2o_1
*I *2802:B2 I *D sky130_fd_sc_hd__a221o_1
*I *2795:X O *D sky130_fd_sc_hd__or3_1
*CAP
1 *2798:B1 0.000105616
2 *2802:B2 4.07889e-05
3 *2795:X 0.000451569
4 *262:10 0.000597974
5 *2798:B1 *2799:A2 3.12183e-05
6 *2798:B1 *2799:B1 2.74676e-05
7 *2798:B1 *2802:A2 0.000207549
8 *2798:B1 *2802:C1 0
9 *2802:B2 *2799:A2 1.38106e-05
10 *2802:B2 *2935:B1 2.42516e-05
11 *2802:B2 *264:10 3.47641e-06
12 *262:10 *2935:B1 4.78056e-05
13 *262:10 *3702:A 0.000118592
14 *2799:C1 *2802:B2 2.86991e-05
15 *2799:C1 *262:10 4.43046e-05
16 *1:21 *2798:B1 0.000310616
17 *253:14 *262:10 9.41642e-05
*RES
1 *2795:X *262:10 20.1929 
2 *262:10 *2802:B2 14.6616 
3 *262:10 *2798:B1 18.175 
*END

*D_NET *263 0.00176421
*CONN
*I *2802:A2 I *D sky130_fd_sc_hd__a221o_1
*I *2798:B2 I *D sky130_fd_sc_hd__a2bb2o_1
*I *2796:X O *D sky130_fd_sc_hd__and2_1
*CAP
1 *2802:A2 6.70507e-05
2 *2798:B2 0
3 *2796:X 0.000171168
4 *263:6 0.000238219
5 *2802:A2 *2799:B1 0.000129837
6 *263:6 *2799:B1 0.000271345
7 *263:6 *984:10 2.95726e-05
8 *2796:B *263:6 0.000137983
9 *2798:A1_N *263:6 0.000229456
10 *2798:B1 *2802:A2 0.000207549
11 *1:21 *2802:A2 1.74352e-05
12 *1:21 *263:6 2.24763e-05
13 *169:20 *263:6 0.000219711
14 *255:29 *263:6 2.24079e-05
*RES
1 *2796:X *263:6 15.175 
2 *263:6 *2798:B2 9.3 
3 *263:6 *2802:A2 12.1125 
*END

*D_NET *264 0.0103982
*CONN
*I *3413:A I *D sky130_fd_sc_hd__nand3_1
*I *3415:B I *D sky130_fd_sc_hd__or3_1
*I *2935:B1 I *D sky130_fd_sc_hd__a21o_1
*I *2802:B1 I *D sky130_fd_sc_hd__a221o_1
*I *2799:A2 I *D sky130_fd_sc_hd__a211o_1
*I *2797:Y O *D sky130_fd_sc_hd__nor2_1
*CAP
1 *3413:A 0.000229452
2 *3415:B 0
3 *2935:B1 0.000852657
4 *2802:B1 0
5 *2799:A2 0.000158227
6 *2797:Y 0
7 *264:61 0.00126371
8 *264:12 0.000158227
9 *264:10 0.00136491
10 *264:4 0.00154651
11 *2799:A2 *2799:B1 0.000228558
12 *2799:A2 *2802:C1 0.000125185
13 *2935:B1 *2935:A1 8.25512e-05
14 *2935:B1 *2935:A2 9.41642e-05
15 *2935:B1 *3548:A1_N 0.000150625
16 *2935:B1 *3548:A2_N 0
17 *2935:B1 *3548:B1 8.6432e-05
18 *2935:B1 *3551:B2 0.000145161
19 *2935:B1 *3702:A 0.000176234
20 *2935:B1 *954:23 0.000193833
21 *2935:B1 *971:94 0
22 *2935:B1 *985:20 0.000224665
23 *2935:B1 *1004:10 3.46786e-05
24 *2935:B1 *1069:12 0.000260672
25 *3413:A *3413:B 2.32625e-05
26 *3413:A *3416:A3 5.33005e-05
27 *3413:A *1073:50 4.6025e-06
28 *264:10 *2799:B1 0
29 *264:61 *2857:A1 4.58976e-05
30 *264:61 *2857:A2 5.71472e-05
31 *264:61 *3541:A2 6.2589e-06
32 *264:61 *3541:B1 6.19181e-05
33 *264:61 *3544:B 0
34 *264:61 *3566:B1_N 0.000195998
35 *264:61 *1063:40 0.00011207
36 *2792:A *264:10 0.000315158
37 *2792:A *264:61 3.99614e-06
38 *2792:B *264:10 0.000353073
39 *2793:A2 *2935:B1 0
40 *2793:A2 *264:10 0
41 *2797:B *264:10 1.98839e-05
42 *2797:B *264:61 1.24368e-05
43 *2798:B1 *2799:A2 3.12183e-05
44 *2799:C1 *2935:B1 0
45 *2800:B1 *264:10 1.21258e-05
46 *2800:B2 *264:10 0
47 *2802:A1 *2935:B1 9.54798e-06
48 *2802:A1 *264:10 2.06178e-05
49 *2802:B2 *2799:A2 1.38106e-05
50 *2802:B2 *2935:B1 2.42516e-05
51 *2802:B2 *264:10 3.47641e-06
52 *2856:A *264:61 5.52238e-05
53 *2857:B1 *264:10 8.43535e-06
54 *2857:B1 *264:61 0.000120587
55 *3005:B2 *2935:B1 1.02504e-05
56 *3412:D *3413:A 0
57 *3415:A *3413:A 3.30237e-05
58 *3567:D *264:10 0
59 *3568:D *2935:B1 9.15186e-06
60 *3582:D *264:61 0.000460715
61 *3629:D *264:61 6.42145e-05
62 *3630:D *264:61 0
63 *3687:A *264:10 1.88048e-05
64 *3691:A *2935:B1 6.97972e-05
65 *1:21 *2799:A2 9.22103e-06
66 *1:27 *264:61 3.92854e-05
67 *132:36 *264:61 7.13375e-05
68 *135:24 *2935:B1 3.90513e-05
69 *135:102 *2935:B1 0.000128154
70 *146:116 *3413:A 7.55759e-05
71 *146:116 *264:61 0
72 *169:12 *264:61 0
73 *257:22 *264:10 0.000381024
74 *262:10 *2935:B1 4.78056e-05
*RES
1 *2797:Y *264:4 9.3 
2 *264:4 *264:10 15.6964 
3 *264:10 *264:12 4.5 
4 *264:12 *2799:A2 13.5679 
5 *264:12 *2802:B1 9.3 
6 *264:10 *2935:B1 35.6214 
7 *264:4 *264:61 30.875 
8 *264:61 *3415:B 9.3 
9 *264:61 *3413:A 21.5143 
*END

*D_NET *265 0.00188145
*CONN
*I *2799:B1 I *D sky130_fd_sc_hd__a211o_1
*I *2798:X O *D sky130_fd_sc_hd__a2bb2o_1
*CAP
1 *2799:B1 0.000597174
2 *2798:X 0.000597174
3 *2798:B1 *2799:B1 2.74676e-05
4 *2799:A1 *2799:B1 9.60337e-06
5 *2799:A2 *2799:B1 0.000228558
6 *2799:C1 *2799:B1 9.54798e-06
7 *2800:B2 *2799:B1 1.07401e-05
8 *2802:A2 *2799:B1 0.000129837
9 *263:6 *2799:B1 0.000271345
10 *264:10 *2799:B1 0
*RES
1 *2798:X *2799:B1 36.2607 
*END

*D_NET *266 0.000230965
*CONN
*I *2801:B1 I *D sky130_fd_sc_hd__o31a_1
*I *2800:X O *D sky130_fd_sc_hd__a22o_1
*CAP
1 *2801:B1 7.46871e-05
2 *2800:X 7.46871e-05
3 *2801:B1 *1064:14 0
4 *2793:A1 *2801:B1 1.88578e-05
5 *2800:B2 *2801:B1 0
6 *3567:D *2801:B1 4.15914e-05
7 *261:16 *2801:B1 2.11419e-05
*RES
1 *2800:X *2801:B1 29.2429 
*END

*D_NET *267 0.00111044
*CONN
*I *2802:C1 I *D sky130_fd_sc_hd__a221o_1
*I *2801:X O *D sky130_fd_sc_hd__o31a_1
*CAP
1 *2802:C1 0.000201533
2 *2801:X 0.000201533
3 *2789:A2 *2802:C1 0.00010096
4 *2793:A1 *2802:C1 2.0037e-05
5 *2798:B1 *2802:C1 0
6 *2799:A2 *2802:C1 0.000125185
7 *2800:B2 *2802:C1 0.000173328
8 *2801:A1 *2802:C1 6.08625e-05
9 *2801:A2 *2802:C1 4.18895e-05
10 *2801:A3 *2802:C1 5.52302e-05
11 *1:21 *2802:C1 0.000129881
*RES
1 *2801:X *2802:C1 24.9036 
*END

*D_NET *268 0.00569715
*CONN
*I *2840:A1 I *D sky130_fd_sc_hd__o21ai_1
*I *2815:A I *D sky130_fd_sc_hd__or3b_1
*I *2814:A I *D sky130_fd_sc_hd__or2_1
*I *2805:A3 I *D sky130_fd_sc_hd__o311a_1
*I *2803:Y O *D sky130_fd_sc_hd__nand2b_1
*CAP
1 *2840:A1 0.00063482
2 *2815:A 0
3 *2814:A 0.000125485
4 *2805:A3 6.79396e-05
5 *2803:Y 2.87022e-05
6 *268:21 0.000194831
7 *268:12 0.000510785
8 *268:6 0.00103702
9 *2805:A3 *2805:A2 0.000227532
10 *2805:A3 *2812:A_N 5.30637e-06
11 *2814:A *2831:A2 5.71472e-05
12 *2814:A *1078:31 7.2754e-05
13 *2814:A *1078:72 2.94103e-05
14 *2814:A *1079:59 5.52302e-05
15 *2840:A1 *2803:B 1.38106e-05
16 *2840:A1 *2824:B1 6.09925e-05
17 *2840:A1 *2834:A2 3.93247e-05
18 *2840:A1 *3756:A 0.000102425
19 *2840:A1 *3757:A 5.71472e-05
20 *2840:A1 *294:10 3.97657e-05
21 *2840:A1 *1077:43 9.90367e-05
22 *2840:A1 *1077:49 0.000186669
23 *268:12 *2803:B 8.56716e-05
24 *268:12 *2805:B1 0
25 *268:12 *2828:B 8.07879e-05
26 *268:12 *1079:12 2.24646e-05
27 *268:12 *1079:14 0.000162832
28 *268:12 *1079:16 0.000141375
29 *268:21 *2805:A1 4.43256e-05
30 *268:21 *2805:A2 4.08637e-05
31 *268:21 *2815:C_N 5.52302e-05
32 *268:21 *1078:16 5.03772e-05
33 gpio_oeb[5] *2840:A1 6.2638e-05
34 gpio_oeb[5] *268:6 2.89016e-05
35 gpio_oeb[5] *268:12 0
36 gpio_out[10] *2840:A1 5.52238e-05
37 gpio_out[11] *2840:A1 0.000405727
38 gpio_out[12] *2840:A1 0.000186662
39 *2803:A_N *2840:A1 0.000188586
40 *2804:B *2814:A 2.61337e-05
41 *2824:A1 *2840:A1 0.000144773
42 *2831:C1 *2814:A 4.75521e-05
43 *2834:C1 *2840:A1 8.18783e-05
44 *151:76 *2805:A3 5.33334e-05
45 *151:76 *268:21 8.56752e-05
*RES
1 *2803:Y *268:6 9.83571 
2 *268:6 *268:12 16.7143 
3 *268:12 *2805:A3 11.4786 
4 *268:12 *268:21 2.17857 
5 *268:21 *2814:A 21.3893 
6 *268:21 *2815:A 9.3 
7 *268:6 *2840:A1 26.5679 
*END

*D_NET *269 0.00027546
*CONN
*I *2805:B1 I *D sky130_fd_sc_hd__o311a_1
*I *2804:X O *D sky130_fd_sc_hd__or4b_1
*CAP
1 *2805:B1 0.000134826
2 *2804:X 0.000134826
3 *2805:B1 *3604:CLK 0
4 *2805:B1 *1079:12 0
5 *151:65 *2805:B1 5.80706e-06
6 *268:12 *2805:B1 0
*RES
1 *2804:X *2805:B1 29.5464 
*END

*D_NET *270 0.000477832
*CONN
*I *2812:A_N I *D sky130_fd_sc_hd__and2b_1
*I *2805:X O *D sky130_fd_sc_hd__o311a_1
*CAP
1 *2812:A_N 0.000209182
2 *2805:X 0.000209182
3 *2812:A_N *2805:A1 5.19842e-06
4 *2812:A_N *2805:A2 1.32552e-05
5 *2812:A_N *3604:CLK 0
6 *2805:A3 *2812:A_N 5.30637e-06
7 *151:65 *2812:A_N 3.5707e-05
*RES
1 *2805:X *2812:A_N 30.7071 
*END

*D_NET *271 0.00143708
*CONN
*I *2821:A I *D sky130_fd_sc_hd__nand2_1
*I *2830:A1 I *D sky130_fd_sc_hd__a21oi_1
*I *2811:A1 I *D sky130_fd_sc_hd__a221o_1
*I *2806:Y O *D sky130_fd_sc_hd__nor2_1
*CAP
1 *2821:A 1.91209e-05
2 *2830:A1 0
3 *2811:A1 0.00021225
4 *2806:Y 8.35672e-05
5 *271:16 0.00033444
6 *271:12 0.000224878
7 *2811:A1 *2830:A2 0.000254784
8 *2811:A1 *2832:A2 5.24274e-05
9 *2821:A *2830:A2 0
10 *271:12 *2839:B1 3.57163e-05
11 *271:12 *1078:101 0.000101545
12 *271:16 *2830:A2 6.75704e-05
13 *271:16 *2832:A1 2.32517e-05
14 *151:115 *2811:A1 6.05161e-06
15 *151:130 *2811:A1 2.14757e-05
*RES
1 *2806:Y *271:12 20.175 
2 *271:12 *271:16 2.19643 
3 *271:16 *2811:A1 21.8179 
4 *271:16 *2830:A1 9.3 
5 *271:12 *2821:A 9.72857 
*END

*D_NET *272 0.00595758
*CONN
*I *2852:A1 I *D sky130_fd_sc_hd__o32a_1
*I *2827:A1 I *D sky130_fd_sc_hd__o211a_1
*I *2841:A2_N I *D sky130_fd_sc_hd__a2bb2o_1
*I *2807:X O *D sky130_fd_sc_hd__or2_1
*CAP
1 *2852:A1 0.00011096
2 *2827:A1 0.000321386
3 *2841:A2_N 0.000182999
4 *2807:X 7.70325e-05
5 *272:33 0.00138401
6 *272:6 0.00121169
7 *2827:A1 *1125:DIODE 1.90936e-05
8 *2827:A1 *2827:A2 1.02504e-05
9 *2827:A1 *2832:A2 0
10 *2827:A1 *2852:A2 0.000278987
11 *2827:A1 *3582:CLK 0
12 *2827:A1 *3701:A 8.84829e-05
13 *2827:A1 *288:10 0
14 *2852:A1 *2852:A2 4.66203e-05
15 *2852:A1 *2852:A3 5.52238e-05
16 *2852:A1 *308:40 7.90803e-05
17 *2852:A1 *1080:23 0
18 *272:33 *2839:B1 0.000126629
19 *272:33 *2864:A2 0
20 *272:33 *3582:CLK 0.000245832
21 *272:33 *296:8 4.58194e-05
22 *272:33 *1086:164 7.6644e-05
23 *2817:A_N *2827:A1 6.48863e-05
24 *2817:B *2827:A1 0
25 *2819:B1 *2827:A1 0
26 *2838:A1 *272:33 3.48705e-05
27 *2841:A1_N *2841:A2_N 0.000144903
28 *2852:B2 *2852:A1 0
29 *3700:A *2852:A1 0
30 *109:18 *272:33 3.34295e-05
31 *109:28 *272:33 5.59013e-05
32 *110:71 *2841:A2_N 0.000349144
33 *111:16 *2841:A2_N 0.000126439
34 *111:18 *2841:A2_N 0.000372707
35 *111:88 *272:33 2.08721e-05
36 *112:28 *272:6 9.41642e-05
37 *112:28 *272:33 0.000286254
38 *113:29 *272:33 1.32724e-05
*RES
1 *2807:X *272:6 10.2464 
2 *272:6 *2841:A2_N 24.8 
3 *272:6 *272:33 27.9643 
4 *272:33 *2827:A1 21.8179 
5 *272:33 *2852:A1 16.2821 
*END

*D_NET *273 0.00520459
*CONN
*I *2859:A1 I *D sky130_fd_sc_hd__a21o_1
*I *2819:A1 I *D sky130_fd_sc_hd__a21oi_1
*I *2811:A2 I *D sky130_fd_sc_hd__a221o_1
*I *2827:A2 I *D sky130_fd_sc_hd__o211a_1
*I *2865:B I *D sky130_fd_sc_hd__and3b_1
*I *2808:X O *D sky130_fd_sc_hd__and2b_1
*CAP
1 *2859:A1 0.000164875
2 *2819:A1 0
3 *2811:A2 0
4 *2827:A2 0.000213947
5 *2865:B 0.000220119
6 *2808:X 4.79142e-05
7 *273:37 0.000353839
8 *273:25 0.000315483
9 *273:23 0.00078882
10 *273:8 0.000716388
11 *2827:A2 *2820:A1 0.000108948
12 *2827:A2 *2829:B1 7.2754e-05
13 *2827:A2 *2852:A2 8.41284e-06
14 *2827:A2 *1078:101 0.000114633
15 *2859:A1 *2826:A3 7.17836e-05
16 *2859:A1 *2826:B1 0.000120267
17 *2865:B *275:10 1.85502e-05
18 *2865:B *296:16 5.66157e-05
19 *273:8 *296:16 6.63267e-05
20 *273:8 *1086:164 2.06178e-05
21 *273:23 *2841:B1 1.02936e-05
22 *273:23 *2866:C 2.59355e-05
23 *273:23 *275:24 0.00039553
24 *273:25 *2819:A2 2.59355e-05
25 *273:25 *2820:A1 5.74499e-06
26 *273:25 *275:24 9.80173e-05
27 *273:25 *275:26 2.14757e-05
28 *273:37 *2820:A1 0.000134089
29 *273:37 *2827:C1 8.50152e-05
30 *273:37 *2830:A2 4.46186e-06
31 *273:37 *2832:A2 0.000240349
32 *273:37 *274:10 3.81472e-05
33 *273:37 *275:24 3.99614e-06
34 *273:37 *1078:101 1.32782e-06
35 *2817:B *2859:A1 0
36 *2819:B1 *2827:A2 2.05915e-05
37 *2827:A1 *2827:A2 1.02504e-05
38 *2841:A1_N *2865:B 4.32182e-06
39 *2866:B *2865:B 7.83587e-05
40 *3699:A *2827:A2 8.19102e-05
41 *112:64 *2865:B 0
42 *112:64 *273:8 0
43 *112:70 *2865:B 1.763e-05
44 *112:72 *2865:B 3.55443e-05
45 *113:29 *2859:A1 0.000327322
46 *114:25 *2827:A2 7.69776e-06
47 *114:29 *2865:B 5.03472e-05
*RES
1 *2808:X *273:8 14.8357 
2 *273:8 *2865:B 17.7107 
3 *273:8 *273:23 10.375 
4 *273:23 *273:25 2.17857 
5 *273:25 *273:37 13.2723 
6 *273:37 *2827:A2 23.3134 
7 *273:37 *2811:A2 9.3 
8 *273:25 *2819:A1 9.3 
9 *273:23 *2859:A1 22.675 
*END

*D_NET *274 0.00234789
*CONN
*I *2811:B1 I *D sky130_fd_sc_hd__a221o_1
*I *2830:A2 I *D sky130_fd_sc_hd__a21oi_1
*I *2809:Y O *D sky130_fd_sc_hd__nor2_1
*CAP
1 *2811:B1 0
2 *2830:A2 0.00013754
3 *2809:Y 0.000348848
4 *274:10 0.000486387
5 *2830:A2 *2832:A1 3.67257e-05
6 *2830:A2 *2832:A2 1.50087e-05
7 *274:10 *2811:B2 0.00019712
8 *274:10 *2820:A1 0.000125371
9 *274:10 *2826:B1 3.36554e-05
10 *274:10 *2827:C1 6.54117e-05
11 *274:10 *288:10 1.33116e-05
12 *2811:A1 *2830:A2 0.000254784
13 *2811:C1 *2830:A2 0.000123295
14 *2821:A *2830:A2 0
15 *2823:A *2830:A2 1.41029e-05
16 *2823:A *274:10 1.41029e-05
17 *2830:B1 *2830:A2 5.33005e-05
18 *110:33 *274:10 0.000263524
19 *151:130 *2830:A2 5.52238e-05
20 *271:16 *2830:A2 6.75704e-05
21 *273:37 *2830:A2 4.46186e-06
22 *273:37 *274:10 3.81472e-05
*RES
1 *2809:Y *274:10 20.7643 
2 *274:10 *2830:A2 18.4786 
3 *274:10 *2811:B1 13.8 
*END

*D_NET *275 0.00260139
*CONN
*I *2841:B1 I *D sky130_fd_sc_hd__a2bb2o_1
*I *2818:A I *D sky130_fd_sc_hd__nand2_1
*I *2811:B2 I *D sky130_fd_sc_hd__a221o_1
*I *2819:A2 I *D sky130_fd_sc_hd__a21oi_1
*I *2810:X O *D sky130_fd_sc_hd__and2b_1
*CAP
1 *2841:B1 2.32859e-05
2 *2818:A 0
3 *2811:B2 0.000133424
4 *2819:A2 2.3932e-05
5 *2810:X 7.19197e-05
6 *275:26 0.000170707
7 *275:24 0.000231099
8 *275:10 0.000312953
9 *2811:B2 *2821:B 0
10 *2811:B2 *2826:B1 2.47697e-05
11 *2819:A2 *2820:A1 2.59355e-05
12 *2841:B1 *2866:C 5.52238e-05
13 *275:10 *2842:B1 3.92757e-05
14 *275:24 *2818:B 9.60875e-05
15 *275:24 *2820:A1 1.39726e-05
16 *275:26 *2820:A1 2.28598e-05
17 *2811:C1 *2811:B2 3.60427e-05
18 *2823:A *2811:B2 0.000128161
19 *2823:A *275:24 9.22103e-06
20 *2841:A1_N *275:10 8.6229e-06
21 *2841:A1_N *275:24 5.67624e-05
22 *2865:B *275:10 1.85502e-05
23 *2866:B *275:10 8.00806e-05
24 *2873:B *2841:B1 9.71197e-05
25 *2873:B *275:24 0.000161037
26 *111:18 *275:10 7.98428e-06
27 *273:23 *2841:B1 1.02936e-05
28 *273:23 *275:24 0.00039553
29 *273:25 *2819:A2 2.59355e-05
30 *273:25 *275:24 9.80173e-05
31 *273:25 *275:26 2.14757e-05
32 *273:37 *275:24 3.99614e-06
33 *274:10 *2811:B2 0.00019712
*RES
1 *2810:X *275:10 19.9429 
2 *275:10 *275:24 8.14286 
3 *275:24 *275:26 0.535714 
4 *275:26 *2819:A2 9.83571 
5 *275:26 *2811:B2 21.8134 
6 *275:24 *2818:A 9.3 
7 *275:10 *2841:B1 10.2464 
*END

*D_NET *276 0.00168307
*CONN
*I *2812:B I *D sky130_fd_sc_hd__and2b_1
*I *2811:X O *D sky130_fd_sc_hd__a221o_1
*CAP
1 *2812:B 0.000632778
2 *2811:X 0.000632778
3 *2812:B *2820:A1 0.000391
4 *2812:B *2820:B1 2.65105e-05
*RES
1 *2811:X *2812:B 26.5464 
*END

*D_NET *277 0.00132271
*CONN
*I *2831:A2 I *D sky130_fd_sc_hd__o211a_1
*I *2814:B I *D sky130_fd_sc_hd__or2_1
*I *2813:Y O *D sky130_fd_sc_hd__nand2b_1
*CAP
1 *2831:A2 0.000251037
2 *2814:B 0
3 *2813:Y 0.000130556
4 *277:16 0.000381593
5 *2831:A2 *2829:A1 7.50601e-05
6 *2831:A2 *2832:B1 0
7 *2831:A2 *1078:48 5.33005e-05
8 *2831:A2 *1079:59 0.000127035
9 *277:16 *2804:C 4.31104e-05
10 *277:16 *1077:72 7.43578e-06
11 *277:16 *1077:76 2.89114e-05
12 *277:16 *1078:31 3.34366e-05
13 *277:16 *1078:48 7.13298e-05
14 *2804:B *277:16 6.8646e-06
15 *2814:A *2831:A2 5.71472e-05
16 *108:39 *277:16 0
17 *116:63 *2831:A2 5.58941e-05
*RES
1 *2813:Y *277:16 20.8357 
2 *277:16 *2814:B 9.3 
3 *277:16 *2831:A2 23.2464 
*END

*D_NET *278 0.00270631
*CONN
*I *2852:A2 I *D sky130_fd_sc_hd__o32a_1
*I *2816:B I *D sky130_fd_sc_hd__and3_1
*I *2814:X O *D sky130_fd_sc_hd__or2_1
*CAP
1 *2852:A2 0.000599745
2 *2816:B 0
3 *2814:X 0.000161791
4 *278:10 0.000761536
5 *2852:A2 *1125:DIODE 1.12323e-05
6 *2852:A2 *2820:A2 9.99989e-05
7 *2852:A2 *2820:B1 9.65171e-05
8 *2852:A2 *2829:B1 0
9 *2852:A2 *3701:A 9.03127e-05
10 *2852:A2 *3755:A 0
11 *2852:A2 *1078:14 0.000173097
12 *2852:A2 *1078:72 0
13 *2852:A2 *1080:16 0
14 *278:10 *2820:B1 5.80706e-06
15 *278:10 *2829:A1 3.92854e-05
16 *278:10 *2829:B1 0
17 *278:10 *1079:59 7.32272e-05
18 *2827:A1 *2852:A2 0.000278987
19 *2827:A2 *2852:A2 8.41284e-06
20 *2852:A1 *2852:A2 4.66203e-05
21 *3699:A *2852:A2 0.000168939
22 *3700:A *2852:A2 7.95674e-05
23 *114:25 *2852:A2 1.12323e-05
*RES
1 *2814:X *278:10 16.1929 
2 *278:10 *2816:B 13.8 
3 *278:10 *2852:A2 28.8 
*END

*D_NET *279 0.00026593
*CONN
*I *2816:C I *D sky130_fd_sc_hd__and3_1
*I *2815:X O *D sky130_fd_sc_hd__or3b_1
*CAP
1 *2816:C 9.70028e-05
2 *2815:X 9.70028e-05
3 *151:76 *2816:C 1.33343e-05
4 *151:89 *2816:C 5.85901e-05
*RES
1 *2815:X *2816:C 19.8411 
*END

*D_NET *280 0.00243578
*CONN
*I *2820:B1 I *D sky130_fd_sc_hd__a21oi_1
*I *2829:A1 I *D sky130_fd_sc_hd__a31o_1
*I *2816:X O *D sky130_fd_sc_hd__and3_1
*CAP
1 *2820:B1 0.00020654
2 *2829:A1 0.000280261
3 *2816:X 0
4 *280:6 0.000486801
5 *2820:B1 *2820:A1 2.27416e-05
6 *2820:B1 *1078:72 0
7 *2829:A1 *2829:A2 0.000176546
8 *2829:A1 *2829:A3 0.000129515
9 *2829:A1 *2829:B1 0.000150611
10 *2829:A1 *290:8 5.52302e-05
11 *2829:A1 *1077:72 8.43535e-06
12 *2803:A_N *2829:A1 2.49484e-05
13 *2812:B *2820:B1 2.65105e-05
14 *2831:A2 *2829:A1 7.50601e-05
15 *2831:C1 *2820:B1 7.05447e-05
16 *2831:C1 *2829:A1 0.000312036
17 *2852:A2 *2820:B1 9.65171e-05
18 *108:43 *2829:A1 0.00026839
19 *278:10 *2820:B1 5.80706e-06
20 *278:10 *2829:A1 3.92854e-05
*RES
1 *2816:X *280:6 13.8 
2 *280:6 *2829:A1 32.0143 
3 *280:6 *2820:B1 18.1393 
*END

*D_NET *281 0.00246137
*CONN
*I *2859:B1 I *D sky130_fd_sc_hd__a21o_1
*I *2818:B I *D sky130_fd_sc_hd__nand2_1
*I *2821:B I *D sky130_fd_sc_hd__nand2_1
*I *2817:X O *D sky130_fd_sc_hd__and2b_1
*CAP
1 *2859:B1 4.65315e-05
2 *2818:B 2.85041e-05
3 *2821:B 0.000305655
4 *2817:X 0.000192974
5 *281:10 0.000548228
6 *281:8 0.000453574
7 *2821:B *2839:B1 0
8 *2821:B *1078:101 6.42242e-05
9 *2859:B1 *2839:B1 0
10 *281:8 *320:16 0.000265447
11 *281:10 *2839:B1 0
12 *2811:B2 *2821:B 0
13 *2823:A *2818:B 1.74352e-05
14 *2823:A *2821:B 0
15 *2825:B *2859:B1 0
16 *2873:B *2818:B 2.59355e-05
17 *113:29 *2821:B 5.37709e-05
18 *113:29 *2859:B1 6.91157e-05
19 *113:29 *281:10 0.000293885
20 *275:24 *2818:B 9.60875e-05
*RES
1 *2817:X *281:8 16.3893 
2 *281:8 *281:10 4.07143 
3 *281:10 *2821:B 18.7821 
4 *281:10 *2818:B 14.7464 
5 *281:8 *2859:B1 14.8357 
*END

*D_NET *282 0.0022302
*CONN
*I *2826:B1 I *D sky130_fd_sc_hd__o31a_1
*I *2820:A1 I *D sky130_fd_sc_hd__a21oi_1
*I *2818:Y O *D sky130_fd_sc_hd__nand2_1
*CAP
1 *2826:B1 0.000131439
2 *2820:A1 0.000387377
3 *2818:Y 0
4 *282:4 0.000518816
5 *2820:A1 *2827:C1 6.05161e-06
6 *2820:A1 *1078:101 3.07455e-05
7 *2811:B2 *2826:B1 2.47697e-05
8 *2812:B *2820:A1 0.000391
9 *2819:A2 *2820:A1 2.59355e-05
10 *2820:B1 *2820:A1 2.27416e-05
11 *2823:A *2820:A1 5.52302e-05
12 *2827:A2 *2820:A1 0.000108948
13 *2859:A1 *2826:B1 0.000120267
14 *3699:A *2820:A1 2.59355e-05
15 *113:29 *2826:B1 4.52467e-05
16 *273:25 *2820:A1 5.74499e-06
17 *273:37 *2820:A1 0.000134089
18 *274:10 *2820:A1 0.000125371
19 *274:10 *2826:B1 3.36554e-05
20 *275:24 *2820:A1 1.39726e-05
21 *275:26 *2820:A1 2.28598e-05
*RES
1 *2818:Y *282:4 9.3 
2 *282:4 *2820:A1 27.4964 
3 *282:4 *2826:B1 21.1571 
*END

*D_NET *283 0.00118425
*CONN
*I *2827:B1 I *D sky130_fd_sc_hd__o211a_1
*I *2820:A2 I *D sky130_fd_sc_hd__a21oi_1
*I *2819:Y O *D sky130_fd_sc_hd__a21oi_1
*CAP
1 *2827:B1 2.06692e-05
2 *2820:A2 0.000222486
3 *2819:Y 8.79714e-05
4 *283:8 0.000331127
5 *2820:A2 *2829:B1 6.71854e-05
6 *2820:A2 *3701:A 7.02611e-05
7 *2820:A2 *3755:A 5.16852e-05
8 *2820:A2 *1078:72 0
9 *283:8 *2827:C1 4.79704e-05
10 *283:8 *2829:B1 2.14658e-05
11 *2819:B1 *283:8 2.54435e-05
12 *2852:A2 *2820:A2 9.99989e-05
13 *114:8 *2820:A2 0.000137983
*RES
1 *2819:Y *283:8 11.0857 
2 *283:8 *2820:A2 23.4429 
3 *283:8 *2827:B1 9.72857 
*END

*D_NET *284 0.00194327
*CONN
*I *2824:A2 I *D sky130_fd_sc_hd__o21ai_1
*I *2832:A1 I *D sky130_fd_sc_hd__a31o_1
*I *2821:Y O *D sky130_fd_sc_hd__nand2_1
*CAP
1 *2824:A2 0.000375231
2 *2832:A1 0.000260527
3 *2821:Y 0
4 *284:4 0.000635758
5 *2824:A2 *2824:B1 2.44318e-05
6 *2824:A2 *1077:72 0
7 *2824:A2 *1078:101 0.000312736
8 *2823:A *2824:A2 0
9 *2823:A *2832:A1 7.2754e-05
10 *2830:A2 *2832:A1 3.67257e-05
11 *2834:C1 *2824:A2 0.000176323
12 *116:29 *2824:A2 1.97488e-05
13 *116:44 *2824:A2 5.7836e-06
14 *271:16 *2832:A1 2.32517e-05
*RES
1 *2821:Y *284:4 9.3 
2 *284:4 *2832:A1 22.55 
3 *284:4 *2824:A2 25.9607 
*END

*D_NET *285 0.00140619
*CONN
*I *2823:C I *D sky130_fd_sc_hd__or3_1
*I *2829:A2 I *D sky130_fd_sc_hd__a31o_1
*I *2822:X O *D sky130_fd_sc_hd__or3b_1
*CAP
1 *2823:C 0
2 *2829:A2 0.000116171
3 *2822:X 0.000115358
4 *285:8 0.000231529
5 *2829:A2 *2829:A3 0.000173076
6 *2829:A2 *2829:B1 2.32591e-05
7 *2829:A2 *1077:72 0.00011998
8 *285:8 *1077:72 4.27338e-05
9 *285:8 *1078:107 0
10 *2823:A *285:8 0.000178847
11 *2829:A1 *2829:A2 0.000176546
12 *108:43 *2829:A2 2.77258e-05
13 *108:60 *2829:A2 5.30637e-06
14 *108:60 *285:8 0.000191059
15 *116:63 *2829:A2 4.6025e-06
*RES
1 *2822:X *285:8 12.6214 
2 *285:8 *2829:A2 22.2107 
3 *285:8 *2823:C 9.3 
*END

*D_NET *286 0.000644761
*CONN
*I *2824:B1 I *D sky130_fd_sc_hd__o21ai_1
*I *2823:X O *D sky130_fd_sc_hd__or3_1
*CAP
1 *2824:B1 0.000129013
2 *2823:X 0.000129013
3 *2824:B1 *3756:A 1.33343e-05
4 *2824:A1 *2824:B1 0.000230828
5 *2824:A2 *2824:B1 2.44318e-05
6 *2834:C1 *2824:B1 5.71472e-05
7 *2840:A1 *2824:B1 6.09925e-05
*RES
1 *2823:X *2824:B1 31.4214 
*END

*D_NET *287 0.000907862
*CONN
*I *2859:A2 I *D sky130_fd_sc_hd__a21o_1
*I *2826:A3 I *D sky130_fd_sc_hd__o31a_1
*I *2825:Y O *D sky130_fd_sc_hd__nand2b_1
*CAP
1 *2859:A2 1.63023e-05
2 *2826:A3 0.000105396
3 *2825:Y 0.000112452
4 *287:6 0.00023415
5 *2826:A3 *320:16 5.52302e-05
6 *2859:A2 *320:16 1.3701e-05
7 *287:6 *320:16 0.000254036
8 *2817:A_N *2826:A3 0
9 *2817:B *2826:A3 4.48113e-05
10 *2859:A1 *2826:A3 7.17836e-05
*RES
1 *2825:Y *287:6 11.8893 
2 *287:6 *2826:A3 20.7821 
3 *287:6 *2859:A2 9.72857 
*END

*D_NET *288 0.00263477
*CONN
*I *2827:C1 I *D sky130_fd_sc_hd__o211a_1
*I *2832:A2 I *D sky130_fd_sc_hd__a31o_1
*I *2826:X O *D sky130_fd_sc_hd__o31a_1
*CAP
1 *2827:C1 0.000155394
2 *2832:A2 0.000299255
3 *2826:X 9.54618e-05
4 *288:10 0.00055011
5 *2832:A2 *2829:B1 0.000116183
6 *2832:A2 *2832:B1 0.00018372
7 *2832:A2 *2839:B2 5.52238e-05
8 *2832:A2 *1079:59 6.58013e-05
9 *2811:A1 *2832:A2 5.24274e-05
10 *2811:C1 *2832:A2 0
11 *2817:A_N *288:10 1.92905e-05
12 *2819:B1 *2827:C1 4.79704e-05
13 *2819:B1 *2832:A2 0.000402467
14 *2820:A1 *2827:C1 6.05161e-06
15 *2824:A1 *2832:A2 0.000118349
16 *2827:A1 *2832:A2 0
17 *2827:A1 *288:10 0
18 *2830:A2 *2832:A2 1.50087e-05
19 *273:37 *2827:C1 8.50152e-05
20 *273:37 *2832:A2 0.000240349
21 *274:10 *2827:C1 6.54117e-05
22 *274:10 *288:10 1.33116e-05
23 *283:8 *2827:C1 4.79704e-05
*RES
1 *2826:X *288:10 15.2196 
2 *288:10 *2832:A2 24.0411 
3 *288:10 *2827:C1 16.9339 
*END

*D_NET *289 0.00244958
*CONN
*I *2829:B1 I *D sky130_fd_sc_hd__a31o_1
*I *2827:X O *D sky130_fd_sc_hd__o211a_1
*CAP
1 *2829:B1 0.000664745
2 *2827:X 0.000664745
3 *2829:B1 *2832:B1 0.00010326
4 *2829:B1 *3758:A 0.000158258
5 *2829:B1 *1078:14 0
6 *2819:B1 *2829:B1 0.000311028
7 *2820:A2 *2829:B1 6.71854e-05
8 *2824:A1 *2829:B1 0
9 *2827:A2 *2829:B1 7.2754e-05
10 *2829:A1 *2829:B1 0.000150611
11 *2829:A2 *2829:B1 2.32591e-05
12 *2832:A2 *2829:B1 0.000116183
13 *2852:A2 *2829:B1 0
14 *114:8 *2829:B1 9.60875e-05
15 *116:63 *2829:B1 0
16 *278:10 *2829:B1 0
17 *283:8 *2829:B1 2.14658e-05
*RES
1 *2827:X *2829:B1 41.5464 
*END

*D_NET *290 0.000961831
*CONN
*I *2829:A3 I *D sky130_fd_sc_hd__a31o_1
*I *2831:B1 I *D sky130_fd_sc_hd__o211a_1
*I *2828:X O *D sky130_fd_sc_hd__or3_1
*CAP
1 *2829:A3 0.000125442
2 *2831:B1 1.91209e-05
3 *2828:X 5.41057e-05
4 *290:8 0.000198669
5 *2829:A3 *1077:72 7.77652e-05
6 *2831:B1 *2813:B 0
7 *290:8 *2813:B 5.7661e-06
8 *290:8 *2828:B 3.99614e-06
9 *290:8 *1077:72 7.3237e-05
10 *2803:A_N *2829:A3 0
11 *2829:A1 *2829:A3 0.000129515
12 *2829:A1 *290:8 5.52302e-05
13 *2829:A2 *2829:A3 0.000173076
14 *108:43 *290:8 4.59075e-05
*RES
1 *2828:X *290:8 11.0857 
2 *290:8 *2831:B1 9.72857 
3 *290:8 *2829:A3 21.9071 
*END

*D_NET *291 0.00164676
*CONN
*I *2839:B2 I *D sky130_fd_sc_hd__a22o_1
*I *2832:A3 I *D sky130_fd_sc_hd__a31o_1
*I *2830:Y O *D sky130_fd_sc_hd__a21oi_1
*CAP
1 *2839:B2 0.000211896
2 *2832:A3 0
3 *2830:Y 0.00012326
4 *291:12 0.000335156
5 *2839:B2 *2832:B1 4.72917e-05
6 *2839:B2 *2839:B1 5.52302e-05
7 *2839:B2 *1079:59 0.000535834
8 *2823:A *291:12 0.00012401
9 *2824:A1 *291:12 0.000127446
10 *2830:B1 *291:12 1.56e-05
11 *2832:A2 *2839:B2 5.52238e-05
12 *151:130 *291:12 1.58163e-05
*RES
1 *2830:Y *291:12 20.8893 
2 *291:12 *2832:A3 9.3 
3 *291:12 *2839:B2 15.3179 
*END

*D_NET *292 0.000996454
*CONN
*I *2832:B1 I *D sky130_fd_sc_hd__a31o_1
*I *2831:X O *D sky130_fd_sc_hd__o211a_1
*CAP
1 *2832:B1 0.00028029
2 *2831:X 0.00028029
3 *2832:B1 *3758:A 5.52302e-05
4 *2832:B1 *1079:59 4.35452e-05
5 *2829:B1 *2832:B1 0.00010326
6 *2831:A2 *2832:B1 0
7 *2832:A2 *2832:B1 0.00018372
8 *2839:B2 *2832:B1 4.72917e-05
9 *116:63 *2832:B1 2.8266e-06
*RES
1 *2831:X *2832:B1 33.1893 
*END

*D_NET *293 0.00121779
*CONN
*I *2840:A2 I *D sky130_fd_sc_hd__o21ai_1
*I *2834:A2 I *D sky130_fd_sc_hd__a211oi_1
*I *2833:Y O *D sky130_fd_sc_hd__nand2_1
*CAP
1 *2840:A2 0
2 *2834:A2 4.86436e-05
3 *2833:Y 0.000193824
4 *293:12 0.000242467
5 *2834:A2 *2842:A2 2.28499e-05
6 *2834:A2 *1077:43 1.56e-05
7 *293:12 *2839:A1 1.5942e-05
8 *293:12 *2839:A2 0.00010326
9 *293:12 *2842:A2 7.50697e-05
10 *293:12 *3750:A 9.80173e-05
11 *293:12 *3751:A 0.000121573
12 *293:12 *1079:59 4.88631e-05
13 gpio_out[14] *2834:A2 5.33005e-05
14 gpio_out[14] *293:12 3.17148e-05
15 *2834:B1 *293:12 0
16 *2834:C1 *2834:A2 0
17 *2840:A1 *2834:A2 3.93247e-05
18 *2840:B1 *293:12 0.000107343
*RES
1 *2833:Y *293:12 24.0321 
2 *293:12 *2834:A2 10.675 
3 *293:12 *2840:A2 9.3 
*END

*D_NET *294 0.000976966
*CONN
*I *2839:A1 I *D sky130_fd_sc_hd__a22o_1
*I *2842:A1 I *D sky130_fd_sc_hd__a22o_1
*I *2834:Y O *D sky130_fd_sc_hd__a211oi_1
*CAP
1 *2839:A1 8.35877e-05
2 *2842:A1 0
3 *2834:Y 0.000164003
4 *294:10 0.000247591
5 *2839:A1 *2839:A2 5.33882e-05
6 *2839:A1 *2842:A2 1.02504e-05
7 *2839:A1 *2842:B1 0.000128154
8 *2839:A1 *1077:72 0
9 *294:10 *2842:A2 0.000148196
10 *2834:B1 *294:10 7.2754e-05
11 *2834:C1 *294:10 1.33343e-05
12 *2840:A1 *294:10 3.97657e-05
13 *293:12 *2839:A1 1.5942e-05
*RES
1 *2834:Y *294:10 17.1036 
2 *294:10 *2842:A1 13.8 
3 *294:10 *2839:A1 16.2821 
*END

*D_NET *295 0.000538078
*CONN
*I *2839:A2 I *D sky130_fd_sc_hd__a22o_1
*I *2835:X O *D sky130_fd_sc_hd__or4_1
*CAP
1 *2839:A2 0.000156714
2 *2835:X 0.000156714
3 *2839:A2 *2842:B1 9.11365e-06
4 *2839:A2 *1078:107 4.88515e-05
5 *2839:A1 *2839:A2 5.33882e-05
6 *2840:B1 *2839:A2 1.00375e-05
7 *293:12 *2839:A2 0.00010326
*RES
1 *2835:X *2839:A2 30.6 
*END

*D_NET *296 0.00356985
*CONN
*I *2864:A2 I *D sky130_fd_sc_hd__a31o_1
*I *2862:C I *D sky130_fd_sc_hd__nand3_1
*I *2866:C I *D sky130_fd_sc_hd__and3_1
*I *2841:B2 I *D sky130_fd_sc_hd__a2bb2o_1
*I *2836:X O *D sky130_fd_sc_hd__and2_1
*CAP
1 *2864:A2 0.000154776
2 *2862:C 5.61735e-05
3 *2866:C 0.000196504
4 *2841:B2 0
5 *2836:X 0
6 *296:16 0.000507601
7 *296:8 0.000483659
8 *296:4 0.000271165
9 *2866:C *2860:B2 8.39111e-05
10 *296:16 *1086:164 4.22675e-05
11 *2841:A1_N *296:16 6.97253e-05
12 *2841:B1 *2866:C 5.52238e-05
13 *2861:B1 *2862:C 4.1331e-06
14 *2865:B *296:16 5.66157e-05
15 *2866:A *2866:C 5.52238e-05
16 *2866:B *2866:C 2.77289e-05
17 *2873:B *2866:C 8.40933e-05
18 *109:18 *2862:C 0.00014576
19 *109:18 *296:16 7.05447e-05
20 *109:28 *296:16 0.000330095
21 *110:71 *296:16 0.000307882
22 *110:82 *2862:C 6.81083e-05
23 *110:82 *296:16 8.25098e-05
24 *111:12 *2862:C 2.04825e-05
25 *111:14 *2862:C 9.99931e-06
26 *111:102 *2862:C 1.00375e-05
27 *112:20 *2864:A2 5.63599e-05
28 *112:22 *2864:A2 4.44171e-07
29 *112:28 *2864:A2 0.000172309
30 *112:28 *296:8 8.43535e-06
31 *272:33 *2864:A2 0
32 *272:33 *296:8 4.58194e-05
33 *273:8 *296:16 6.63267e-05
34 *273:23 *2866:C 2.59355e-05
*RES
1 *2836:X *296:4 9.3 
2 *296:4 *296:8 5.85714 
3 *296:8 *296:16 13.1786 
4 *296:16 *2841:B2 9.3 
5 *296:16 *2866:C 13.7464 
6 *296:8 *2862:C 15.7464 
7 *296:4 *2864:A2 12.6214 
*END

*D_NET *297 0.00136513
*CONN
*I *2838:A2 I *D sky130_fd_sc_hd__a21oi_1
*I *2852:A3 I *D sky130_fd_sc_hd__o32a_1
*I *2837:Y O *D sky130_fd_sc_hd__nand2_1
*CAP
1 *2838:A2 0.000217478
2 *2852:A3 0.000211683
3 *2837:Y 0
4 *297:4 0.000429161
5 *2838:A2 *2839:B1 0
6 *2838:A2 *3582:CLK 9.01334e-05
7 *2852:A3 *308:10 9.3111e-05
8 *2837:A *2838:A2 0.00018372
9 *2837:B *2838:A2 1.33343e-05
10 *2837:B *2852:A3 5.42898e-05
11 *2852:A1 *2852:A3 5.52238e-05
12 *109:75 *2838:A2 1.69961e-05
13 *111:14 *2838:A2 0
*RES
1 *2837:Y *297:4 9.3 
2 *297:4 *2852:A3 13.5321 
3 *297:4 *2838:A2 23.0321 
*END

*D_NET *298 0.00327677
*CONN
*I *2839:B1 I *D sky130_fd_sc_hd__a22o_1
*I *2838:Y O *D sky130_fd_sc_hd__a21oi_1
*CAP
1 *2839:B1 0.000815977
2 *2838:Y 0.000815977
3 *2839:B1 *2842:B1 0.000185427
4 *2839:B1 *1078:101 0
5 *2839:B1 *1079:59 2.60984e-05
6 *2806:B *2839:B1 0.000105689
7 *2821:B *2839:B1 0
8 *2825:B *2839:B1 0.00015134
9 *2838:A1 *2839:B1 5.71472e-05
10 *2838:A2 *2839:B1 0
11 *2839:B2 *2839:B1 5.52302e-05
12 *2859:B1 *2839:B1 0
13 *111:14 *2839:B1 2.24646e-05
14 *111:16 *2839:B1 0.000162825
15 *111:18 *2839:B1 0.000529584
16 *111:88 *2839:B1 0.000186662
17 *271:12 *2839:B1 3.57163e-05
18 *272:33 *2839:B1 0.000126629
19 *281:10 *2839:B1 0
*RES
1 *2838:Y *2839:B1 46.8679 
*END

*D_NET *299 0.00068789
*CONN
*I *2842:A2 I *D sky130_fd_sc_hd__a22o_1
*I *2840:Y O *D sky130_fd_sc_hd__o21ai_1
*CAP
1 *2842:A2 0.00016868
2 *2840:Y 0.00016868
3 gpio_out[14] *2842:A2 9.41642e-05
4 *2834:A2 *2842:A2 2.28499e-05
5 *2839:A1 *2842:A2 1.02504e-05
6 *293:12 *2842:A2 7.50697e-05
7 *294:10 *2842:A2 0.000148196
*RES
1 *2840:Y *2842:A2 30.9036 
*END

*D_NET *300 0.00162878
*CONN
*I *2842:B1 I *D sky130_fd_sc_hd__a22o_1
*I *2841:X O *D sky130_fd_sc_hd__a2bb2o_1
*CAP
1 *2842:B1 0.00045342
2 *2841:X 0.00045342
3 *2842:B1 *1077:72 9.69119e-06
4 *2842:B1 *1078:101 0
5 *2806:B *2842:B1 0.000103974
6 *2839:A1 *2842:B1 0.000128154
7 *2839:A2 *2842:B1 9.11365e-06
8 *2839:B1 *2842:B1 0.000185427
9 *2866:B *2842:B1 7.80714e-06
10 *2873:B *2842:B1 0.000136951
11 *111:18 *2842:B1 0.000101545
12 *114:29 *2842:B1 0
13 *275:10 *2842:B1 3.92757e-05
*RES
1 *2841:X *2842:B1 37.5821 
*END

*D_NET *301 0.00238682
*CONN
*I *2886:A I *D sky130_fd_sc_hd__nor2_1
*I *2845:B I *D sky130_fd_sc_hd__and2_1
*I *2887:B I *D sky130_fd_sc_hd__nor2_1
*I *2844:X O *D sky130_fd_sc_hd__and3_1
*CAP
1 *2886:A 0.000206884
2 *2845:B 0
3 *2887:B 0.000241947
4 *2844:X 4.63898e-05
5 *301:14 0.000394258
6 *301:6 0.000405585
7 *2886:A *2886:B 4.56121e-05
8 *2886:A *2888:A 5.52302e-05
9 *2886:A *2888:B 9.80173e-05
10 *2887:B *2888:A 0
11 *2887:B *2888:B 0
12 *2887:B *302:10 0
13 *301:6 *2888:B 8.43535e-06
14 *301:14 *2888:A 0.000346639
15 *301:14 *2888:B 0
16 *301:14 *302:8 0.00010096
17 *301:14 *1081:68 4.59075e-05
18 *2845:A *301:14 0.000186923
19 *3711:A *301:14 0.000129868
20 *3720:A *301:6 6.05161e-06
21 *3720:A *301:14 6.81083e-05
*RES
1 *2844:X *301:6 9.83571 
2 *301:6 *301:14 15.1429 
3 *301:14 *2887:B 22.3179 
4 *301:14 *2845:B 9.3 
5 *301:6 *2886:A 13.1571 
*END

*D_NET *302 0.00660057
*CONN
*I *2888:A I *D sky130_fd_sc_hd__nor2_1
*I *2889:B I *D sky130_fd_sc_hd__nand2_1
*I *2894:A3 I *D sky130_fd_sc_hd__a31o_1
*I *2893:D I *D sky130_fd_sc_hd__and4_1
*I *2890:B I *D sky130_fd_sc_hd__or2_1
*I *2846:A I *D sky130_fd_sc_hd__inv_2
*I *2845:X O *D sky130_fd_sc_hd__and2_1
*CAP
1 *2888:A 0.000282249
2 *2889:B 3.72704e-05
3 *2894:A3 0.000237591
4 *2893:D 0
5 *2890:B 1.56415e-05
6 *2846:A 0.000190083
7 *2845:X 6.80873e-05
8 *302:32 0.000325825
9 *302:28 0.000342877
10 *302:12 0.000538059
11 *302:10 0.000791283
12 *302:8 0.00102666
13 *2846:A *336:28 0
14 *2846:A *968:16 0
15 *2888:A *2886:B 5.33005e-05
16 *2888:A *3571:RESET_B 4.73656e-05
17 *2888:A *970:22 2.8886e-05
18 *2890:B *336:12 1.02504e-05
19 *2890:B *968:16 0
20 *2894:A3 *2891:A 3.92757e-05
21 *2894:A3 *2892:A 1.69115e-05
22 *302:8 *1081:68 1.39841e-05
23 *302:10 *2892:A 0.000304503
24 *302:10 *3569:D 0
25 *302:10 *3571:RESET_B 0.000373955
26 *302:10 *3575:D 0.000103253
27 *302:10 *3576:CLK 6.04162e-05
28 *302:10 *3577:RESET_B 0
29 *302:10 *1080:74 0
30 *302:10 *1080:81 0
31 *302:12 *2892:A 0.000151333
32 *302:28 *2891:A 1.00375e-05
33 *302:28 *2892:A 2.89114e-05
34 *302:28 *968:14 0.000126923
35 *302:32 *336:12 0.000123288
36 *2849:B *2894:A3 1.02504e-05
37 *2886:A *2888:A 5.52302e-05
38 *2887:B *2888:A 0
39 *2887:B *302:10 0
40 *2893:C *2846:A 1.50563e-05
41 *2893:C *302:28 1.02504e-05
42 *2893:C *302:32 0.000159929
43 *3593:D *2888:A 6.75007e-05
44 *3598:D *2846:A 0.00010326
45 *3709:A *302:10 7.73758e-05
46 *3720:A *2888:A 1.72148e-05
47 *3731:A *302:10 4.57352e-05
48 *151:32 *2846:A 0.000172607
49 *162:8 *2894:A3 0
50 *162:8 *302:28 2.46999e-05
51 *162:25 *2894:A3 4.56437e-05
52 *163:10 *2894:A3 0
53 *163:10 *302:12 0
54 *163:12 *2894:A3 0
55 *163:16 *2894:A3 0
56 *301:14 *2888:A 0.000346639
57 *301:14 *302:8 0.00010096
*RES
1 *2845:X *302:8 15.1571 
2 *302:8 *302:10 16.5179 
3 *302:10 *302:12 1.94643 
4 *302:12 *302:28 13.3214 
5 *302:28 *302:32 3.04464 
6 *302:32 *2846:A 18.3268 
7 *302:32 *2890:B 14.3804 
8 *302:28 *2893:D 13.8 
9 *302:12 *2894:A3 18.2107 
10 *302:10 *2889:B 14.3357 
11 *302:8 *2888:A 20.6929 
*END

*D_NET *303 0.00303454
*CONN
*I *2850:A I *D sky130_fd_sc_hd__or4_2
*I *2846:Y O *D sky130_fd_sc_hd__inv_2
*CAP
1 *2850:A 0
2 *2846:Y 0.00110087
3 *303:22 0.00110087
4 *303:22 *2850:D 0
5 *303:22 *2908:C 3.25264e-05
6 *303:22 *2909:A2 1.92789e-05
7 *303:22 *2909:B1 6.3075e-05
8 *303:22 *2910:B 3.34682e-05
9 *303:22 *3722:A 4.79687e-05
10 *303:22 *343:20 0
11 *2848:C *303:22 3.38136e-05
12 *2904:B *303:22 3.17114e-05
13 *2908:B *303:22 0.00016896
14 *151:32 *303:22 7.83587e-05
15 *154:38 *303:22 1.04066e-05
16 *167:19 *303:22 0.000313241
*RES
1 *2846:Y *303:22 43.7821 
2 *303:22 *2850:A 9.3 
*END

*D_NET *304 0.00148069
*CONN
*I *2850:B I *D sky130_fd_sc_hd__or4_2
*I *2847:X O *D sky130_fd_sc_hd__or4b_1
*CAP
1 *2850:B 0.000233203
2 *2847:X 0.000233203
3 *2850:B *307:8 0.000358273
4 *2847:A *2850:B 2.14658e-05
5 *2908:B *2850:B 0.000585685
6 *155:14 *2850:B 4.88637e-05
*RES
1 *2847:X *2850:B 25.725 
*END

*D_NET *305 0.00123826
*CONN
*I *2850:C I *D sky130_fd_sc_hd__or4_2
*I *2848:X O *D sky130_fd_sc_hd__or4b_1
*CAP
1 *2850:C 0.000197792
2 *2848:X 0.000197792
3 *2850:C *2850:D 0.000312898
4 *2850:C *2900:C 9.58126e-05
5 *2850:C *2910:B 2.09269e-05
6 *2850:C *343:14 5.48674e-05
7 *2850:C *968:80 0.000163486
8 *2850:C *968:84 0.000194691
*RES
1 *2848:X *2850:C 33.225 
*END

*D_NET *306 0.00123497
*CONN
*I *2850:D I *D sky130_fd_sc_hd__or4_2
*I *2849:X O *D sky130_fd_sc_hd__or4bb_1
*CAP
1 *2850:D 0.00031423
2 *2849:X 0.00031423
3 *2850:D *2896:A 0.000101422
4 *2850:D *2910:B 0.000100536
5 *2850:D *339:22 2.09618e-05
6 *2850:D *343:14 0
7 *2850:D *968:80 7.06865e-05
8 *2850:C *2850:D 0.000312898
9 *303:22 *2850:D 0
*RES
1 *2849:X *2850:D 34.3321 
*END

*D_NET *307 0.00951418
*CONN
*I *2851:B I *D sky130_fd_sc_hd__xnor2_1
*I *2901:B1_N I *D sky130_fd_sc_hd__a21boi_1
*I *2891:A I *D sky130_fd_sc_hd__and3_1
*I *2900:A I *D sky130_fd_sc_hd__and3_1
*I *2906:A I *D sky130_fd_sc_hd__and3_1
*I *2911:B1 I *D sky130_fd_sc_hd__o21ai_1
*I *2850:X O *D sky130_fd_sc_hd__or4_2
*CAP
1 *2851:B 0.000717935
2 *2901:B1_N 0
3 *2891:A 0.000523135
4 *2900:A 5.6032e-05
5 *2906:A 0.00013385
6 *2911:B1 0
7 *2850:X 0.000234109
8 *307:52 0.000875931
9 *307:35 0.000453235
10 *307:31 0.00063741
11 *307:12 0.00074125
12 *307:8 0.00107851
13 *2851:B *2909:B1 6.27272e-06
14 *2851:B *2913:C 0
15 *2851:B *3596:CLK 0.000318107
16 *2891:A *2891:C 3.69697e-05
17 *2891:A *2897:B1 0.000100474
18 *2891:A *336:12 3.92854e-05
19 *2891:A *336:28 0.00017348
20 *2891:A *968:16 0
21 *2900:A *336:28 5.03772e-05
22 *2906:A *2902:A1 4.46186e-06
23 *2906:A *2903:B1 0.000154762
24 *2906:A *2906:B 1.72894e-05
25 *2906:A *2906:C 0.00010096
26 *307:12 *2913:C 0
27 *307:31 *2903:A2 0.000128154
28 *307:31 *2903:B1 5.33005e-05
29 *307:31 *2906:C 5.76121e-05
30 *307:31 *2910:A 0.000225982
31 *307:31 *339:65 1.54142e-05
32 *307:31 *343:20 4.35141e-05
33 *307:31 *345:25 0.000450249
34 *307:31 *345:34 4.72917e-05
35 *307:35 *339:65 5.52302e-05
36 *307:52 *2897:B1 3.10819e-05
37 *307:52 *2902:A1 7.38748e-05
38 *307:52 *336:28 2.30389e-05
39 *307:52 *339:22 1.26352e-05
40 *2849:B *2891:A 3.75052e-05
41 *2850:B *307:8 0.000358273
42 *2890:A *2891:A 0.000265447
43 *2893:C *2891:A 0
44 *2894:A3 *2891:A 3.92757e-05
45 *2901:A1 *307:52 3.79104e-05
46 *2903:A1 *307:52 0
47 *2904:A *2851:B 0
48 *3602:D *2851:B 0
49 *3602:D *307:31 0.000396143
50 *3639:A *2906:A 0
51 *151:32 *2851:B 0.000318107
52 *151:32 *2891:A 0
53 *151:32 *2906:A 0
54 *151:32 *307:52 0
55 *153:12 *2906:A 3.77061e-05
56 *153:12 *307:31 0.000175892
57 *153:12 *307:52 4.46186e-06
58 *154:23 *307:52 1.59782e-05
59 *154:38 *307:52 3.38136e-05
60 *155:10 *2851:B 0
61 *162:12 *2891:A 1.52978e-05
62 *162:25 *2891:A 9.71197e-05
63 *165:29 *2851:B 0
64 *167:38 *2891:A 0
65 *167:38 *307:52 0
66 *302:28 *2891:A 1.00375e-05
*RES
1 *2850:X *307:8 17.2107 
2 *307:8 *307:12 6.14286 
3 *307:12 *2911:B1 9.3 
4 *307:12 *307:31 23.6607 
5 *307:31 *307:35 5.03571 
6 *307:35 *2906:A 17.6036 
7 *307:35 *307:52 6.25 
8 *307:52 *2900:A 14.7464 
9 *307:52 *2891:A 32.8357 
10 *307:31 *2901:B1_N 9.3 
11 *307:8 *2851:B 27.2464 
*END

*D_NET *308 0.00781515
*CONN
*I *2853:B I *D sky130_fd_sc_hd__and2b_2
*I *2858:B I *D sky130_fd_sc_hd__and2_1
*I *2868:B I *D sky130_fd_sc_hd__and3b_1
*I *2863:A I *D sky130_fd_sc_hd__and3_1
*I *2871:B I *D sky130_fd_sc_hd__and3b_1
*I *2872:B1 I *D sky130_fd_sc_hd__o21ai_1
*I *2852:X O *D sky130_fd_sc_hd__o32a_1
*CAP
1 *2853:B 0.000110778
2 *2858:B 0.000206385
3 *2868:B 0
4 *2863:A 0
5 *2871:B 3.92213e-05
6 *2872:B1 6.1659e-05
7 *2852:X 0
8 *308:55 0.000610627
9 *308:49 0.000593119
10 *308:40 0.000959456
11 *308:10 0.000679734
12 *308:4 0.00146021
13 *2853:B *309:22 0.000315165
14 *2853:B *967:10 3.90513e-05
15 *2858:B *2867:A2 0
16 *2858:B *309:58 5.57727e-05
17 *2871:B *2869:A 5.52302e-05
18 *2872:B1 *967:24 3.92757e-05
19 *2872:B1 *1079:10 6.5185e-05
20 *2872:B1 *1080:16 0
21 *308:10 *967:24 3.69697e-05
22 *308:10 *1079:8 0.000188957
23 *308:10 *1079:10 1.08359e-05
24 *308:10 *1080:16 0
25 *308:10 *1080:23 0
26 *308:40 *2855:B 5.52302e-05
27 *308:40 *2863:C 0.000262504
28 *308:40 *3582:CLK 0
29 *308:40 *309:22 0.000534908
30 *308:49 *2863:C 9.52453e-05
31 *308:49 *309:22 8.52893e-05
32 *308:55 *2868:C 4.15914e-05
33 *308:55 *967:10 0.00011833
34 *308:55 *967:16 0.000206317
35 *2852:A1 *308:40 7.90803e-05
36 *2852:A3 *308:10 9.3111e-05
37 *2852:B2 *308:40 0
38 *2855:A *308:40 3.18676e-05
39 *2861:A1 *308:40 1.55885e-05
40 *2861:A3 *308:40 9.41642e-05
41 *2861:B1 *308:40 5.33433e-05
42 *3584:D *2853:B 8.60735e-05
43 *3584:D *308:49 9.71197e-05
44 *3585:D *2858:B 5.03772e-05
45 *3586:D *308:10 4.15914e-05
46 *3700:A *308:10 0.000119125
47 *109:12 *308:40 4.27437e-05
48 *109:12 *308:49 7.43578e-06
49 *109:88 *308:40 0
50 *112:20 *2858:B 4.45768e-06
51 *112:20 *308:55 7.79781e-06
52 *150:47 *2853:B 0
53 *150:51 *2853:B 0
54 *150:51 *2858:B 6.42242e-05
55 *150:51 *308:55 0
*RES
1 *2852:X *308:4 9.3 
2 *308:4 *308:10 14.125 
3 *308:10 *2872:B1 15.4429 
4 *308:10 *2871:B 14.3357 
5 *308:4 *308:40 23.7321 
6 *308:40 *2863:A 9.3 
7 *308:40 *308:49 7.08929 
8 *308:49 *308:55 13.1607 
9 *308:55 *2868:B 9.3 
10 *308:55 *2858:B 22.0143 
11 *308:49 *2853:B 17.8357 
*END

*D_NET *309 0.00749034
*CONN
*I *2854:A I *D sky130_fd_sc_hd__inv_2
*I *2860:A2 I *D sky130_fd_sc_hd__a22o_1
*I *2878:A2 I *D sky130_fd_sc_hd__a22o_1
*I *2883:B1 I *D sky130_fd_sc_hd__a32o_1
*I *2856:B I *D sky130_fd_sc_hd__or2_1
*I *2855:B I *D sky130_fd_sc_hd__nand2_1
*I *2853:X O *D sky130_fd_sc_hd__and2b_2
*CAP
1 *2854:A 6.17285e-05
2 *2860:A2 0
3 *2878:A2 2.52229e-05
4 *2883:B1 0.000254528
5 *2856:B 9.8939e-05
6 *2855:B 5.16041e-05
7 *2853:X 0
8 *309:62 0.000423015
9 *309:58 0.000668282
10 *309:46 0.000916483
11 *309:22 0.00107878
12 *309:4 0.00125797
13 *2856:B *3582:CLK 0.000118339
14 *2878:A2 *3589:CLK 5.52238e-05
15 *2883:B1 *2879:A 0.000128205
16 *2883:B1 *2883:A2 2.39852e-05
17 *2883:B1 *3589:RESET_B 0
18 *2883:B1 *1077:10 5.80706e-06
19 *2883:B1 *1077:12 8.16036e-05
20 *2883:B1 *1083:48 0
21 *309:22 *2863:B 0.000139907
22 *309:22 *3582:CLK 0
23 *309:22 *1086:164 0
24 *309:46 *3638:CLK 0
25 *309:46 *972:76 0
26 *309:46 *972:87 0
27 *309:46 *1083:37 0
28 *309:58 *2860:B1 0.00014183
29 *309:58 *2860:B2 0
30 *309:58 *2867:A2 0
31 *309:58 *313:8 7.72916e-05
32 *309:58 *1077:10 9.99644e-06
33 *309:58 *1083:37 0
34 *309:58 *1083:46 0
35 *309:58 *1083:48 0
36 *309:62 *313:10 0
37 *309:62 *1077:10 7.252e-05
38 *309:62 *1083:48 0
39 *2853:B *309:22 0.000315165
40 *2856:A *2856:B 0.00022287
41 *2858:B *309:58 5.57727e-05
42 *2860:A1 *309:58 6.51327e-05
43 *2860:A1 *309:62 2.8266e-06
44 *2861:A1 *309:22 0.000103033
45 *2861:B1 *309:22 0.000111674
46 *2883:B2 *2883:B1 2.8266e-06
47 *3584:D *309:22 3.80953e-06
48 *3584:D *309:46 9.91086e-05
49 *109:12 *309:22 0.000107996
50 *109:88 *2856:B 3.34366e-05
51 *150:47 *309:46 0
52 *150:51 *309:46 0
53 *150:51 *309:58 0
54 *308:40 *2855:B 5.52302e-05
55 *308:40 *309:22 0.000534908
56 *308:49 *309:22 8.52893e-05
*RES
1 *2853:X *309:4 9.3 
2 *309:4 *309:22 26.4821 
3 *309:22 *2855:B 10.2643 
4 *309:22 *2856:B 21.4607 
5 *309:4 *309:46 10.3929 
6 *309:46 *309:58 14.1607 
7 *309:58 *309:62 7.35714 
8 *309:62 *2883:B1 19.0232 
9 *309:62 *2878:A2 14.3357 
10 *309:58 *2860:A2 9.3 
11 *309:46 *2854:A 14.7464 
*END

*D_NET *310 0.000491648
*CONN
*I *2864:A3 I *D sky130_fd_sc_hd__a31o_1
*I *2854:Y O *D sky130_fd_sc_hd__inv_2
*CAP
1 *2864:A3 0.000153964
2 *2854:Y 0.000153964
3 *112:20 *2864:A3 0.00018372
*RES
1 *2854:Y *2864:A3 21.6 
*END

*D_NET *311 0.000649397
*CONN
*I *2857:A1 I *D sky130_fd_sc_hd__a21oi_1
*I *2855:Y O *D sky130_fd_sc_hd__nand2_1
*CAP
1 *2857:A1 0.00022427
2 *2855:Y 0.00022427
3 *2857:A1 *2857:A2 5.71472e-05
4 *2857:A1 *3568:RESET_B 0
5 *2797:A *2857:A1 0
6 *2855:A *2857:A1 2.27416e-05
7 *2856:A *2857:A1 7.50697e-05
8 *264:61 *2857:A1 4.58976e-05
*RES
1 *2855:Y *2857:A1 31.7429 
*END

*D_NET *312 0.000126884
*CONN
*I *2857:A2 I *D sky130_fd_sc_hd__a21oi_1
*I *2856:X O *D sky130_fd_sc_hd__or2_1
*CAP
1 *2857:A2 6.29488e-06
2 *2856:X 6.29488e-06
3 *2857:A1 *2857:A2 5.71472e-05
4 *264:61 *2857:A2 5.71472e-05
*RES
1 *2856:X *2857:A2 19.1357 
*END

*D_NET *313 0.00243289
*CONN
*I *2860:B1 I *D sky130_fd_sc_hd__a22o_1
*I *2878:B1 I *D sky130_fd_sc_hd__a22o_1
*I *2883:A1 I *D sky130_fd_sc_hd__a32o_1
*I *2858:X O *D sky130_fd_sc_hd__and2_1
*CAP
1 *2860:B1 5.50702e-05
2 *2878:B1 7.83625e-05
3 *2883:A1 0.000300011
4 *2858:X 6.79183e-05
5 *313:10 0.000541276
6 *313:8 0.000285891
7 *2860:B1 *2860:B2 5.33433e-05
8 *2878:B1 *3589:CLK 7.32272e-05
9 *2883:A1 *2874:B 0
10 *2883:A1 *2878:B2 0.00010326
11 *2883:A1 *2879:B 0.000248486
12 *2883:A1 *2883:A2 2.89114e-05
13 *2883:A1 *2883:A3 1.55885e-05
14 *2883:A1 *3589:CLK 0
15 *2883:A1 *324:18 3.1521e-05
16 *2883:A1 *325:10 7.83366e-05
17 *2883:A1 *1077:12 0
18 *313:8 *2867:A1 0
19 *313:8 *2867:A2 0
20 *313:10 *2867:A1 0
21 *313:10 *2878:B2 3.34366e-05
22 *313:10 *325:10 8.89385e-05
23 *313:10 *1077:10 0
24 *2860:A1 *2860:B1 5.52302e-05
25 *2860:A1 *313:8 7.80714e-06
26 *2860:A1 *313:10 1.19309e-05
27 *2874:A *313:10 0
28 *3589:D *2883:A1 5.52238e-05
29 *309:58 *2860:B1 0.00014183
30 *309:58 *313:8 7.72916e-05
31 *309:62 *313:10 0
*RES
1 *2858:X *313:8 15.1393 
2 *313:8 *313:10 3.46429 
3 *313:10 *2883:A1 20.9607 
4 *313:10 *2878:B1 15.1571 
5 *313:8 *2860:B1 15.5679 
*END

*D_NET *314 0.00331618
*CONN
*I *2860:B2 I *D sky130_fd_sc_hd__a22o_1
*I *2859:X O *D sky130_fd_sc_hd__a21o_1
*CAP
1 *2860:B2 0.000970925
2 *2859:X 0.000970925
3 *2860:B2 *2867:A1 6.02581e-05
4 *2860:B2 *2867:A2 0
5 *2860:B2 *2868:A_N 8.17274e-05
6 *2860:B2 *2874:C 5.53464e-05
7 *2860:B2 *320:16 0.00060416
8 *2860:B2 *967:16 7.6644e-05
9 *2860:B1 *2860:B2 5.33433e-05
10 *2866:B *2860:B2 5.62995e-05
11 *2866:C *2860:B2 8.39111e-05
12 *112:64 *2860:B2 0.000287951
13 *112:70 *2860:B2 1.46917e-05
14 *150:51 *2860:B2 0
15 *309:58 *2860:B2 0
*RES
1 *2859:X *2860:B2 44.5643 
*END

*D_NET *315 0.000338673
*CONN
*I *2863:B I *D sky130_fd_sc_hd__and3_1
*I *2861:X O *D sky130_fd_sc_hd__a31o_1
*CAP
1 *2863:B 9.9383e-05
2 *2861:X 9.9383e-05
3 *309:22 *2863:B 0.000139907
*RES
1 *2861:X *2863:B 19.9571 
*END

*D_NET *316 0.00102976
*CONN
*I *2863:C I *D sky130_fd_sc_hd__and3_1
*I *2862:Y O *D sky130_fd_sc_hd__nand3_1
*CAP
1 *2863:C 0.000296731
2 *2862:Y 0.000296731
3 *2861:B1 *2863:C 3.92757e-05
4 *109:16 *2863:C 3.92757e-05
5 *308:40 *2863:C 0.000262504
6 *308:49 *2863:C 9.52453e-05
*RES
1 *2862:Y *2863:C 32.1179 
*END

*D_NET *317 0.000315879
*CONN
*I *2868:C I *D sky130_fd_sc_hd__and3b_1
*I *2864:X O *D sky130_fd_sc_hd__a31o_1
*CAP
1 *2868:C 7.03524e-05
2 *2864:X 7.03524e-05
3 *112:20 *2868:C 0.000133583
4 *308:55 *2868:C 4.15914e-05
*RES
1 *2864:X *2868:C 29.1714 
*END

*D_NET *318 0.00108863
*CONN
*I *2867:A1 I *D sky130_fd_sc_hd__o21a_1
*I *2873:C I *D sky130_fd_sc_hd__and3_1
*I *2865:X O *D sky130_fd_sc_hd__and3b_1
*CAP
1 *2867:A1 0.000246425
2 *2873:C 6.3621e-05
3 *2865:X 4.54934e-05
4 *318:6 0.00035554
5 *2867:A1 *2867:A2 0.000124404
6 *2867:A1 *2874:B 0
7 *2860:B2 *2867:A1 6.02581e-05
8 *2873:B *2867:A1 1.33343e-05
9 *2873:B *318:6 0.000144773
10 *2874:A *2867:A1 3.47856e-05
11 *112:70 *2867:A1 0
12 *313:8 *2867:A1 0
13 *313:10 *2867:A1 0
*RES
1 *2865:X *318:6 10.6571 
2 *318:6 *2873:C 10.5321 
3 *318:6 *2867:A1 23.2107 
*END

*D_NET *319 0.000774409
*CONN
*I *2874:C I *D sky130_fd_sc_hd__and3_1
*I *2867:A2 I *D sky130_fd_sc_hd__o21a_1
*I *2866:X O *D sky130_fd_sc_hd__and3_1
*CAP
1 *2874:C 0.000107504
2 *2867:A2 0.000123191
3 *2866:X 0
4 *319:4 0.000230695
5 *2858:B *2867:A2 0
6 *2860:B2 *2867:A2 0
7 *2860:B2 *2874:C 5.53464e-05
8 *2867:A1 *2867:A2 0.000124404
9 *2867:B1 *2867:A2 9.90367e-05
10 *110:16 *2867:A2 3.14048e-05
11 *150:51 *2867:A2 2.8266e-06
12 *309:58 *2867:A2 0
13 *313:8 *2867:A2 0
*RES
1 *2866:X *319:4 9.3 
2 *319:4 *2867:A2 21.1929 
3 *319:4 *2874:C 10.7286 
*END

*D_NET *320 0.00488579
*CONN
*I *2868:A_N I *D sky130_fd_sc_hd__and3b_1
*I *2870:B I *D sky130_fd_sc_hd__and2_1
*I *2869:B I *D sky130_fd_sc_hd__or2_1
*I *2867:X O *D sky130_fd_sc_hd__o21a_1
*CAP
1 *2868:A_N 6.35436e-05
2 *2870:B 0.000324174
3 *2869:B 0
4 *2867:X 6.1665e-05
5 *320:16 0.000910769
6 *320:10 0.000711803
7 *2870:B *2869:A 0.000368217
8 *2870:B *2870:A 0.00023683
9 *2870:B *2871:A_N 2.97074e-05
10 *2870:B *2871:C 4.43256e-05
11 *2870:B *967:24 0.000354111
12 *2870:B *1079:8 0
13 *320:10 *1086:164 3.93893e-05
14 *2825:B *320:16 1.54027e-05
15 *2826:A3 *320:16 5.52302e-05
16 *2859:A2 *320:16 1.3701e-05
17 *2860:B2 *2868:A_N 8.17274e-05
18 *2860:B2 *320:16 0.00060416
19 *2864:A1 *2868:A_N 4.87953e-05
20 *2864:A1 *320:16 0.00019867
21 *112:64 *320:10 0.000123288
22 *151:65 *2870:B 8.07951e-05
23 *281:8 *320:16 0.000265447
24 *287:6 *320:16 0.000254036
*RES
1 *2867:X *320:10 19.9429 
2 *320:10 *320:16 14.125 
3 *320:16 *2869:B 9.3 
4 *320:16 *2870:B 28.0143 
5 *320:10 *2868:A_N 10.6571 
*END

*D_NET *321 0.000267087
*CONN
*I *2871:C I *D sky130_fd_sc_hd__and3b_1
*I *2869:X O *D sky130_fd_sc_hd__or2_1
*CAP
1 *2871:C 5.51953e-05
2 *2869:X 5.51953e-05
3 *2871:C *967:24 5.52238e-05
4 *2870:B *2871:C 4.43256e-05
5 *3586:D *2871:C 5.71472e-05
*RES
1 *2869:X *2871:C 19.9571 
*END

*D_NET *322 0.00108409
*CONN
*I *2872:A2 I *D sky130_fd_sc_hd__o21ai_1
*I *2871:A_N I *D sky130_fd_sc_hd__and3b_1
*I *2875:A2 I *D sky130_fd_sc_hd__a21oi_1
*I *2870:X O *D sky130_fd_sc_hd__and2_1
*CAP
1 *2872:A2 2.44885e-05
2 *2871:A_N 8.00395e-05
3 *2875:A2 0.000111628
4 *2870:X 0
5 *322:15 0.00012456
6 *322:4 0.00013166
7 *2871:A_N *1079:10 0.000127439
8 *2872:A2 *2872:A1 4.18895e-05
9 *2875:A2 *2875:B1 0.000198352
10 *322:15 *2872:A1 1.33343e-05
11 *322:15 *2875:B1 1.69961e-05
12 *2870:B *2871:A_N 2.97074e-05
13 *151:65 *2871:A_N 1.76039e-05
14 *151:65 *2875:A2 0.000166397
*RES
1 *2870:X *322:4 9.3 
2 *322:4 *2875:A2 13.1393 
3 *322:4 *322:15 0.535714 
4 *322:15 *2871:A_N 20.3714 
5 *322:15 *2872:A2 9.83571 
*END

*D_NET *323 0.00125794
*CONN
*I *2875:B1 I *D sky130_fd_sc_hd__a21oi_1
*I *2872:Y O *D sky130_fd_sc_hd__o21ai_1
*CAP
1 *2875:B1 0.000144578
2 *2872:Y 0.000144578
3 *2875:B1 *2872:A1 0.00014183
4 *2875:B1 *2875:A1 0.000575092
5 *2875:A2 *2875:B1 0.000198352
6 *151:65 *2875:B1 3.65178e-05
7 *322:15 *2875:B1 1.69961e-05
*RES
1 *2872:Y *2875:B1 24.8857 
*END

*D_NET *324 0.00353854
*CONN
*I *2876:B I *D sky130_fd_sc_hd__xnor2_1
*I *2881:B I *D sky130_fd_sc_hd__nand3_1
*I *2882:A2 I *D sky130_fd_sc_hd__a21o_1
*I *2873:X O *D sky130_fd_sc_hd__and3_1
*CAP
1 *2876:B 0.000103613
2 *2881:B 1.11927e-05
3 *2882:A2 3.20301e-05
4 *2873:X 0.000106184
5 *324:18 0.00089263
6 *324:10 0.0010592
7 *2876:B *1077:29 7.02611e-05
8 *2882:A2 *2882:B1 5.3299e-05
9 *2882:A2 *2883:A2 5.52238e-05
10 *324:10 *2874:B 7.60306e-05
11 *324:10 *3589:CLK 0.000155477
12 *324:18 *2874:B 0.000101899
13 *324:18 *2883:A2 0.000244529
14 *324:18 *2883:A3 0.000398822
15 *324:18 *3589:CLK 0.000128154
16 *2883:A1 *324:18 3.1521e-05
17 *3589:D *324:18 1.84754e-05
*RES
1 *2873:X *324:10 16.2821 
2 *324:10 *324:18 17.2679 
3 *324:18 *2882:A2 10.675 
4 *324:18 *2881:B 9.72857 
5 *324:10 *2876:B 15.5679 
*END

*D_NET *325 0.00187977
*CONN
*I *2879:B I *D sky130_fd_sc_hd__nand2_1
*I *2877:A I *D sky130_fd_sc_hd__xnor2_1
*I *2874:X O *D sky130_fd_sc_hd__and3_1
*CAP
1 *2879:B 0.000349266
2 *2877:A 0
3 *2874:X 0.000118389
4 *325:10 0.000467655
5 *2879:B *2879:A 0.00022114
6 *2879:B *3589:CLK 0
7 *2879:B *1077:29 0.000137983
8 *2879:B *1077:43 0
9 *325:10 *2874:B 0.000169581
10 *2883:A1 *2879:B 0.000248486
11 *2883:A1 *325:10 7.83366e-05
12 *3589:D *2879:B 0
13 *313:10 *325:10 8.89385e-05
*RES
1 *2874:X *325:10 22.3714 
2 *325:10 *2877:A 9.3 
3 *325:10 *2879:B 27.3714 
*END

*D_NET *326 0.000191292
*CONN
*I *2877:B I *D sky130_fd_sc_hd__xnor2_1
*I *2876:Y O *D sky130_fd_sc_hd__xnor2_1
*CAP
1 *2877:B 6.97653e-05
2 *2876:Y 6.97653e-05
3 *2877:B *1077:29 5.17614e-05
*RES
1 *2876:Y *2877:B 19.975 
*END

*D_NET *327 0.000417392
*CONN
*I *2878:B2 I *D sky130_fd_sc_hd__a22o_1
*I *2877:Y O *D sky130_fd_sc_hd__xnor2_1
*CAP
1 *2878:B2 9.0484e-05
2 *2877:Y 9.0484e-05
3 *2878:B2 *1077:12 4.25809e-05
4 *2878:B2 *1077:29 5.71472e-05
5 *2883:A1 *2878:B2 0.00010326
6 *313:10 *2878:B2 3.34366e-05
*RES
1 *2877:Y *2878:B2 29.7786 
*END

*D_NET *328 0.00115484
*CONN
*I *2880:B I *D sky130_fd_sc_hd__xnor2_1
*I *2879:Y O *D sky130_fd_sc_hd__nand2_1
*CAP
1 *2880:B 0.000567782
2 *2879:Y 0.000567782
3 *2880:B *2879:A 1.92789e-05
*RES
1 *2879:Y *2880:B 34.7071 
*END

*D_NET *329 0.000765283
*CONN
*I *2881:C I *D sky130_fd_sc_hd__nand3_1
*I *2882:B1 I *D sky130_fd_sc_hd__a21o_1
*I *2880:Y O *D sky130_fd_sc_hd__xnor2_1
*CAP
1 *2881:C 5.35763e-05
2 *2882:B1 0.000187837
3 *2880:Y 7.12226e-05
4 *329:10 0.000312636
5 *2882:B1 *2883:A2 2.95641e-05
6 *329:10 *3589:RESET_B 0
7 *2882:A1 *2882:B1 5.71472e-05
8 *2882:A2 *2882:B1 5.3299e-05
*RES
1 *2880:Y *329:10 19.3357 
2 *329:10 *2882:B1 12.8714 
3 *329:10 *2881:C 10.2643 
*END

*D_NET *330 0.00128397
*CONN
*I *2883:A2 I *D sky130_fd_sc_hd__a32o_1
*I *2881:Y O *D sky130_fd_sc_hd__nand3_1
*CAP
1 *2883:A2 0.000212923
2 *2881:Y 0.000212923
3 *2883:A2 *2883:A3 0.000391771
4 *2882:A1 *2883:A2 2.89114e-05
5 *2882:A2 *2883:A2 5.52238e-05
6 *2882:B1 *2883:A2 2.95641e-05
7 *2883:A1 *2883:A2 2.89114e-05
8 *2883:B1 *2883:A2 2.39852e-05
9 *2883:B2 *2883:A2 5.52238e-05
10 *324:18 *2883:A2 0.000244529
*RES
1 *2881:Y *2883:A2 25.4571 
*END

*D_NET *331 0.00101027
*CONN
*I *2883:A3 I *D sky130_fd_sc_hd__a32o_1
*I *2882:X O *D sky130_fd_sc_hd__a21o_1
*CAP
1 *2883:A3 0.000102042
2 *2882:X 0.000102042
3 *2883:A1 *2883:A3 1.55885e-05
4 *2883:A2 *2883:A3 0.000391771
5 *324:18 *2883:A3 0.000398822
*RES
1 *2882:X *2883:A3 23.1536 
*END

*D_NET *332 0.000700451
*CONN
*I *3718:A I *D sky130_fd_sc_hd__dlygate4sd3_1
*I *2885:Y O *D sky130_fd_sc_hd__a21oi_1
*CAP
1 *3718:A 0.000241546
2 *2885:Y 0.000241546
3 *2885:A2 *3718:A 0.000217359
*RES
1 *2885:Y *3718:A 23.2607 
*END

*D_NET *333 0.00198217
*CONN
*I *2888:B I *D sky130_fd_sc_hd__nor2_1
*I *2887:Y O *D sky130_fd_sc_hd__nor2_1
*CAP
1 *2888:B 0.000467862
2 *2887:Y 0.000467862
3 *2888:B *2886:B 5.52238e-05
4 *2888:B *3572:CLK 0
5 *2888:B *3572:D 9.14786e-05
6 *2888:B *3633:CLK 0
7 *2888:B *970:8 6.58195e-05
8 *2888:B *970:14 0.000415259
9 *2844:A *2888:B 0
10 *2845:A *2888:B 0
11 *2886:A *2888:B 9.80173e-05
12 *2887:B *2888:B 0
13 *3720:A *2888:B 0.000312215
14 *301:6 *2888:B 8.43535e-06
15 *301:14 *2888:B 0
*RES
1 *2887:Y *2888:B 39.6 
*END

*D_NET *334 0.00144368
*CONN
*I *2892:B I *D sky130_fd_sc_hd__xnor2_1
*I *2891:B I *D sky130_fd_sc_hd__and3_1
*I *2889:Y O *D sky130_fd_sc_hd__nand2_1
*CAP
1 *2892:B 0.000231917
2 *2891:B 0.000144636
3 *2889:Y 0.000332321
4 *334:8 0.000708874
5 *2891:B *2892:A 0
6 *2891:B *968:54 0
7 *2892:B *2892:A 0
8 *2892:B *3575:CLK 0
9 *2892:B *3580:D 0
10 *2892:B *968:54 0
11 *2889:A *2891:B 0
12 *2889:A *334:8 2.59355e-05
13 *3594:D *2891:B 0
14 *3:13 *2892:B 0
15 *162:8 *2891:B 0
*RES
1 *2889:Y *334:8 17.6214 
2 *334:8 *2891:B 16.3536 
3 *334:8 *2892:B 17.8714 
*END

*D_NET *335 0.000284062
*CONN
*I *2891:C I *D sky130_fd_sc_hd__and3_1
*I *2890:X O *D sky130_fd_sc_hd__or2_1
*CAP
1 *2891:C 0.000118792
2 *2890:X 0.000118792
3 *2891:C *968:14 9.50968e-06
4 *2891:C *968:16 0
5 *2891:A *2891:C 3.69697e-05
*RES
1 *2890:X *2891:C 29.3679 
*END

*D_NET *336 0.00411051
*CONN
*I *2895:A_N I *D sky130_fd_sc_hd__and2b_1
*I *2898:C I *D sky130_fd_sc_hd__and3_1
*I *2896:B I *D sky130_fd_sc_hd__xor2_1
*I *2897:A2 I *D sky130_fd_sc_hd__a21o_1
*I *2893:X O *D sky130_fd_sc_hd__and4_1
*CAP
1 *2895:A_N 0
2 *2898:C 1.09599e-05
3 *2896:B 0.000211807
4 *2897:A2 0
5 *2893:X 0.000107555
6 *336:37 0.000276694
7 *336:28 0.000523229
8 *336:12 0.000576857
9 *2896:B *2896:A 9.90431e-05
10 *2896:B *339:22 0.000437513
11 *2898:C *2900:C 9.75489e-06
12 *336:12 *968:14 2.89016e-05
13 *336:28 *2895:B 1.24368e-05
14 *336:28 *2900:C 0.000271345
15 *336:37 *2900:C 2.77258e-05
16 *2846:A *336:28 0
17 *2849:A *2896:B 0.000141729
18 *2849:B *2896:B 8.57166e-06
19 *2849:D_N *2896:B 2.44318e-05
20 *2890:A *336:28 9.3111e-05
21 *2890:B *336:12 1.02504e-05
22 *2891:A *336:12 3.92854e-05
23 *2891:A *336:28 0.00017348
24 *2893:C *336:28 7.9836e-05
25 *2897:A1 *2898:C 3.9087e-05
26 *2897:A1 *336:28 1.55885e-05
27 *2897:A1 *336:37 9.41642e-05
28 *2898:B *2896:B 0.00012051
29 *2900:A *336:28 5.03772e-05
30 *3596:D *336:28 2.30799e-05
31 *3598:D *336:28 0
32 *165:29 *2896:B 0.000153848
33 *167:38 *2896:B 0.000303008
34 *302:32 *336:12 0.000123288
35 *307:52 *336:28 2.30389e-05
*RES
1 *2893:X *336:12 20.4786 
2 *336:12 *336:28 19.625 
3 *336:28 *2897:A2 9.3 
4 *336:28 *336:37 1.375 
5 *336:37 *2896:B 26.2643 
6 *336:37 *2898:C 9.69286 
7 *336:12 *2895:A_N 9.3 
*END

*D_NET *337 0.000201353
*CONN
*I *2895:B I *D sky130_fd_sc_hd__and2b_1
*I *2894:X O *D sky130_fd_sc_hd__a31o_1
*CAP
1 *2895:B 2.63006e-05
2 *2894:X 2.63006e-05
3 *2893:C *2895:B 9.71197e-05
4 *3596:D *2895:B 2.89016e-05
5 *162:25 *2895:B 1.02936e-05
6 *336:28 *2895:B 1.24368e-05
*RES
1 *2894:X *2895:B 19.5464 
*END

*D_NET *338 0.000295791
*CONN
*I *2900:B I *D sky130_fd_sc_hd__and3_1
*I *2897:X O *D sky130_fd_sc_hd__a21o_1
*CAP
1 *2900:B 9.07879e-05
2 *2897:X 9.07879e-05
3 *2900:B *2900:C 0.000114215
*RES
1 *2897:X *2900:B 19.9571 
*END

*D_NET *339 0.00602384
*CONN
*I *2901:A2 I *D sky130_fd_sc_hd__a21boi_1
*I *2902:A2 I *D sky130_fd_sc_hd__o21a_1
*I *2903:A2 I *D sky130_fd_sc_hd__a21o_1
*I *2899:A I *D sky130_fd_sc_hd__inv_2
*I *2904:C I *D sky130_fd_sc_hd__and3_1
*I *2898:X O *D sky130_fd_sc_hd__and3_1
*CAP
1 *2901:A2 0
2 *2902:A2 3.64454e-05
3 *2903:A2 0.000111043
4 *2899:A 0.000143449
5 *2904:C 2.48867e-05
6 *2898:X 0
7 *339:65 0.00020328
8 *339:50 0.000432139
9 *339:22 0.000816486
10 *339:4 0.000802411
11 *2899:A *2896:A 4.03622e-05
12 *2899:A *2900:C 0.000493235
13 *2902:A2 *2902:A1 5.71472e-05
14 *2902:A2 *2902:B1 2.44318e-05
15 *2903:A2 *2906:C 5.52302e-05
16 *2903:A2 *343:20 0
17 *2904:C *2896:A 1.91039e-05
18 *339:22 *2896:A 0.00013304
19 *339:22 *2897:B1 4.03577e-05
20 *339:22 *2900:C 0.00021589
21 *339:50 *2900:C 5.33005e-05
22 *339:65 *2902:A1 8.57023e-05
23 *339:65 *2902:B1 2.44318e-05
24 *2848:D_N *339:50 8.21514e-05
25 *2850:D *339:22 2.09618e-05
26 *2896:B *339:22 0.000437513
27 *2898:B *339:50 9.25014e-06
28 *2903:A1 *2903:A2 0.000221163
29 *2903:A1 *339:50 0.000188734
30 *2904:A *2899:A 7.09928e-05
31 *2908:A *339:65 9.41642e-05
32 *3728:A *2899:A 0.000188311
33 *151:32 *339:22 6.05161e-06
34 *153:12 *339:65 0.000135028
35 *153:16 *2903:A2 1.52978e-05
36 *153:16 *339:50 7.50697e-05
37 *165:29 *339:22 0.000121416
38 *166:8 *339:22 5.74499e-06
39 *167:38 *339:22 0.000204893
40 *167:38 *339:50 0.000123288
41 *307:31 *2903:A2 0.000128154
42 *307:31 *339:65 1.54142e-05
43 *307:35 *339:65 5.52302e-05
44 *307:52 *339:22 1.26352e-05
*RES
1 *2898:X *339:4 9.3 
2 *339:4 *339:22 29.3482 
3 *339:22 *2904:C 9.91607 
4 *339:22 *2899:A 15.1304 
5 *339:4 *339:50 9.10714 
6 *339:50 *2903:A2 17.1929 
7 *339:50 *339:65 8.32143 
8 *339:65 *2902:A2 10.2464 
9 *339:65 *2901:A2 9.3 
*END

*D_NET *340 0.00323643
*CONN
*I *2900:C I *D sky130_fd_sc_hd__and3_1
*I *2899:Y O *D sky130_fd_sc_hd__inv_2
*CAP
1 *2900:C 0.000717556
2 *2899:Y 0.000717556
3 *2900:C *343:14 0.000179657
4 *2848:B *2900:C 9.41642e-05
5 *2848:C *2900:C 9.58181e-05
6 *2848:D_N *2900:C 4.58194e-05
7 *2850:C *2900:C 9.58126e-05
8 *2897:A1 *2900:C 8.61749e-06
9 *2898:C *2900:C 9.75489e-06
10 *2899:A *2900:C 0.000493235
11 *2900:B *2900:C 0.000114215
12 *2904:B *2900:C 5.33005e-05
13 *165:38 *2900:C 4.26617e-05
14 *336:28 *2900:C 0.000271345
15 *336:37 *2900:C 2.77258e-05
16 *339:22 *2900:C 0.00021589
17 *339:50 *2900:C 5.33005e-05
*RES
1 *2899:Y *2900:C 35.85 
*END

*D_NET *341 0.000572772
*CONN
*I *2902:B1 I *D sky130_fd_sc_hd__o21a_1
*I *2901:Y O *D sky130_fd_sc_hd__a21boi_1
*CAP
1 *2902:B1 0.000189568
2 *2901:Y 0.000189568
3 *2902:B1 *2902:A1 0.000144773
4 *2902:A2 *2902:B1 2.44318e-05
5 *339:65 *2902:B1 2.44318e-05
*RES
1 *2901:Y *2902:B1 22.3321 
*END

*D_NET *342 0.000234416
*CONN
*I *2906:B I *D sky130_fd_sc_hd__and3_1
*I *2903:X O *D sky130_fd_sc_hd__a21o_1
*CAP
1 *2906:B 0.000103365
2 *2903:X 0.000103365
3 *2906:B *2906:C 1.03968e-05
4 *2906:A *2906:B 1.72894e-05
*RES
1 *2903:X *2906:B 19.9571 
*END

*D_NET *343 0.00358388
*CONN
*I *2909:A2 I *D sky130_fd_sc_hd__a21oi_1
*I *2908:C I *D sky130_fd_sc_hd__and3_1
*I *2905:A I *D sky130_fd_sc_hd__inv_2
*I *2907:B I *D sky130_fd_sc_hd__xor2_1
*I *2904:X O *D sky130_fd_sc_hd__and3_1
*CAP
1 *2909:A2 1.55834e-05
2 *2908:C 0.000175712
3 *2905:A 0
4 *2907:B 0.000299167
5 *2904:X 0.00042539
6 *343:20 0.000487688
7 *343:16 0.000427026
8 *343:14 0.000503767
9 *2907:B *2907:A 5.68713e-05
10 *2907:B *2910:B 0
11 *2907:B *968:84 0
12 *343:16 *2909:B1 3.25078e-05
13 *343:20 *2909:B1 2.13884e-05
14 *343:20 *2910:B 0
15 gpio_out[0] *2907:B 0
16 *2848:B *343:14 8.51168e-05
17 *2848:C *343:14 0.000244354
18 *2848:C *343:16 5.41794e-05
19 *2848:D_N *343:14 6.9019e-05
20 *2848:D_N *343:16 1.76135e-05
21 *2850:C *343:14 5.48674e-05
22 *2850:D *343:14 0
23 *2900:C *343:14 0.000179657
24 *2903:A2 *343:20 0
25 *2904:B *2909:A2 5.52238e-05
26 *2908:A *2908:C 0.000139637
27 *3601:D *2907:B 0
28 *3729:A *2907:B 5.11365e-05
29 *153:16 *343:16 4.43046e-05
30 *153:16 *343:20 4.25619e-05
31 *154:23 *2907:B 0
32 *165:29 *343:14 5.7836e-06
33 *303:22 *2908:C 3.25264e-05
34 *303:22 *2909:A2 1.92789e-05
35 *303:22 *343:20 0
36 *307:31 *343:20 4.35141e-05
*RES
1 *2904:X *343:14 21.5321 
2 *343:14 *343:16 1.64286 
3 *343:16 *343:20 4 
4 *343:20 *2907:B 19.1393 
5 *343:20 *2905:A 13.8 
6 *343:16 *2908:C 16.05 
7 *343:14 *2909:A2 14.3357 
*END

*D_NET *344 0.0010505
*CONN
*I *2906:C I *D sky130_fd_sc_hd__and3_1
*I *2905:Y O *D sky130_fd_sc_hd__inv_2
*CAP
1 *2906:C 0.0003865
2 *2905:Y 0.0003865
3 *2903:A1 *2906:C 5.33005e-05
4 *2903:A2 *2906:C 5.52302e-05
5 *2906:A *2906:C 0.00010096
6 *2906:B *2906:C 1.03968e-05
7 *307:31 *2906:C 5.76121e-05
*RES
1 *2905:Y *2906:C 24.6893 
*END

*D_NET *345 0.00563855
*CONN
*I *2913:C I *D sky130_fd_sc_hd__and3_1
*I *2914:A2 I *D sky130_fd_sc_hd__a21oi_1
*I *2912:A2 I *D sky130_fd_sc_hd__a21oi_1
*I *2911:A2 I *D sky130_fd_sc_hd__o21ai_1
*I *2910:A I *D sky130_fd_sc_hd__nor2_1
*I *2908:X O *D sky130_fd_sc_hd__and3_1
*CAP
1 *2913:C 0.000528277
2 *2914:A2 0
3 *2912:A2 0.000329521
4 *2911:A2 0
5 *2910:A 8.68381e-05
6 *2908:X 0.000127608
7 *345:36 0.000466146
8 *345:34 0.000824534
9 *345:25 0.000328364
10 *345:12 0.000383178
11 *2910:A *2910:B 9.83388e-05
12 *2912:A2 *2912:A1 5.52238e-05
13 *2912:A2 *2912:B1 5.52238e-05
14 *2912:A2 *3724:A 1.13345e-05
15 *2913:C *2916:B 5.76121e-05
16 *2913:C *348:6 1.15281e-05
17 *345:12 *2910:B 0.000121573
18 *345:12 *968:84 0.000121573
19 *345:25 *1028:8 3.22022e-05
20 *345:34 *1028:8 0.000142856
21 *345:36 *2912:A1 0
22 *345:36 *2912:B1 0
23 *345:36 *2914:B1 3.47737e-05
24 gpio_oeb[23] *2912:A2 4.14279e-05
25 gpio_out[0] *2912:A2 0.000399841
26 *2847:A *2913:C 9.90431e-05
27 *2847:B *2913:C 0
28 *2847:C *2913:C 0
29 *2851:B *2913:C 0
30 *2908:B *345:12 9.57311e-05
31 *2913:A *2913:C 0.000428847
32 *155:10 *2913:C 3.34366e-05
33 *156:19 *2912:A2 0
34 *156:19 *345:36 0
35 *157:8 *2913:C 0
36 *157:8 *345:36 0
37 *307:12 *2913:C 0
38 *307:31 *2910:A 0.000225982
39 *307:31 *345:25 0.000450249
40 *307:31 *345:34 4.72917e-05
*RES
1 *2908:X *345:12 20.8893 
2 *345:12 *2910:A 11.9071 
3 *345:12 *345:25 4.66071 
4 *345:25 *2911:A2 9.3 
5 *345:25 *345:34 7.91071 
6 *345:34 *345:36 2.25 
7 *345:36 *2912:A2 21.2643 
8 *345:36 *2914:A2 13.8 
9 *345:34 *2913:C 25.0321 
*END

*D_NET *346 0.000174668
*CONN
*I *3722:A I *D sky130_fd_sc_hd__dlygate4sd3_1
*I *2909:Y O *D sky130_fd_sc_hd__a21oi_1
*CAP
1 *3722:A 1.8397e-05
2 *2909:Y 1.8397e-05
3 *2904:B *3722:A 8.9905e-05
4 *303:22 *3722:A 4.79687e-05
*RES
1 *2909:Y *3722:A 19.4616 
*END

*D_NET *347 0.000741509
*CONN
*I *2912:B1 I *D sky130_fd_sc_hd__a21oi_1
*I *2911:Y O *D sky130_fd_sc_hd__o21ai_1
*CAP
1 *2912:B1 0.000227157
2 *2911:Y 0.000227157
3 *2912:B1 *2912:A1 0.000174825
4 gpio_oeb[23] *2912:B1 5.71472e-05
5 *2912:A2 *2912:B1 5.52238e-05
6 *345:36 *2912:B1 0
*RES
1 *2911:Y *2912:B1 32.5107 
*END

*D_NET *348 0.00120256
*CONN
*I *2916:B I *D sky130_fd_sc_hd__xor2_1
*I *2915:A I *D sky130_fd_sc_hd__nor2_1
*I *2913:X O *D sky130_fd_sc_hd__and3_1
*CAP
1 *2916:B 0.000102936
2 *2915:A 0.000361191
3 *2913:X 4.16667e-05
4 *348:6 0.000505794
5 *2915:A *3604:CLK 0
6 *2913:B *2915:A 4.35048e-05
7 *2913:C *2916:B 5.76121e-05
8 *2913:C *348:6 1.15281e-05
9 *3604:D *2915:A 7.8327e-05
10 *156:19 *2915:A 0
11 *156:32 *2915:A 0
*RES
1 *2913:X *348:6 9.83571 
2 *348:6 *2915:A 25.1036 
3 *348:6 *2916:B 11.5143 
*END

*D_NET *349 0.000280816
*CONN
*I *3724:A I *D sky130_fd_sc_hd__dlygate4sd3_1
*I *2914:Y O *D sky130_fd_sc_hd__a21oi_1
*CAP
1 *3724:A 0.000134741
2 *2914:Y 0.000134741
3 *2912:A2 *3724:A 1.13345e-05
4 *3604:D *3724:A 0
*RES
1 *2914:Y *3724:A 29.7786 
*END

*D_NET *350 0.00293225
*CONN
*I *2991:A1 I *D sky130_fd_sc_hd__o31a_1
*I *2968:B2 I *D sky130_fd_sc_hd__o22a_1
*I *3414:C I *D sky130_fd_sc_hd__or4_1
*I *2917:X O *D sky130_fd_sc_hd__or2_1
*CAP
1 *2991:A1 8.62461e-05
2 *2968:B2 0.000136951
3 *3414:C 0.000153616
4 *2917:X 4.36033e-05
5 *350:23 0.00044512
6 *350:8 0.000419142
7 *2968:B2 *2968:A2 1.74352e-05
8 *2968:B2 *382:25 9.09342e-05
9 *2968:B2 *390:42 1.39726e-05
10 *2991:A1 *2985:B1 0.000170654
11 *2991:A1 *382:33 2.39779e-05
12 *2991:A1 *390:42 0.000123295
13 *2991:A1 *395:10 7.80714e-06
14 *2991:A1 *417:10 1.02504e-05
15 *2991:A1 *1070:40 4.38365e-05
16 *2991:A1 *1071:43 3.34366e-05
17 *3414:C *1124:DIODE 0.000146377
18 *3414:C *3414:A 0.000160898
19 *3414:C *1070:22 1.27784e-05
20 *350:8 *3414:A 5.33005e-05
21 *350:23 *2959:B1_N 0
22 *350:23 *3414:A 3.17148e-05
23 *350:23 *384:10 0.00010326
24 *350:23 *385:6 9.99644e-06
25 *350:23 *390:42 1.21258e-05
26 *350:23 *1071:58 0.000136958
27 *2918:C1 *3414:C 0.00014101
28 *2918:C1 *350:23 9.4724e-05
29 *129:81 *350:23 6.07328e-05
30 *131:66 *350:23 0
31 *132:62 *3414:C 0.000148099
*RES
1 *2917:X *350:8 14.3357 
2 *350:8 *3414:C 18.175 
3 *350:8 *350:23 9.53571 
4 *350:23 *2968:B2 11.9071 
5 *350:23 *2991:A1 21.4607 
*END

*D_NET *351 0.000250976
*CONN
*I *2919:B I *D sky130_fd_sc_hd__nand2_1
*I *2918:X O *D sky130_fd_sc_hd__a211o_1
*CAP
1 *2919:B 2.12523e-05
2 *2918:X 2.12523e-05
3 *2919:B *2934:A2 9.80173e-05
4 *2919:A *2919:B 5.52238e-05
5 *132:64 *2919:B 5.52302e-05
*RES
1 *2918:X *2919:B 19.5464 
*END

*D_NET *352 0.00497375
*CONN
*I *2960:A I *D sky130_fd_sc_hd__and3_1
*I *2994:A I *D sky130_fd_sc_hd__and3_4
*I *2965:A1 I *D sky130_fd_sc_hd__a21o_4
*I *2964:A1 I *D sky130_fd_sc_hd__a21oi_4
*I *2934:A1 I *D sky130_fd_sc_hd__o21ba_1
*I *2919:Y O *D sky130_fd_sc_hd__nand2_1
*CAP
1 *2960:A 0
2 *2994:A 0
3 *2965:A1 0.000174264
4 *2964:A1 6.07086e-05
5 *2934:A1 0.000106992
6 *2919:Y 0.00013159
7 *352:41 0.000519019
8 *352:35 0.000396164
9 *352:27 0.00027811
10 *352:8 0.000404573
11 *2934:A1 *2934:A2 5.52238e-05
12 *2934:A1 *3417:A_N 2.79092e-05
13 *2934:A1 *3637:RESET_B 0
14 *2934:A1 *368:12 2.89016e-05
15 *2934:A1 *1068:10 5.5474e-05
16 *2934:A1 *1068:53 3.23658e-05
17 *2964:A1 *2964:A2 8.85532e-05
18 *2964:A1 *390:14 2.44318e-05
19 *2964:A1 *431:10 0.000135028
20 *2965:A1 *2965:B1 0.000233318
21 *2965:A1 *2995:B1 8.11174e-05
22 *2965:A1 *389:10 9.25014e-06
23 *2965:A1 *391:17 0.000301438
24 *2965:A1 *420:16 1.98839e-05
25 *352:8 *2934:A2 4.43256e-05
26 *352:8 *3417:A_N 9.71197e-05
27 *352:27 *2969:B 7.17836e-05
28 *352:27 *3637:RESET_B 0
29 *352:27 *382:25 4.08637e-05
30 *352:27 *385:6 1.07719e-05
31 *352:27 *1068:53 0.000277592
32 *352:35 *3005:A1 5.41794e-05
33 *352:35 *363:25 3.34295e-05
34 *352:35 *382:12 0.000176204
35 *352:35 *382:25 0.000108469
36 *352:35 *385:6 1.82549e-05
37 *352:35 *385:12 0.000102207
38 *352:35 *984:10 0
39 *352:41 *382:12 3.9004e-05
40 *352:41 *385:12 0.000137983
41 *352:41 *385:18 1.98839e-05
42 *352:41 *389:10 0.000201704
43 *352:41 *420:12 6.60598e-05
44 *136:94 *2965:A1 0.000138946
45 *136:94 *352:41 0.000170654
*RES
1 *2919:Y *352:8 15.5679 
2 *352:8 *2934:A1 15.9071 
3 *352:8 *352:27 8.80357 
4 *352:27 *352:35 12.625 
5 *352:35 *352:41 10.5714 
6 *352:41 *2964:A1 15.5679 
7 *352:41 *2965:A1 19.175 
8 *352:35 *2994:A 9.3 
9 *352:27 *2960:A 9.3 
*END

*D_NET *353 0.00297976
*CONN
*I *2921:D I *D sky130_fd_sc_hd__or4_1
*I *2920:X O *D sky130_fd_sc_hd__or4_1
*CAP
1 *2921:D 0
2 *2920:X 0.00102407
3 *353:22 0.00102407
4 *353:22 *2945:B 0
5 *353:22 *2951:B 1.00375e-05
6 *353:22 *2953:A 2.84398e-05
7 *353:22 *3610:CLK 5.25974e-05
8 *353:22 *354:10 9.25014e-06
9 *353:22 *375:14 3.25078e-05
10 *353:22 *378:18 8.92925e-05
11 *353:22 *973:20 1.98839e-05
12 *353:22 *973:81 0.000246056
13 *353:22 *973:87 4.88223e-05
14 *353:22 *1084:87 0.000140499
15 *2920:A *353:22 3.28967e-05
16 *143:49 *353:22 7.83587e-05
17 *144:14 *353:22 4.88104e-05
18 *145:24 *353:22 9.41642e-05
*RES
1 *2920:X *353:22 43.4429 
2 *353:22 *2921:D 9.3 
*END

*D_NET *354 0.00604889
*CONN
*I *2923:A2 I *D sky130_fd_sc_hd__a21oi_1
*I *3332:A I *D sky130_fd_sc_hd__or3b_1
*I *2921:X O *D sky130_fd_sc_hd__or4_1
*CAP
1 *2923:A2 0.000327578
2 *3332:A 0.000105056
3 *2921:X 0.000928445
4 *354:10 0.00136108
5 *2923:A2 *3462:B 0.000110164
6 *2923:A2 *3511:B1 0.000165234
7 *2923:A2 *870:12 5.37664e-05
8 *2923:A2 *975:10 0.000137983
9 *2923:A2 *975:62 3.87133e-05
10 *3332:A *3454:B 2.59355e-05
11 *3332:A *3455:B 1.21258e-05
12 *3332:A *870:12 5.37664e-05
13 *3332:A *975:62 5.54204e-05
14 *354:10 *2945:B 2.28428e-05
15 *354:10 *2945:C 0
16 *354:10 *3410:A2 5.06883e-05
17 *354:10 *3434:A1 2.37761e-05
18 *354:10 *3434:A2 0.000222878
19 *354:10 *3443:A1 9.96264e-05
20 *354:10 *3443:A3 0
21 *354:10 *3462:B 0.000149904
22 *354:10 *3464:A1 6.66345e-05
23 *354:10 *3619:CLK 2.91794e-05
24 *354:10 *375:14 0.000191403
25 *354:10 *857:29 0
26 *354:10 *863:25 2.40261e-05
27 *354:10 *870:12 0.000659302
28 *354:10 *1067:37 0
29 *354:10 *1067:58 0.000264521
30 *354:10 *1075:24 4.038e-06
31 *354:10 *1085:22 0.000215884
32 *2923:A1 *2923:A2 5.33005e-05
33 *2949:A1 *354:10 0
34 *3433:B1 *354:10 4.75715e-05
35 *3625:D *2923:A2 0.000122879
36 *118:61 *2923:A2 0.000139402
37 *143:49 *354:10 5.74562e-05
38 *145:24 *354:10 5.33005e-05
39 *146:46 *354:10 0.000101545
40 *148:73 *2923:A2 6.42095e-05
41 *353:22 *354:10 9.25014e-06
*RES
1 *2921:X *354:10 36.3179 
2 *354:10 *3332:A 24.4786 
3 *354:10 *2923:A2 22.2821 
*END

*D_NET *355 0.00200295
*CONN
*I *2924:A1 I *D sky130_fd_sc_hd__o21ai_1
*I *3422:B2 I *D sky130_fd_sc_hd__o22a_1
*I *2922:Y O *D sky130_fd_sc_hd__nand2_1
*CAP
1 *2924:A1 0
2 *3422:B2 0.000247864
3 *2922:Y 0.000262704
4 *355:12 0.000510568
5 *3422:B2 *3420:C 2.07491e-05
6 *3422:B2 *3420:D_N 0.000342735
7 *3422:B2 *3422:A2 1.39726e-05
8 *3422:B2 *3422:B1 0
9 *355:12 *2925:A2 3.48013e-05
10 *355:12 *851:33 2.11372e-05
11 *3420:A *3422:B2 5.71472e-05
12 *3422:A1 *3422:B2 7.26753e-05
13 *121:25 *355:12 0.000144635
14 *148:45 *355:12 7.48679e-06
15 *148:49 *355:12 0.000266473
*RES
1 *2922:Y *355:12 22.8357 
2 *355:12 *3422:B2 15.3357 
3 *355:12 *2924:A1 9.3 
*END

*D_NET *356 0.00221243
*CONN
*I *2924:A2 I *D sky130_fd_sc_hd__o21ai_1
*I *2923:Y O *D sky130_fd_sc_hd__a21oi_1
*CAP
1 *2924:A2 0.000826405
2 *2923:Y 0.000826405
3 *2924:A2 *3625:CLK 3.14193e-05
4 *2924:A2 *3682:A 3.42387e-05
5 *2924:A2 *879:22 0
6 *2924:A2 *1086:109 2.8266e-06
7 *2924:B1 *2924:A2 0.000225609
8 *3625:D *2924:A2 5.52238e-05
9 *127:12 *2924:A2 1.29227e-05
10 *147:70 *2924:A2 0.000197378
*RES
1 *2923:Y *2924:A2 40.2964 
*END

*D_NET *357 0.00190878
*CONN
*I *2925:A2 I *D sky130_fd_sc_hd__a211o_1
*I *2924:Y O *D sky130_fd_sc_hd__o21ai_1
*CAP
1 *2925:A2 0.000348135
2 *2924:Y 0.000348135
3 *2925:A2 *2925:A1 5.33005e-05
4 *2925:A2 *3511:A2 0.000567284
5 *2925:A2 *3649:A 0.000115961
6 *2925:A2 *967:177 2.24195e-05
7 *2925:A2 *975:10 5.41794e-05
8 *2925:B1 *2925:A2 4.56796e-05
9 *118:61 *2925:A2 0.000178847
10 *121:25 *2925:A2 1.18451e-05
11 *148:45 *2925:A2 0.000100476
12 *148:49 *2925:A2 2.77173e-05
13 *355:12 *2925:A2 3.48013e-05
*RES
1 *2924:Y *2925:A2 36.975 
*END

*D_NET *358 0.00586863
*CONN
*I *2929:A2 I *D sky130_fd_sc_hd__a21oi_1
*I *2925:X O *D sky130_fd_sc_hd__a211o_1
*CAP
1 *2929:A2 0.000560059
2 *2925:X 0.000560059
3 *2929:A2 *3524:A 0.000549806
4 *2929:A2 *3527:B1 3.623e-05
5 *2929:A2 *3531:C 2.72228e-05
6 *2929:A2 *1070:12 0.000538353
7 *2929:A2 *1070:14 0.000366697
8 *2929:A2 *1070:16 0.000801233
9 *2929:A2 *1071:24 0.00239148
10 *2929:A2 *1073:50 1.02504e-05
11 *2929:A2 *1073:54 6.10018e-06
12 *3422:A1 *2929:A2 2.11419e-05
*RES
1 *2925:X *2929:A2 38.768 
*END

*D_NET *359 0.00123891
*CONN
*I *2959:B1_N I *D sky130_fd_sc_hd__o21bai_4
*I *2928:C I *D sky130_fd_sc_hd__or4_1
*I *2926:X O *D sky130_fd_sc_hd__or4bb_1
*CAP
1 *2959:B1_N 0.000201856
2 *2928:C 0.000125557
3 *2926:X 3.92213e-05
4 *359:8 0.000366633
5 *2928:C *2928:D 2.28598e-05
6 *2928:C *2934:A2 9.90367e-05
7 *2928:C *3417:A_N 0.000186669
8 *2928:C *1073:54 0
9 *2959:B1_N *2979:B2 4.1331e-06
10 *2959:B1_N *384:10 0
11 *2959:B1_N *384:19 0
12 *359:8 *3417:A_N 5.52302e-05
13 *2928:B *2959:B1_N 0
14 *125:59 *2959:B1_N 0
15 *129:56 *2928:C 1.95646e-05
16 *131:53 *2928:C 2.24537e-05
17 *131:66 *2928:C 5.80706e-06
18 *131:66 *2959:B1_N 8.98897e-05
19 *350:23 *2959:B1_N 0
*RES
1 *2926:X *359:8 14.3357 
2 *359:8 *2928:C 16.9607 
3 *359:8 *2959:B1_N 17.8714 
*END

*D_NET *360 0.00139385
*CONN
*I *2928:D I *D sky130_fd_sc_hd__or4_1
*I *3414:D I *D sky130_fd_sc_hd__or4_1
*I *2927:Y O *D sky130_fd_sc_hd__nand2b_1
*CAP
1 *2928:D 9.85775e-05
2 *3414:D 0.000387141
3 *2927:Y 0
4 *360:4 0.000485718
5 *2928:D *2926:A 4.1834e-05
6 *2928:D *2934:A2 0.000140859
7 *2928:D *3411:A 7.69776e-06
8 *3414:D *3415:C 9.6561e-06
9 *3414:D *1061:170 2.40379e-05
10 *2928:C *2928:D 2.28598e-05
11 *129:56 *2928:D 0.000139913
12 *131:40 *3414:D 3.55552e-05
*RES
1 *2927:Y *360:4 9.3 
2 *360:4 *3414:D 13.9607 
3 *360:4 *2928:D 20.9964 
*END

*D_NET *361 0.000589691
*CONN
*I *2929:B1 I *D sky130_fd_sc_hd__a21oi_1
*I *2928:X O *D sky130_fd_sc_hd__or4_1
*CAP
1 *2929:B1 0.000166209
2 *2928:X 0.000166209
3 *2929:B1 *2934:A2 1.95772e-05
4 *2929:B1 *3411:A 0
5 *2929:B1 *1073:54 9.77884e-05
6 *129:56 *2929:B1 0.000139907
*RES
1 *2928:X *2929:B1 30.2964 
*END

*D_NET *362 0.00301099
*CONN
*I *2934:A2 I *D sky130_fd_sc_hd__o21ba_1
*I *2929:Y O *D sky130_fd_sc_hd__a21oi_1
*CAP
1 *2934:A2 0.000562406
2 *2929:Y 0.000562406
3 *2934:A2 *2926:A 0
4 *2934:A2 *2927:B 1.25355e-05
5 *2934:A2 *3417:A_N 0.000919037
6 *2934:A2 *368:12 2.58706e-05
7 *2918:C1 *2934:A2 5.52238e-05
8 *2919:A *2934:A2 4.68019e-05
9 *2919:B *2934:A2 9.80173e-05
10 *2926:C_N *2934:A2 6.57914e-05
11 *2928:C *2934:A2 9.90367e-05
12 *2928:D *2934:A2 0.000140859
13 *2929:B1 *2934:A2 1.95772e-05
14 *2934:A1 *2934:A2 5.52238e-05
15 *126:74 *2934:A2 5.80591e-05
16 *129:56 *2934:A2 9.94188e-05
17 *131:40 *2934:A2 1.63181e-05
18 *132:64 *2934:A2 0.000130079
19 *352:8 *2934:A2 4.43256e-05
*RES
1 *2929:Y *2934:A2 42.8232 
*END

*D_NET *363 0.00228234
*CONN
*I *3005:A1 I *D sky130_fd_sc_hd__a22oi_2
*I *2994:B I *D sky130_fd_sc_hd__and3_4
*I *2935:A1 I *D sky130_fd_sc_hd__a21o_1
*I *2930:Y O *D sky130_fd_sc_hd__nor3_1
*CAP
1 *3005:A1 0.000125761
2 *2994:B 1.40568e-05
3 *2935:A1 9.76186e-05
4 *2930:Y 9.9383e-05
5 *363:25 0.000432388
6 *363:6 0.000489572
7 *2935:A1 *985:20 0.00012401
8 *2994:B *382:12 2.89016e-05
9 *2994:B *385:12 5.52238e-05
10 *3005:A1 *3005:B1 1.02504e-05
11 *3005:A1 *386:8 5.26091e-05
12 *3005:A1 *390:34 1.92905e-05
13 *3005:A1 *984:10 0
14 *3005:A1 *985:20 0.000103842
15 *363:6 *1068:14 0.000139907
16 *363:25 *984:10 0
17 *363:25 *985:20 0.000158426
18 *363:25 *1068:14 0.00012747
19 *2935:B1 *2935:A1 8.25512e-05
20 *3005:B2 *2935:A1 3.34687e-05
21 *352:35 *3005:A1 5.41794e-05
22 *352:35 *363:25 3.34295e-05
*RES
1 *2930:Y *363:6 10.6571 
2 *363:6 *2935:A1 20.4786 
3 *363:6 *363:25 9.92857 
4 *363:25 *2994:B 14.3357 
5 *363:25 *3005:A1 17.1929 
*END

*D_NET *364 0.000837312
*CONN
*I *2963:A I *D sky130_fd_sc_hd__or4_4
*I *2931:X O *D sky130_fd_sc_hd__or3_4
*CAP
1 *2963:A 0.000139788
2 *2931:X 0.000139788
3 *2963:A *2931:A 5.52238e-05
4 *2963:A *2931:B 3.97677e-05
5 *2963:A *2963:C 2.04318e-05
6 *2963:A *365:6 0.000312209
7 *2931:C *2963:A 8.17139e-05
8 *2963:B *2963:A 3.28018e-05
9 *141:25 *2963:A 1.55885e-05
*RES
1 *2931:X *2963:A 22.8321 
*END

*D_NET *365 0.00245436
*CONN
*I *2963:C I *D sky130_fd_sc_hd__or4_4
*I *2933:D I *D sky130_fd_sc_hd__or4_1
*I *2956:A1 I *D sky130_fd_sc_hd__o21a_2
*I *2957:A1 I *D sky130_fd_sc_hd__o21ai_2
*I *2932:X O *D sky130_fd_sc_hd__or2_1
*CAP
1 *2963:C 8.47653e-06
2 *2933:D 8.13365e-05
3 *2956:A1 0
4 *2957:A1 0
5 *2932:X 0.000133663
6 *365:19 9.5625e-05
7 *365:12 9.56242e-05
8 *365:6 0.000223476
9 *2933:D *2956:A2 4.27935e-05
10 *2933:D *3637:RESET_B 6.27058e-05
11 *365:12 *380:19 0.000169939
12 *365:12 *380:30 5.58941e-05
13 *365:12 *383:14 0.000216297
14 *365:19 *2956:A2 5.52238e-05
15 *2933:A *2933:D 5.52302e-05
16 *2933:C *2933:D 0.000183726
17 *2963:A *2963:C 2.04318e-05
18 *2963:A *365:6 0.000312209
19 *2963:B *2963:C 3.28686e-05
20 *2963:B *365:6 0.000356022
21 *141:25 *365:6 6.15352e-05
22 *141:79 *2933:D 0.000137983
23 *141:79 *365:19 5.33005e-05
*RES
1 *2932:X *365:6 13.9429 
2 *365:6 *365:12 11.8571 
3 *365:12 *2957:A1 9.3 
4 *365:12 *365:19 0.535714 
5 *365:19 *2956:A1 9.3 
6 *365:19 *2933:D 12.3 
7 *365:6 *2963:C 9.63036 
*END

*D_NET *366 0.00766759
*CONN
*I *3419:A I *D sky130_fd_sc_hd__or2_1
*I *2934:B1_N I *D sky130_fd_sc_hd__o21ba_1
*I *2933:X O *D sky130_fd_sc_hd__or4_1
*CAP
1 *3419:A 0.00192591
2 *2934:B1_N 2.68489e-05
3 *2933:X 0.000310224
4 *366:10 0.00226298
5 *2934:B1_N *984:10 4.50033e-05
6 *3419:A *3419:B 4.6025e-06
7 *3419:A *3506:A2 0.000733407
8 *3419:A *3527:B1 0.000837095
9 *3419:A *3527:B2 0.00010416
10 *3419:A *3531:C 6.93417e-05
11 *3419:A *1061:12 0
12 *3419:A *1070:10 2.07728e-05
13 *3419:A *1070:14 1.39702e-05
14 *3419:A *1070:16 0.000452695
15 *3419:A *1070:22 0.000168825
16 *3419:A *1071:30 1.37319e-05
17 *366:10 *3414:A 0.000356028
18 *366:10 *984:10 0.000111339
19 *122:102 *3419:A 9.83051e-06
20 *129:48 *3419:A 0.000200828
*RES
1 *2933:X *366:10 18.7018 
2 *366:10 *2934:B1_N 14.3804 
3 *366:10 *3419:A 26.5803 
*END

*D_NET *367 0.000757873
*CONN
*I *2935:A2 I *D sky130_fd_sc_hd__a21o_1
*I *2934:X O *D sky130_fd_sc_hd__o21ba_1
*CAP
1 *2935:A2 0.000122151
2 *2934:X 0.000122151
3 *2935:A2 *368:12 5.76121e-05
4 *2935:A2 *1068:14 0.000356028
5 *2935:A2 *1068:18 5.7661e-06
6 *2935:B1 *2935:A2 9.41642e-05
*RES
1 *2934:X *2935:A2 22.4393 
*END

*D_NET *368 0.0154346
*CONN
*I *3684:A I *D sky130_fd_sc_hd__clkbuf_4
*I *3536:B1 I *D sky130_fd_sc_hd__a31o_1
*I *2935:X O *D sky130_fd_sc_hd__a21o_1
*CAP
1 *3684:A 0
2 *3536:B1 0.00424293
3 *2935:X 0.00046252
4 *368:12 0.00470545
5 *3536:B1 *3534:A1 0.00405819
6 *3536:B1 *3536:A1 2.06112e-05
7 *3536:B1 *3536:A3 2.06112e-05
8 *3536:B1 *3541:A2 0
9 *3536:B1 *3551:B1 2.93957e-05
10 *3536:B1 *3637:RESET_B 0.000277922
11 *3536:B1 *1061:12 0
12 *3536:B1 *1061:176 0.000781525
13 *3536:B1 *1068:10 0
14 *3536:B1 *1071:30 0
15 *3536:B1 *1082:36 0.000139886
16 *368:12 *3417:A_N 7.83587e-05
17 *368:12 *3637:RESET_B 6.57521e-05
18 *368:12 *1068:14 4.47653e-05
19 *2919:A *368:12 1.24368e-05
20 *2934:A1 *368:12 2.89016e-05
21 *2934:A2 *368:12 2.58706e-05
22 *2935:A2 *368:12 5.76121e-05
23 *3414:B *3536:B1 6.21521e-06
24 *3455:A *3536:B1 0.000375617
25 *3663:A *3536:B1 0
*RES
1 *2935:X *368:12 20.7286 
2 *368:12 *3536:B1 36.3112 
3 *368:12 *3684:A 13.8 
*END

*D_NET *369 0.0301039
*CONN
*I *3540:B1 I *D sky130_fd_sc_hd__a21o_1
*I *3425:A I *D sky130_fd_sc_hd__and2_1
*I *1093:DIODE I *D sky130_fd_sc_hd__diode_2
*I *3428:B1 I *D sky130_fd_sc_hd__a21o_1
*I *3529:C1 I *D sky130_fd_sc_hd__o221ai_2
*I *1101:DIODE I *D sky130_fd_sc_hd__diode_2
*I *1099:DIODE I *D sky130_fd_sc_hd__diode_2
*I *3502:C1 I *D sky130_fd_sc_hd__o221ai_2
*I *3519:A1 I *D sky130_fd_sc_hd__a31o_1
*I *1100:DIODE I *D sky130_fd_sc_hd__diode_2
*I *1095:DIODE I *D sky130_fd_sc_hd__diode_2
*I *3450:A1 I *D sky130_fd_sc_hd__a31oi_1
*I *1096:DIODE I *D sky130_fd_sc_hd__diode_2
*I *3449:B1 I *D sky130_fd_sc_hd__a21oi_1
*I *3470:B1 I *D sky130_fd_sc_hd__a21o_1
*I *1098:DIODE I *D sky130_fd_sc_hd__diode_2
*I *1094:DIODE I *D sky130_fd_sc_hd__diode_2
*I *1103:DIODE I *D sky130_fd_sc_hd__diode_2
*I *1092:DIODE I *D sky130_fd_sc_hd__diode_2
*I *1110:DIODE I *D sky130_fd_sc_hd__diode_2
*I *3565:A1_N I *D sky130_fd_sc_hd__a2bb2o_1
*I *2936:Y O *D sky130_fd_sc_hd__inv_2
*CAP
1 *3540:B1 0
2 *3425:A 0
3 *1093:DIODE 1.42885e-05
4 *3428:B1 0
5 *3529:C1 4.30133e-05
6 *1101:DIODE 0
7 *1099:DIODE 0.000146985
8 *3502:C1 1.55032e-05
9 *3519:A1 0
10 *1100:DIODE 7.25672e-05
11 *1095:DIODE 0
12 *3450:A1 0
13 *1096:DIODE 6.68605e-05
14 *3449:B1 0
15 *3470:B1 0.000105124
16 *1098:DIODE 0.000126799
17 *1094:DIODE 0
18 *1103:DIODE 0
19 *1092:DIODE 0
20 *1110:DIODE 0
21 *3565:A1_N 0.000253368
22 *2936:Y 0.000158612
23 *369:246 1.42885e-05
24 *369:199 0.000852677
25 *369:183 0.000988449
26 *369:179 0.000543691
27 *369:171 0.000242112
28 *369:169 0.000922615
29 *369:154 0.000903228
30 *369:140 0.000202371
31 *369:129 0.00124788
32 *369:104 0.00145894
33 *369:85 0.000655234
34 *369:81 0.00030744
35 *369:72 0.000344626
36 *369:66 0.00152236
37 *369:54 0.00147178
38 *369:43 0.00188455
39 *369:28 0.00188326
40 *369:12 0.000677067
41 *369:6 0.000792754
42 *1093:DIODE *3638:CLK 5.33005e-05
43 *1093:DIODE *3638:RESET_B 5.52238e-05
44 *1096:DIODE *3444:A2 7.77751e-05
45 *1098:DIODE *3423:D_N 0.000194617
46 *1098:DIODE *3471:A2 8.07951e-05
47 *1098:DIODE *3471:A3 6.05161e-06
48 *1098:DIODE *3628:RESET_B 3.9008e-05
49 *1098:DIODE *900:8 0.000137983
50 *1098:DIODE *1062:67 4.43142e-05
51 *1099:DIODE *813:6 3.69047e-06
52 *1099:DIODE *1036:18 0.000165085
53 *1100:DIODE *3519:A2 2.89114e-05
54 *1100:DIODE *3519:A3 9.60939e-05
55 *1100:DIODE *917:32 0.00010992
56 *3470:B1 *3471:B1 1.52978e-05
57 *3470:B1 *3628:RESET_B 4.447e-05
58 *3470:B1 *1062:67 0
59 *3502:C1 *3502:B2 2.83284e-06
60 *3502:C1 *814:35 5.58875e-06
61 *3565:A1_N *3565:B2 5.25759e-05
62 *3565:A1_N *1081:123 2.51343e-06
63 *369:6 *2936:A 0.000145323
64 *369:12 *1081:123 0
65 *369:28 *2936:A 0.000214052
66 *369:28 *3552:B 4.88637e-05
67 *369:43 *3541:B1 0.000150698
68 *369:43 *3544:B 0.000126566
69 *369:43 *3548:A2_N 9.18051e-05
70 *369:43 *3548:B1 5.52302e-05
71 *369:43 *3550:B1 2.28499e-05
72 *369:43 *3552:B 0.00021692
73 *369:43 *3554:A3 9.91086e-05
74 *369:43 *942:33 0.000481575
75 *369:43 *952:16 0.00103833
76 *369:43 *956:8 9.7659e-05
77 *369:43 *967:131 0
78 *369:43 *1061:123 0.000140822
79 *369:43 *1064:42 0.000109593
80 *369:43 *1064:49 1.39726e-05
81 *369:43 *1069:12 0
82 *369:43 *1082:8 0.000244004
83 *369:54 *942:25 5.52238e-05
84 *369:54 *942:33 8.76257e-05
85 *369:66 *3621:CLK 0.000151071
86 *369:66 *3638:CLK 1.08359e-05
87 *369:66 *1083:31 0
88 *369:66 *1086:180 0.000154646
89 *369:72 *3638:CLK 0.000146474
90 *369:72 *1060:55 0.000123673
91 *369:81 *3428:A2 1.3701e-05
92 *369:81 *1060:55 8.71278e-05
93 *369:85 *3423:D_N 0.000229325
94 *369:85 *3428:A1 5.80706e-06
95 *369:85 *3428:A2 0.000100831
96 *369:85 *379:22 0
97 *369:85 *1083:23 0
98 *369:104 *3619:CLK 2.54492e-05
99 *369:104 *3619:RESET_B 6.27272e-06
100 *369:104 *1062:67 9.25014e-06
101 *369:129 *3449:A1 0.000349111
102 *369:129 *3450:B1 1.69108e-05
103 *369:129 *3619:CLK 0.000227148
104 *369:140 *3450:B1 6.5185e-05
105 *369:140 *1014:79 3.47375e-05
106 *369:140 *1059:26 0
107 *369:169 *3453:A3 0
108 *369:169 *3453:B1 0
109 *369:169 *3475:A 0
110 *369:169 *3534:A1 0
111 *369:169 *758:16 0.000169529
112 *369:169 *798:37 0.000193833
113 *369:169 *892:12 0
114 *369:169 *997:30 0
115 *369:169 *1059:12 3.0987e-05
116 *369:169 *1059:14 5.44167e-05
117 *369:169 *1059:16 6.22029e-05
118 *369:169 *1059:18 3.52655e-05
119 *369:169 *1059:26 9.69119e-06
120 *369:169 *1059:56 0.000140933
121 *369:169 *1059:107 0.00017309
122 *369:169 *1086:85 0.000196262
123 *369:171 *3529:B2 0
124 *369:179 *813:6 2.95726e-05
125 *369:179 *814:14 6.05161e-06
126 *369:179 *997:30 0.000180602
127 *369:179 *1059:107 6.76574e-05
128 *369:183 *3387:A 0
129 *369:183 *814:14 7.2754e-05
130 *369:183 *814:35 1.83776e-05
131 *369:183 *997:30 1.40849e-05
132 *369:183 *1042:18 0
133 *369:199 *3513:B 4.11173e-05
134 *369:199 *3519:A2 0.000235947
135 *369:199 *3519:A3 0.000502182
136 *369:199 *3519:B1 5.33005e-05
137 *369:199 *3527:B1 0
138 *369:199 *819:18 0.000606656
139 *369:199 *822:14 0.00022266
140 *369:199 *917:32 2.24813e-05
141 *3417:B *369:54 0
142 *3427:A *369:85 1.00375e-05
143 *3447:A *369:129 1.95646e-05
144 *3549:B *369:43 0.000219711
145 *3552:A *369:12 0.000289441
146 *3553:A1 *369:43 9.10431e-06
147 *3564:A1 *3565:A1_N 1.02937e-05
148 *3621:D *369:66 0.00014285
149 *3688:A *369:81 0.000184745
150 *3688:A *369:85 5.53406e-05
151 *118:85 *369:199 1.31235e-05
152 *121:10 *369:129 5.71472e-05
153 *123:12 *369:66 0
154 *126:18 *1100:DIODE 9.60875e-05
155 *132:26 *369:54 0.000174329
156 *132:26 *369:66 3.22325e-05
157 *141:25 *3565:A1_N 5.48009e-05
158 *146:98 *369:85 4.97121e-06
159 *146:112 *369:66 4.884e-05
160 *146:112 *369:72 0.000570226
161 *146:112 *369:81 0.000354105
162 *146:116 *369:54 0
163 *146:116 *369:66 0
164 *148:73 *3529:C1 4.58976e-05
165 *148:73 *369:169 5.33433e-05
166 *150:47 *369:72 0
167 *254:62 *369:66 0.000185799
*RES
1 *2936:Y *369:6 11.4786 
2 *369:6 *369:12 17.3214 
3 *369:12 *3565:A1_N 12.6214 
4 *369:12 *1110:DIODE 9.3 
5 *369:6 *369:28 3 
6 *369:28 *1092:DIODE 9.3 
7 *369:28 *369:43 42.875 
8 *369:43 *1103:DIODE 9.3 
9 *369:43 *369:54 8.71429 
10 *369:54 *369:66 27.7679 
11 *369:66 *369:72 11.9107 
12 *369:72 *1094:DIODE 9.3 
13 *369:72 *369:81 3.83929 
14 *369:81 *369:85 9.63393 
15 *369:85 *1098:DIODE 17.8625 
16 *369:85 *369:104 8.61607 
17 *369:104 *3470:B1 19.9429 
18 *369:104 *369:129 16.1607 
19 *369:129 *3449:B1 9.3 
20 *369:129 *369:140 11.8571 
21 *369:140 *1096:DIODE 10.6571 
22 *369:140 *3450:A1 9.3 
23 *369:129 *369:154 0.946429 
24 *369:154 *1095:DIODE 9.3 
25 *369:154 *369:169 26.5179 
26 *369:169 *369:171 0.732143 
27 *369:171 *369:179 13.4107 
28 *369:179 *369:183 7.50893 
29 *369:183 *369:199 21.6349 
30 *369:199 *1100:DIODE 11.4786 
31 *369:199 *3519:A1 9.3 
32 *369:183 *3502:C1 14.0768 
33 *369:179 *1099:DIODE 11.4786 
34 *369:171 *1101:DIODE 9.3 
35 *369:169 *3529:C1 10.2464 
36 *369:81 *3428:B1 9.3 
37 *369:66 *369:246 4.5 
38 *369:246 *1093:DIODE 9.83571 
39 *369:246 *3425:A 9.3 
40 *369:54 *3540:B1 13.8 
*END

*D_NET *370 0.004836
*CONN
*I *2939:A I *D sky130_fd_sc_hd__nor2_1
*I *2946:A3 I *D sky130_fd_sc_hd__a31o_1
*I *2941:B I *D sky130_fd_sc_hd__or2_1
*I *2940:B I *D sky130_fd_sc_hd__nand2_1
*I *2937:X O *D sky130_fd_sc_hd__and3_1
*CAP
1 *2939:A 0.000265258
2 *2946:A3 2.76349e-05
3 *2941:B 0.000280569
4 *2940:B 5.37304e-05
5 *2937:X 0
6 *370:14 0.000559837
7 *370:8 0.000612414
8 *370:6 0.000624501
9 *2939:A *3615:CLK 0
10 *2939:A *379:12 0.000280021
11 *2939:A *379:16 0.000443654
12 *2939:A *379:53 5.33005e-05
13 *2939:A *836:20 0.000487467
14 *2939:A *967:84 0
15 *2941:B *2942:B 1.90303e-05
16 *2941:B *973:32 1.18064e-05
17 *2941:B *1084:34 0.000181663
18 *370:8 *2947:B 0.000170055
19 *370:8 *3615:RESET_B 0
20 *370:8 *379:12 0.000197991
21 *370:8 *967:84 0
22 *370:8 *1084:41 0
23 *370:14 *1084:34 0
24 *370:14 *1084:41 0
25 *2937:A *370:8 6.76272e-05
26 *2944:D *370:14 0
27 *2946:A1 *370:14 5.41573e-05
28 *2946:A2 *370:14 1.21955e-05
29 *2950:A *370:8 0
30 *3433:A1 *2939:A 2.56694e-05
31 *117:12 *370:8 5.5782e-05
32 *128:16 *2940:B 9.41642e-05
33 *128:16 *370:14 0.000228558
34 *142:8 *2946:A3 2.89114e-05
35 *142:16 *370:8 0
*RES
1 *2937:X *370:6 13.8 
2 *370:6 *370:8 8.01786 
3 *370:8 *370:14 9.53571 
4 *370:14 *2940:B 10.2464 
5 *370:14 *2941:B 23.2464 
6 *370:8 *2946:A3 14.3357 
7 *370:6 *2939:A 22.5143 
*END

*D_NET *371 0.00177647
*CONN
*I *2939:B I *D sky130_fd_sc_hd__nor2_1
*I *2938:Y O *D sky130_fd_sc_hd__a21oi_1
*CAP
1 *2939:B 0.000490565
2 *2938:Y 0.000490565
3 *2939:B *2938:A2 9.1235e-05
4 *2939:B *2947:B 0.000188586
5 *2939:B *379:22 1.02504e-05
6 *2939:B *1060:55 2.23987e-05
7 *2938:A1 *2939:B 0
8 *3606:D *2939:B 0.00048287
9 *255:68 *2939:B 0
10 *255:70 *2939:B 0
*RES
1 *2938:Y *2939:B 38.2964 
*END

*D_NET *372 0.00132905
*CONN
*I *2942:A I *D sky130_fd_sc_hd__and2_1
*I *2943:B I *D sky130_fd_sc_hd__xnor2_1
*I *2940:Y O *D sky130_fd_sc_hd__nand2_1
*CAP
1 *2942:A 3.59657e-05
2 *2943:B 0.000163575
3 *2940:Y 0.000141931
4 *372:8 0.000341472
5 *2942:A *2943:A 1.58163e-05
6 *2943:B *2943:A 4.57352e-05
7 *2943:B *3608:CLK 0.000200406
8 *372:8 *3608:CLK 0.000200413
9 *372:8 *973:32 0.000117196
10 *2941:A *372:8 6.65398e-05
*RES
1 *2940:Y *372:8 17.8714 
2 *372:8 *2943:B 17.6036 
3 *372:8 *2942:A 14.3357 
*END

*D_NET *373 0.000590347
*CONN
*I *2942:B I *D sky130_fd_sc_hd__and2_1
*I *2941:X O *D sky130_fd_sc_hd__or2_1
*CAP
1 *2942:B 0.000181586
2 *2941:X 0.000181586
3 *2942:B *2943:A 3.18676e-05
4 *2942:B *3608:CLK 0.000150618
5 *2941:B *2942:B 1.90303e-05
6 *3607:D *2942:B 2.56601e-05
*RES
1 *2941:X *2942:B 31.0286 
*END

*D_NET *374 0.00224734
*CONN
*I *2945:C I *D sky130_fd_sc_hd__and3_1
*I *2952:D I *D sky130_fd_sc_hd__and4_1
*I *2944:X O *D sky130_fd_sc_hd__and4_1
*CAP
1 *2945:C 0.000147874
2 *2952:D 0.0001964
3 *2944:X 0.00012646
4 *374:10 0.000470733
5 *2945:C *2945:B 7.83659e-05
6 *2945:C *3434:A1 6.7833e-05
7 *2945:C *3615:CLK 0.000248486
8 *2945:C *973:24 0.000117189
9 *374:10 *973:24 0.000191403
10 *2921:C *2945:C 4.56437e-05
11 *2952:C *2945:C 0.000100831
12 *2952:C *2952:D 0.000222666
13 *2952:C *374:10 3.17148e-05
14 *117:8 *2952:D 1.15172e-05
15 *117:23 *374:10 2.89114e-05
16 *143:32 *374:10 5.99324e-05
17 *143:49 *2945:C 2.04866e-05
18 *143:49 *374:10 2.04866e-05
19 *146:46 *2945:C 6.04072e-05
20 *354:10 *2945:C 0
*RES
1 *2944:X *374:10 16.8893 
2 *374:10 *2952:D 16.3893 
3 *374:10 *2945:C 19.0857 
*END

*D_NET *375 0.00564186
*CONN
*I *2949:A2 I *D sky130_fd_sc_hd__a21oi_1
*I *2948:B I *D sky130_fd_sc_hd__xor2_1
*I *2950:C I *D sky130_fd_sc_hd__and3_1
*I *2947:A_N I *D sky130_fd_sc_hd__and2b_1
*I *2945:X O *D sky130_fd_sc_hd__and3_1
*CAP
1 *2949:A2 0.000117874
2 *2948:B 9.21661e-05
3 *2950:C 0
4 *2947:A_N 0.000715237
5 *2945:X 8.04434e-05
6 *375:18 0.000834002
7 *375:14 0.000652362
8 *375:6 0.000639748
9 *2947:A_N *2938:A2 3.18676e-05
10 *2947:A_N *2938:B1 4.72818e-05
11 *2947:A_N *2947:B 9.22103e-06
12 *2947:A_N *3654:A 2.14658e-05
13 *2947:A_N *973:32 0.000613013
14 *2948:B *2948:A 0.000186662
15 *2949:A2 *2951:A 1.3701e-05
16 *2949:A2 *3434:B1 5.84782e-05
17 *375:6 *3434:A1 2.89016e-05
18 *375:14 *2949:B1 0
19 *375:14 *1084:87 0
20 *2920:B *2948:B 8.18698e-05
21 *2920:B *375:14 2.59355e-05
22 *2920:B *375:18 6.05161e-06
23 *2920:D *2948:B 0.00040381
24 *2938:A1 *2947:A_N 3.48705e-05
25 *2944:B *375:14 7.14469e-05
26 *2944:D *2947:A_N 7.14469e-05
27 *2950:A *2947:A_N 3.07021e-05
28 *2950:B *2947:A_N 3.03221e-06
29 *2950:B *375:18 0.000132287
30 *128:47 *375:14 5.55405e-05
31 *139:23 *2948:B 5.33005e-05
32 *139:23 *375:18 1.38323e-05
33 *142:8 *375:18 0
34 *143:32 *375:14 0.000102794
35 *143:49 *375:14 2.78822e-05
36 *144:10 *375:14 5.33882e-05
37 *144:36 *375:14 0.000107334
38 *353:22 *375:14 3.25078e-05
39 *354:10 *375:14 0.000191403
*RES
1 *2945:X *375:6 10.2464 
2 *375:6 *375:14 18.4643 
3 *375:14 *375:18 2.42857 
4 *375:18 *2947:A_N 28.7107 
5 *375:18 *2950:C 9.3 
6 *375:14 *2948:B 13.9607 
7 *375:6 *2949:A2 11.8179 
*END

*D_NET *376 0.00149213
*CONN
*I *2947:B I *D sky130_fd_sc_hd__and2b_1
*I *2946:X O *D sky130_fd_sc_hd__a31o_1
*CAP
1 *2947:B 0.000380805
2 *2946:X 0.000380805
3 *2947:B *2938:A2 7.77751e-05
4 *2947:B *2938:B1 9.31893e-05
5 *2947:B *973:32 4.8843e-05
6 *2947:B *1084:41 0
7 *2938:A1 *2947:B 0.00014285
8 *2939:B *2947:B 0.000188586
9 *2947:A_N *2947:B 9.22103e-06
10 *370:8 *2947:B 0.000170055
*RES
1 *2946:X *2947:B 36.1357 
*END

*D_NET *377 0.000486169
*CONN
*I *2951:A I *D sky130_fd_sc_hd__nor2_1
*I *2949:Y O *D sky130_fd_sc_hd__a21oi_1
*CAP
1 *2951:A 0.000198274
2 *2949:Y 0.000198274
3 *2951:A *3435:A3 4.70078e-05
4 *2949:A2 *2951:A 1.3701e-05
5 *243:10 *2951:A 2.89114e-05
*RES
1 *2949:Y *2951:A 22.4571 
*END

*D_NET *378 0.00345749
*CONN
*I *2951:B I *D sky130_fd_sc_hd__nor2_1
*I *2953:B I *D sky130_fd_sc_hd__xor2_1
*I *2950:X O *D sky130_fd_sc_hd__and3_1
*CAP
1 *2951:B 0.000261777
2 *2953:B 0
3 *2950:X 0.00100774
4 *378:18 0.00126952
5 *2951:B *2949:B1 0
6 *2951:B *2953:A 0.00012501
7 *2951:B *3614:RESET_B 0
8 *2951:B *3616:CLK 0
9 *2951:B *973:12 3.75052e-05
10 *378:18 *1084:87 0
11 *2920:A *378:18 0.000123126
12 *2920:C *378:18 9.26125e-05
13 *2920:D *378:18 0.000172309
14 *3610:D *378:18 0.000102207
15 *3614:D *2951:B 0
16 *3707:A *378:18 0
17 *139:19 *378:18 0
18 *139:23 *378:18 0.000136951
19 *145:24 *2951:B 2.94103e-05
20 *353:22 *2951:B 1.00375e-05
21 *353:22 *378:18 8.92925e-05
*RES
1 *2950:X *378:18 37.9786 
2 *378:18 *2953:B 13.8 
3 *378:18 *2951:B 19.0857 
*END

*D_NET *379 0.00744082
*CONN
*I *3432:C I *D sky130_fd_sc_hd__and3_1
*I *3433:A2 I *D sky130_fd_sc_hd__a21oi_1
*I *3426:B I *D sky130_fd_sc_hd__nand2_1
*I *3427:B I *D sky130_fd_sc_hd__or2_1
*I *3423:D_N I *D sky130_fd_sc_hd__or4b_1
*I *2952:X O *D sky130_fd_sc_hd__and4_1
*CAP
1 *3432:C 0.000101301
2 *3433:A2 0
3 *3426:B 0
4 *3427:B 0
5 *3423:D_N 0.000867711
6 *2952:X 0.000310422
7 *379:53 0.000190646
8 *379:22 0.00108261
9 *379:16 0.000482981
10 *379:12 0.000667846
11 *3423:D_N *3421:A 3.72472e-05
12 *3423:D_N *3421:D_N 0.00014285
13 *3423:D_N *3480:A3 0.000122933
14 *3423:D_N *3619:CLK 5.37664e-05
15 *3423:D_N *851:12 0
16 *3423:D_N *907:10 0
17 *3423:D_N *1062:76 4.84123e-05
18 *3423:D_N *1062:94 0.000131247
19 *3423:D_N *1066:55 0
20 *3423:D_N *1075:30 0
21 *3432:C *836:20 0.000244297
22 *379:12 *3615:RESET_B 0
23 *379:16 *836:20 6.87574e-05
24 *379:22 *1060:55 0.000195555
25 *379:22 *1083:23 0.000245342
26 *379:53 *836:20 3.98559e-05
27 *1098:DIODE *3423:D_N 0.000194617
28 *2939:A *379:12 0.000280021
29 *2939:A *379:16 0.000443654
30 *2939:A *379:53 5.33005e-05
31 *2939:B *379:22 1.02504e-05
32 *3421:C *3423:D_N 2.14757e-05
33 *3427:A *379:22 5.33882e-05
34 *3433:B1 *3432:C 0.000158497
35 *3433:B1 *379:53 3.99614e-06
36 *3606:D *379:16 9.60939e-05
37 *3619:D *3423:D_N 9.97669e-05
38 *3620:D *3423:D_N 4.78056e-05
39 *3688:A *3423:D_N 7.48356e-05
40 *3689:A *3423:D_N 0.00012278
41 *117:8 *379:12 1.40306e-05
42 *146:98 *379:22 3.57844e-05
43 *255:68 *3423:D_N 0.000269422
44 *255:68 *379:22 0
45 *369:85 *3423:D_N 0.000229325
46 *369:85 *379:22 0
47 *370:8 *379:12 0.000197991
*RES
1 *2952:X *379:12 25.0321 
2 *379:12 *379:16 5.89286 
3 *379:16 *379:22 13.9821 
4 *379:22 *3423:D_N 37.175 
5 *379:22 *3427:B 9.3 
6 *379:16 *3426:B 9.3 
7 *379:12 *379:53 1.78571 
8 *379:53 *3433:A2 9.3 
9 *379:53 *3432:C 12.7107 
*END

*D_NET *380 0.00481297
*CONN
*I *2997:A1 I *D sky130_fd_sc_hd__o32ai_4
*I *2998:B2 I *D sky130_fd_sc_hd__o22a_1
*I *2963:D I *D sky130_fd_sc_hd__or4_4
*I *3555:A I *D sky130_fd_sc_hd__nor2_1
*I *2954:Y O *D sky130_fd_sc_hd__nand2_2
*CAP
1 *2997:A1 0.000382028
2 *2998:B2 0.000295061
3 *2963:D 0
4 *3555:A 0
5 *2954:Y 6.51363e-05
6 *380:30 0.000924175
7 *380:19 0.00047103
8 *380:8 0.00028908
9 *2997:A1 *2997:A2 0
10 *2997:A1 *392:12 7.47221e-05
11 *2997:A1 *392:29 7.65658e-05
12 *2998:B2 *2997:A3 9.41642e-05
13 *2998:B2 *2998:B1 0.000398784
14 *2998:B2 *423:8 6.42242e-05
15 *380:8 *2931:B 1.02936e-05
16 *380:8 *960:6 4.87854e-05
17 *380:19 *2931:A 9.344e-05
18 *380:19 *2931:B 4.61037e-05
19 *380:19 *381:12 0.000148196
20 *380:19 *383:14 2.26424e-05
21 *380:19 *1064:106 9.10431e-06
22 *380:19 *1069:20 4.46186e-06
23 *380:30 *383:14 4.95312e-05
24 *380:30 *390:14 2.72449e-05
25 *380:30 *392:12 7.90803e-05
26 *380:30 *420:22 0.000103041
27 *2931:C *380:19 0
28 *2954:A *380:8 0
29 *2997:B2 *380:30 0
30 *3013:A1 *380:30 0.000437941
31 *136:36 *380:8 0.000138881
32 *136:36 *380:19 4.88637e-05
33 *141:17 *380:19 4.78056e-05
34 *141:49 *380:19 2.84494e-05
35 *141:49 *380:30 0.000108295
36 *365:12 *380:19 0.000169939
37 *365:12 *380:30 5.58941e-05
*RES
1 *2954:Y *380:8 11.0857 
2 *380:8 *3555:A 9.3 
3 *380:8 *380:19 10.4286 
4 *380:19 *2963:D 13.8 
5 *380:19 *380:30 12.8214 
6 *380:30 *2998:B2 23.3536 
7 *380:30 *2997:A1 14.2643 
*END

*D_NET *381 0.000990369
*CONN
*I *2957:A2 I *D sky130_fd_sc_hd__o21ai_2
*I *2956:A2 I *D sky130_fd_sc_hd__o21a_2
*I *2955:X O *D sky130_fd_sc_hd__o311a_1
*CAP
1 *2957:A2 0
2 *2956:A2 7.86979e-05
3 *2955:X 0.000104111
4 *381:12 0.000182809
5 *2956:A2 *383:14 0.000137983
6 *381:12 *2931:A 0.000143971
7 *381:12 *2931:B 5.52238e-05
8 *2933:D *2956:A2 4.27935e-05
9 *141:79 *2956:A2 4.13595e-05
10 *365:19 *2956:A2 5.52238e-05
11 *380:19 *381:12 0.000148196
*RES
1 *2955:X *381:12 20.7821 
2 *381:12 *2956:A2 11.4964 
3 *381:12 *2957:A2 9.3 
*END

*D_NET *382 0.0106886
*CONN
*I *2966:A I *D sky130_fd_sc_hd__nor2_2
*I *2998:A1 I *D sky130_fd_sc_hd__o22a_1
*I *2968:A1 I *D sky130_fd_sc_hd__o22a_1
*I *2975:A I *D sky130_fd_sc_hd__or3b_1
*I *2978:B1 I *D sky130_fd_sc_hd__o221a_1
*I *2985:B2 I *D sky130_fd_sc_hd__o22a_1
*I *2960:C I *D sky130_fd_sc_hd__and3_1
*I *2956:X O *D sky130_fd_sc_hd__o21a_2
*CAP
1 *2966:A 0
2 *2998:A1 6.61554e-06
3 *2968:A1 0
4 *2975:A 2.774e-05
5 *2978:B1 0.000164217
6 *2985:B2 2.23854e-05
7 *2960:C 0
8 *2956:X 5.20654e-05
9 *382:79 0.000505245
10 *382:48 0.000855989
11 *382:33 0.00103996
12 *382:25 0.000690984
13 *382:12 0.000817662
14 *382:8 0.00103092
15 *2975:A *2975:C_N 5.52302e-05
16 *2978:B1 *2975:B 0.000319316
17 *2978:B1 *2979:B2 0
18 *2978:B1 *391:41 0
19 *2978:B1 *1073:86 0
20 *2985:B2 *2971:A2 0
21 *2998:A1 *2998:A2 5.71472e-05
22 *382:12 *385:12 2.05873e-05
23 *382:12 *385:18 2.89016e-05
24 *382:12 *389:10 6.88294e-06
25 *382:12 *420:12 2.27416e-05
26 *382:25 *2968:A2 5.33005e-05
27 *382:25 *385:6 0.000115873
28 *382:25 *385:12 0
29 *382:33 *2985:B1 0.000687019
30 *382:33 *395:10 0.000616215
31 *382:33 *417:10 7.79781e-06
32 *382:48 *2971:A2 0.000358971
33 *382:48 *2971:B1 1.02936e-05
34 *382:48 *2973:A2 0.000272371
35 *382:48 *2985:A1 2.89016e-05
36 *382:48 *2985:A2 4.45768e-06
37 *382:48 *391:41 0
38 *382:79 *2998:A2 4.7194e-05
39 *382:79 *383:14 0
40 *382:79 *390:14 0.00018077
41 *382:79 *431:10 0.000545413
42 *2780:A *2998:A1 2.44318e-05
43 *2780:A *382:79 0.000481568
44 *2931:C *382:8 2.74584e-05
45 *2968:B2 *382:25 9.09342e-05
46 *2980:A2 *2978:B1 0.000128154
47 *2991:A1 *382:33 2.39779e-05
48 *2994:B *382:12 2.89016e-05
49 *125:59 *2978:B1 2.8266e-06
50 *136:79 *382:8 1.02504e-05
51 *136:94 *382:8 9.0573e-05
52 *136:94 *382:79 0.000757318
53 *141:79 *382:8 4.46186e-06
54 *352:27 *382:25 4.08637e-05
55 *352:35 *382:12 0.000176204
56 *352:35 *382:25 0.000108469
57 *352:41 *382:12 3.9004e-05
*RES
1 *2956:X *382:8 15.1393 
2 *382:8 *382:12 10.6696 
3 *382:12 *2960:C 9.3 
4 *382:12 *382:25 6.34821 
5 *382:25 *382:33 19.1964 
6 *382:33 *2985:B2 9.72857 
7 *382:33 *382:48 13.8929 
8 *382:48 *2978:B1 18.4786 
9 *382:48 *2975:A 14.3357 
10 *382:25 *2968:A1 9.3 
11 *382:8 *382:79 19.7143 
12 *382:79 *2998:A1 9.83571 
13 *382:79 *2966:A 9.3 
*END

*D_NET *383 0.00870303
*CONN
*I *2971:A1 I *D sky130_fd_sc_hd__a21oi_1
*I *2979:B1 I *D sky130_fd_sc_hd__a2bb2o_4
*I *2973:A1 I *D sky130_fd_sc_hd__a21o_1
*I *2995:A2 I *D sky130_fd_sc_hd__a21oi_4
*I *2996:A1 I *D sky130_fd_sc_hd__a211oi_2
*I *2957:Y O *D sky130_fd_sc_hd__o21ai_2
*CAP
1 *2971:A1 9.872e-05
2 *2979:B1 0.000418581
3 *2973:A1 0.000516601
4 *2995:A2 5.17251e-05
5 *2996:A1 5.37304e-05
6 *2957:Y 0.000450711
7 *383:57 0.000517301
8 *383:40 0.00108903
9 *383:29 0.00149331
10 *383:14 0.00137359
11 *2971:A1 *2971:A2 5.52238e-05
12 *2971:A1 *2971:B1 5.52238e-05
13 *2971:A1 *2972:A 2.8266e-06
14 *2971:A1 *2972:B 5.58941e-05
15 *2971:A1 *391:41 0
16 *2971:A1 *1071:62 4.75428e-05
17 *2973:A1 *2974:A 0.00017309
18 *2973:A1 *2980:A1 1.65169e-05
19 *2973:A1 *2980:B1 9.31011e-05
20 *2973:A1 *391:28 7.70589e-05
21 *2973:A1 *406:10 9.41642e-05
22 *2973:A1 *413:8 0.00017309
23 *2979:B1 *2979:B2 0
24 *2979:B1 *384:19 0
25 *2979:B1 *385:6 2.89114e-05
26 *2979:B1 *391:41 0
27 *2979:B1 *1071:62 9.73934e-05
28 *2995:A2 *2983:A 2.89114e-05
29 *2996:A1 *420:16 9.41642e-05
30 *383:14 *390:14 0.000226021
31 *383:14 *431:10 7.26841e-05
32 *383:29 *2995:B1 0.000207776
33 *383:29 *390:14 7.15449e-05
34 *383:29 *391:17 3.13982e-05
35 *383:29 *391:28 4.45768e-06
36 *383:29 *420:16 0.000183334
37 *383:29 *431:10 2.66026e-05
38 *383:40 *2983:A 6.8776e-05
39 *383:40 *2984:A 1.55885e-05
40 *383:40 *2984:B 0.000119135
41 *383:40 *391:28 1.25363e-05
42 *2931:C *383:14 8.03134e-05
43 *2956:A2 *383:14 0.000137983
44 *365:12 *383:14 0.000216297
45 *380:19 *383:14 2.26424e-05
46 *380:30 *383:14 4.95312e-05
47 *382:79 *383:14 0
*RES
1 *2957:Y *383:14 23.5321 
2 *383:14 *2996:A1 14.7464 
3 *383:14 *383:29 15.9286 
4 *383:29 *2995:A2 10.5679 
5 *383:29 *383:40 7.10714 
6 *383:40 *2973:A1 28.4964 
7 *383:40 *383:57 4.5 
8 *383:57 *2979:B1 21.1571 
9 *383:57 *2971:A1 16.2821 
*END

*D_NET *384 0.00319116
*CONN
*I *2971:B1 I *D sky130_fd_sc_hd__a21oi_1
*I *2985:A2 I *D sky130_fd_sc_hd__o22a_1
*I *2967:A2 I *D sky130_fd_sc_hd__o21a_1
*I *2959:A2 I *D sky130_fd_sc_hd__o21bai_4
*I *2958:X O *D sky130_fd_sc_hd__o211a_1
*CAP
1 *2971:B1 0.00016025
2 *2985:A2 4.517e-05
3 *2967:A2 6.59538e-05
4 *2959:A2 0
5 *2958:X 0.000437919
6 *384:32 0.000375963
7 *384:19 0.000324364
8 *384:10 0.000525786
9 *2967:A2 *390:66 9.90431e-05
10 *2971:B1 *2971:A2 4.83118e-05
11 *2971:B1 *2985:A1 5.52238e-05
12 *384:10 *1071:58 4.46186e-06
13 *384:19 *2979:B2 0
14 *384:19 *1071:58 7.38748e-05
15 *384:32 *2983:B 0.000123295
16 *384:32 *410:8 5.24274e-05
17 *384:32 *1071:58 2.26327e-05
18 *384:32 *1071:62 0.000333493
19 *2959:B1_N *384:10 0
20 *2959:B1_N *384:19 0
21 *2971:A1 *2971:B1 5.52238e-05
22 *2979:B1 *384:19 0
23 *2986:A *384:32 2.74501e-05
24 *129:81 *384:10 4.038e-06
25 *129:81 *384:32 7.79781e-06
26 *131:66 *384:10 0.000230475
27 *350:23 *384:10 0.00010326
28 *382:48 *2971:B1 1.02936e-05
29 *382:48 *2985:A2 4.45768e-06
*RES
1 *2958:X *384:10 20.0857 
2 *384:10 *2959:A2 13.8 
3 *384:10 *384:19 1.94643 
4 *384:19 *2967:A2 14.7464 
5 *384:19 *384:32 9.48214 
6 *384:32 *2985:A2 9.83571 
7 *384:32 *2971:B1 12.6393 
*END

*D_NET *385 0.00492451
*CONN
*I *2960:B I *D sky130_fd_sc_hd__and3_1
*I *2994:C I *D sky130_fd_sc_hd__and3_4
*I *2965:A2 I *D sky130_fd_sc_hd__a21o_4
*I *2964:A2 I *D sky130_fd_sc_hd__a21oi_4
*I *2959:Y O *D sky130_fd_sc_hd__o21bai_4
*CAP
1 *2960:B 0
2 *2994:C 0
3 *2965:A2 4.65186e-05
4 *2964:A2 0.000436543
5 *2959:Y 0.000853487
6 *385:18 0.000583181
7 *385:12 0.000260928
8 *385:6 0.0010143
9 *2964:A2 *390:14 2.32625e-05
10 *2964:A2 *431:10 4.48128e-05
11 *2965:A2 *2961:A_N 0.000114045
12 *2965:A2 *985:20 0.000123295
13 *385:6 *2968:A2 9.41642e-05
14 *385:6 *390:42 9.41642e-05
15 *385:6 *1071:58 3.63775e-05
16 *385:18 *2961:A_N 0.000267814
17 *385:18 *985:20 0.000268536
18 *2964:A1 *2964:A2 8.85532e-05
19 *2979:B1 *385:6 2.89114e-05
20 *2994:B *385:12 5.52238e-05
21 *3005:B2 *2964:A2 2.59355e-05
22 *350:23 *385:6 9.99644e-06
23 *352:27 *385:6 1.07719e-05
24 *352:35 *385:6 1.82549e-05
25 *352:35 *385:12 0.000102207
26 *352:41 *385:12 0.000137983
27 *352:41 *385:18 1.98839e-05
28 *382:12 *385:12 2.05873e-05
29 *382:12 *385:18 2.89016e-05
30 *382:25 *385:6 0.000115873
31 *382:25 *385:12 0
*RES
1 *2959:Y *385:6 19.2821 
2 *385:6 *385:12 4.16071 
3 *385:12 *385:18 8.5 
4 *385:18 *2964:A2 19.175 
5 *385:18 *2965:A2 15.4429 
6 *385:12 *2994:C 9.3 
7 *385:6 *2960:B 9.3 
*END

*D_NET *386 0.00234421
*CONN
*I *2962:B I *D sky130_fd_sc_hd__xor2_1
*I *3004:C_N I *D sky130_fd_sc_hd__or3b_1
*I *2961:B I *D sky130_fd_sc_hd__nand2b_1
*I *3005:A2 I *D sky130_fd_sc_hd__a22oi_2
*I *2960:X O *D sky130_fd_sc_hd__and3_1
*CAP
1 *2962:B 0.000173542
2 *3004:C_N 8.77506e-05
3 *2961:B 4.9781e-05
4 *3005:A2 0
5 *2960:X 6.86087e-05
6 *386:19 0.000137532
7 *386:17 0.00041773
8 *386:8 0.000312796
9 *2961:B *3020:B1 2.89016e-05
10 *2961:B *392:29 0.000157136
11 *2962:B *2962:A 1.33343e-05
12 *2962:B *3002:A 0.000227105
13 *2962:B *388:10 2.89114e-05
14 *2962:B *985:20 0
15 *3004:C_N *3020:B1 0.000113005
16 *3004:C_N *392:29 0.000172298
17 *386:8 *984:10 5.48488e-05
18 *386:17 *3002:A 0.000170654
19 *386:17 *3005:B1 0
20 *386:17 *984:10 7.76647e-05
21 *386:17 *985:20 0
22 *3005:A1 *386:8 5.26091e-05
*RES
1 *2960:X *386:8 15.7464 
2 *386:8 *3005:A2 13.8 
3 *386:8 *386:17 4.98214 
4 *386:17 *386:19 4.5 
5 *386:19 *2961:B 10.7911 
6 *386:19 *3004:C_N 11.8893 
7 *386:17 *2962:B 17.7107 
*END

*D_NET *387 0.00153413
*CONN
*I *3020:B1 I *D sky130_fd_sc_hd__o31a_1
*I *2961:Y O *D sky130_fd_sc_hd__nand2b_1
*CAP
1 *3020:B1 0.000525718
2 *2961:Y 0.000525718
3 *3020:B1 *3008:A 0.000340788
4 *3020:B1 *388:21 0
5 *3020:B1 *395:10 0
6 *3020:B1 *395:23 0
7 *2961:B *3020:B1 2.89016e-05
8 *3004:C_N *3020:B1 0.000113005
*RES
1 *2961:Y *3020:B1 36.6893 
*END

*D_NET *388 0.00256512
*CONN
*I *3053:A I *D sky130_fd_sc_hd__xnor2_1
*I *3020:A1 I *D sky130_fd_sc_hd__o31a_1
*I *3008:B I *D sky130_fd_sc_hd__or2_1
*I *2962:X O *D sky130_fd_sc_hd__xor2_1
*CAP
1 *3053:A 0.000399397
2 *3020:A1 2.1228e-05
3 *3008:B 6.47017e-05
4 *2962:X 0.000156044
5 *388:21 0.00053893
6 *388:10 0.000339052
7 *3008:B *3008:A 0.00014285
8 *3020:A1 *3010:B1 5.52302e-05
9 *3020:A1 *3020:A2 7.43578e-06
10 *3053:A *3010:B1 0
11 *3053:A *3020:A2 0.000199698
12 *3053:A *3053:B 0.000268001
13 *3053:A *3056:A 7.79781e-06
14 *3053:A *415:10 0
15 *3053:A *444:12 0.000100823
16 *3053:A *447:10 0
17 *3053:A *498:14 0.000184645
18 *388:10 *3008:A 5.03787e-05
19 *388:10 *985:20 0
20 *388:21 *985:20 0
21 *2962:B *388:10 2.89114e-05
22 *3020:B1 *388:21 0
*RES
1 *2962:X *388:10 16.5857 
2 *388:10 *3008:B 15.1571 
3 *388:10 *388:21 1.94643 
4 *388:21 *3020:A1 14.3357 
5 *388:21 *3053:A 24.175 
*END

*D_NET *389 0.0014036
*CONN
*I *2965:B1 I *D sky130_fd_sc_hd__a21o_4
*I *2964:B1 I *D sky130_fd_sc_hd__a21oi_4
*I *2963:X O *D sky130_fd_sc_hd__or4_4
*CAP
1 *2965:B1 8.43241e-05
2 *2964:B1 0
3 *2963:X 0.000177379
4 *389:10 0.000261703
5 *2965:B1 *2995:B1 4.27935e-05
6 *2965:B1 *420:12 0.000170646
7 *2965:B1 *420:16 5.33005e-05
8 *389:10 *420:12 0.000148196
9 *2965:A1 *2965:B1 0.000233318
10 *2965:A1 *389:10 9.25014e-06
11 *136:94 *2965:B1 1.41029e-05
12 *352:41 *389:10 0.000201704
13 *382:12 *389:10 6.88294e-06
*RES
1 *2963:X *389:10 17.1036 
2 *389:10 *2964:B1 13.8 
3 *389:10 *2965:B1 16.9964 
*END

*D_NET *390 0.00976361
*CONN
*I *2978:B2 I *D sky130_fd_sc_hd__o221a_1
*I *2975:B I *D sky130_fd_sc_hd__or3b_1
*I *2985:B1 I *D sky130_fd_sc_hd__o22a_1
*I *2968:A2 I *D sky130_fd_sc_hd__o22a_1
*I *2998:A2 I *D sky130_fd_sc_hd__o22a_1
*I *2966:B I *D sky130_fd_sc_hd__nor2_2
*I *2964:Y O *D sky130_fd_sc_hd__a21oi_4
*CAP
1 *2978:B2 0
2 *2975:B 0.000102446
3 *2985:B1 0.000257889
4 *2968:A2 2.76792e-05
5 *2998:A2 9.60803e-05
6 *2966:B 0
7 *2964:Y 0
8 *390:66 0.00065494
9 *390:42 0.000391886
10 *390:34 0.00159208
11 *390:14 0.000651692
12 *390:4 0.00148888
13 *2975:B *2980:A1 0.000128146
14 *2975:B *1073:86 6.98762e-05
15 *2985:B1 *417:10 0.000193957
16 *390:14 *431:10 0.000218679
17 *390:34 *2990:A1 7.79763e-06
18 *390:34 *2990:A2 7.90536e-05
19 *390:34 *2991:A2 0.000249164
20 *390:34 *393:8 1.40034e-05
21 *390:34 *431:10 5.96516e-05
22 *390:42 *1070:40 0.000121573
23 *390:42 *1071:58 6.05161e-06
24 *390:66 *2967:A1 8.76257e-05
25 *390:66 *393:8 8.43535e-06
26 *390:66 *417:10 2.59355e-05
27 *390:66 *1071:58 0.000139913
28 *390:66 *1072:22 9.09669e-05
29 *2780:A *2998:A2 1.39841e-05
30 *2964:A1 *390:14 2.44318e-05
31 *2964:A2 *390:14 2.32625e-05
32 *2967:A2 *390:66 9.90431e-05
33 *2967:B1 *390:66 1.98839e-05
34 *2968:B2 *2968:A2 1.74352e-05
35 *2968:B2 *390:42 1.39726e-05
36 *2978:B1 *2975:B 0.000319316
37 *2978:C1 *390:66 2.89114e-05
38 *2980:A2 *390:66 2.47724e-05
39 *2991:A1 *2985:B1 0.000170654
40 *2991:A1 *390:42 0.000123295
41 *2998:A1 *2998:A2 5.71472e-05
42 *3005:A1 *390:34 1.92905e-05
43 *3013:A1 *390:14 0.000550264
44 *350:23 *390:42 1.21258e-05
45 *380:30 *390:14 2.72449e-05
46 *382:25 *2968:A2 5.33005e-05
47 *382:33 *2985:B1 0.000687019
48 *382:79 *2998:A2 4.7194e-05
49 *382:79 *390:14 0.00018077
50 *383:14 *390:14 0.000226021
51 *383:29 *390:14 7.15449e-05
52 *385:6 *2968:A2 9.41642e-05
53 *385:6 *390:42 9.41642e-05
*RES
1 *2964:Y *390:4 9.3 
2 *390:4 *390:14 22.3036 
3 *390:14 *2966:B 9.3 
4 *390:14 *2998:A2 11.4964 
5 *390:4 *390:34 11.25 
6 *390:34 *390:42 11.5893 
7 *390:42 *2968:A2 10.2464 
8 *390:42 *2985:B1 26.7643 
9 *390:34 *390:66 9.89286 
10 *390:66 *2975:B 22.3714 
11 *390:66 *2978:B2 9.3 
*END

*D_NET *391 0.00704179
*CONN
*I *2973:A2 I *D sky130_fd_sc_hd__a21o_1
*I *2971:A2 I *D sky130_fd_sc_hd__a21oi_1
*I *2979:B2 I *D sky130_fd_sc_hd__a2bb2o_4
*I *2995:A1 I *D sky130_fd_sc_hd__a21oi_4
*I *2996:A2 I *D sky130_fd_sc_hd__a211oi_2
*I *2965:X O *D sky130_fd_sc_hd__a21o_4
*CAP
1 *2973:A2 0.000176858
2 *2971:A2 0.000126843
3 *2979:B2 0.000216632
4 *2995:A1 3.82418e-05
5 *2996:A2 9.41646e-05
6 *2965:X 0
7 *391:41 0.000522875
8 *391:28 0.0011989
9 *391:17 0.0015026
10 *391:4 0.000795421
11 *2973:A2 *2973:B1 3.43032e-05
12 *2973:A2 *2975:C_N 0.000271345
13 *2973:A2 *401:10 5.52238e-05
14 *2995:A1 *2995:B1 0
15 *2996:A2 *420:16 7.32173e-05
16 *391:17 *2995:B1 6.4443e-05
17 *391:17 *420:16 2.05612e-05
18 *391:28 *2983:A 0.000599293
19 *391:41 *2972:B 0
20 *2959:B1_N *2979:B2 4.1331e-06
21 *2965:A1 *391:17 0.000301438
22 *2971:A1 *2971:A2 5.52238e-05
23 *2971:A1 *391:41 0
24 *2971:B1 *2971:A2 4.83118e-05
25 *2973:A1 *391:28 7.70589e-05
26 *2978:B1 *2979:B2 0
27 *2978:B1 *391:41 0
28 *2979:B1 *2979:B2 0
29 *2979:B1 *391:41 0
30 *2980:A2 *2979:B2 0
31 *2980:A2 *391:41 0
32 *2985:B2 *2971:A2 0
33 *125:59 *2979:B2 8.49707e-05
34 *382:48 *2971:A2 0.000358971
35 *382:48 *2973:A2 0.000272371
36 *382:48 *391:41 0
37 *383:29 *391:17 3.13982e-05
38 *383:29 *391:28 4.45768e-06
39 *383:40 *391:28 1.25363e-05
40 *384:19 *2979:B2 0
*RES
1 *2965:X *391:4 9.3 
2 *391:4 *2996:A2 11.0857 
3 *391:4 *391:17 8.76786 
4 *391:17 *2995:A1 10.0321 
5 *391:17 *391:28 14.4821 
6 *391:28 *2979:B2 18.175 
7 *391:28 *391:41 8.26786 
8 *391:41 *2971:A2 13.1393 
9 *391:41 *2973:A2 14.3714 
*END

*D_NET *392 0.00575817
*CONN
*I *3013:A2 I *D sky130_fd_sc_hd__a21oi_1
*I *2983:A I *D sky130_fd_sc_hd__nor2_1
*I *2991:A2 I *D sky130_fd_sc_hd__o31a_1
*I *2990:A2 I *D sky130_fd_sc_hd__o31ai_1
*I *2997:A2 I *D sky130_fd_sc_hd__o32ai_4
*I *2966:Y O *D sky130_fd_sc_hd__nor2_2
*CAP
1 *3013:A2 9.9935e-05
2 *2983:A 0.000206668
3 *2991:A2 8.3122e-05
4 *2990:A2 1.73357e-05
5 *2997:A2 2.23854e-05
6 *2966:Y 0
7 *392:33 0.000260804
8 *392:29 0.00106936
9 *392:12 0.00101908
10 *392:6 0.000394288
11 *2983:A *2984:A 9.60875e-05
12 *2983:A *2984:B 8.40933e-05
13 *2990:A2 *2990:A1 1.81448e-05
14 *2990:A2 *2990:A3 3.69047e-06
15 *2991:A2 *2990:A3 1.21258e-05
16 *2991:A2 *2991:B1 0.000137983
17 *2991:A2 *393:8 1.21258e-05
18 *2991:A2 *393:10 1.21258e-05
19 *2997:A2 *2997:A3 0
20 *3013:A2 *423:8 0
21 *392:12 *2997:A3 2.59355e-05
22 *392:12 *420:22 5.83233e-05
23 *392:12 *423:8 0
24 *392:29 *2961:A_N 9.71197e-05
25 *392:29 *3005:B1 0.000184745
26 *392:29 *3008:A 0
27 *392:29 *395:10 0
28 *392:29 *1068:53 0
29 *392:33 *2968:B1 8.15095e-05
30 *392:33 *1068:53 0
31 *2961:B *392:29 0.000157136
32 *2995:A2 *2983:A 2.89114e-05
33 *2997:A1 *2997:A2 0
34 *2997:A1 *392:12 7.47221e-05
35 *2997:A1 *392:29 7.65658e-05
36 *3004:C_N *392:29 0.000172298
37 *3013:A1 *3013:A2 0.000108848
38 *3013:A1 *392:12 6.73313e-05
39 *380:30 *392:12 7.90803e-05
40 *383:40 *2983:A 6.8776e-05
41 *390:34 *2990:A2 7.90536e-05
42 *390:34 *2991:A2 0.000249164
43 *391:28 *2983:A 0.000599293
*RES
1 *2966:Y *392:6 13.8 
2 *392:6 *392:12 9.94643 
3 *392:12 *2997:A2 9.72857 
4 *392:12 *392:29 17.1786 
5 *392:29 *392:33 7.05357 
6 *392:33 *2990:A2 10.0411 
7 *392:33 *2991:A2 11.8893 
8 *392:29 *2983:A 20.1036 
9 *392:6 *3013:A2 16.3536 
*END

*D_NET *393 0.0021098
*CONN
*I *2983:B I *D sky130_fd_sc_hd__nor2_1
*I *2991:A3 I *D sky130_fd_sc_hd__o31a_1
*I *2968:B1 I *D sky130_fd_sc_hd__o22a_1
*I *2990:A3 I *D sky130_fd_sc_hd__o31ai_1
*I *2967:X O *D sky130_fd_sc_hd__o21a_1
*CAP
1 *2983:B 9.52769e-05
2 *2991:A3 1.20576e-05
3 *2968:B1 0.0001123
4 *2990:A3 4.15997e-05
5 *2967:X 0
6 *393:10 0.000206251
7 *393:8 0.00019186
8 *393:4 0.000222728
9 *2968:B1 *2969:B 3.07555e-05
10 *2968:B1 *395:10 7.79781e-06
11 *2968:B1 *1068:53 0
12 *2990:A3 *2990:A1 6.70015e-05
13 *2990:A3 *2991:B1 6.05161e-06
14 *2991:A3 *2991:B1 1.04232e-05
15 *393:8 *2990:A1 0.000178847
16 *393:8 *417:10 5.33005e-05
17 *393:10 *2990:A1 0.000181796
18 *393:10 *2991:B1 6.42095e-05
19 *2967:B1 *2983:B 2.44318e-05
20 *2967:B1 *393:8 5.52302e-05
21 *2986:A *2983:B 6.32633e-05
22 *2990:A2 *2990:A3 3.69047e-06
23 *2990:B1 *2968:B1 0.000217305
24 *2991:A2 *2990:A3 1.21258e-05
25 *2991:A2 *393:8 1.21258e-05
26 *2991:A2 *393:10 1.21258e-05
27 *384:32 *2983:B 0.000123295
28 *390:34 *393:8 1.40034e-05
29 *390:66 *393:8 8.43535e-06
30 *392:33 *2968:B1 8.15095e-05
*RES
1 *2967:X *393:4 9.3 
2 *393:4 *393:8 3.01786 
3 *393:8 *393:10 1.76786 
4 *393:10 *2990:A3 10.2643 
5 *393:10 *2968:B1 21.4607 
6 *393:8 *2991:A3 9.72857 
7 *393:4 *2983:B 20.4786 
*END

*D_NET *394 0.00048023
*CONN
*I *2969:B I *D sky130_fd_sc_hd__xnor2_2
*I *2968:X O *D sky130_fd_sc_hd__o22a_1
*CAP
1 *2969:B 0.000144211
2 *2968:X 0.000144211
3 *2969:B *3637:RESET_B 1.76039e-05
4 *2969:B *1068:53 2.91887e-05
5 *2968:B1 *2969:B 3.07555e-05
6 *2990:B1 *2969:B 4.24765e-05
7 *352:27 *2969:B 7.17836e-05
*RES
1 *2968:X *2969:B 30.4571 
*END

*D_NET *395 0.00509783
*CONN
*I *3026:A I *D sky130_fd_sc_hd__xnor2_2
*I *2970:A I *D sky130_fd_sc_hd__inv_2
*I *3010:A1 I *D sky130_fd_sc_hd__a21o_1
*I *2969:Y O *D sky130_fd_sc_hd__xnor2_2
*CAP
1 *3026:A 0
2 *2970:A 0.000284067
3 *3010:A1 0
4 *2969:Y 0.00100454
5 *395:23 0.000427692
6 *395:10 0.00114816
7 *2970:A *3026:B 0.000130419
8 *2970:A *396:21 1.74352e-05
9 *2970:A *415:10 4.43256e-05
10 *2970:A *444:16 0.000191194
11 *395:10 *2986:B 4.79842e-05
12 *395:10 *3008:A 0
13 *395:10 *3414:A 7.49387e-06
14 *395:10 *3637:RESET_B 0.000306317
15 *395:10 *3680:A 0.000177948
16 *395:10 *417:10 0
17 *395:10 *1071:43 0
18 *395:23 *3020:A3 0
19 *395:23 *3680:A 0.000277516
20 *395:23 *415:10 5.52238e-05
21 *395:23 *436:12 7.83366e-05
22 *2968:B1 *395:10 7.79781e-06
23 *2990:B1 *395:10 0.000267353
24 *2991:A1 *395:10 7.80714e-06
25 *3020:B1 *395:10 0
26 *3020:B1 *395:23 0
27 *382:33 *395:10 0.000616215
28 *392:29 *395:10 0
*RES
1 *2969:Y *395:10 33.6393 
2 *395:10 *3010:A1 13.8 
3 *395:10 *395:23 8.5 
4 *395:23 *2970:A 15.2107 
5 *395:23 *3026:A 9.3 
*END

*D_NET *396 0.0014881
*CONN
*I *3019:A I *D sky130_fd_sc_hd__or2_1
*I *3020:A2 I *D sky130_fd_sc_hd__o31a_1
*I *3056:A I *D sky130_fd_sc_hd__nor3_1
*I *2970:Y O *D sky130_fd_sc_hd__inv_2
*CAP
1 *3019:A 0
2 *3020:A2 0.000102977
3 *3056:A 0.000140083
4 *2970:Y 0
5 *396:21 0.000267286
6 *396:4 0.000304392
7 *3020:A2 *3010:B1 1.74352e-05
8 *3020:A2 *3020:A3 9.01334e-05
9 *3020:A2 *415:10 0
10 *3020:A2 *436:12 0
11 *3056:A *3010:B1 9.25014e-06
12 *3056:A *3056:B 0.00018372
13 *3056:A *444:12 3.92854e-05
14 *3056:A *447:10 4.66203e-05
15 *396:21 *444:16 5.45515e-05
16 *2970:A *396:21 1.74352e-05
17 *3020:A1 *3020:A2 7.43578e-06
18 *3053:A *3020:A2 0.000199698
19 *3053:A *3056:A 7.79781e-06
*RES
1 *2970:Y *396:4 9.3 
2 *396:4 *3056:A 21.4071 
3 *396:4 *396:21 2.19643 
4 *396:21 *3020:A2 21.3893 
5 *396:21 *3019:A 9.3 
*END

*D_NET *397 0.000435781
*CONN
*I *2972:B I *D sky130_fd_sc_hd__xnor2_2
*I *2971:Y O *D sky130_fd_sc_hd__a21oi_1
*CAP
1 *2972:B 0.00018853
2 *2971:Y 0.00018853
3 *2972:B *2972:A 0
4 *2972:B *398:10 0
5 *2972:B *410:8 0
6 *2972:B *412:10 2.8266e-06
7 *2971:A1 *2972:B 5.58941e-05
8 *391:41 *2972:B 0
*RES
1 *2971:Y *2972:B 30.7607 
*END

*D_NET *398 0.00372467
*CONN
*I *3036:A I *D sky130_fd_sc_hd__xnor2_2
*I *2982:A I *D sky130_fd_sc_hd__or4_4
*I *2988:A I *D sky130_fd_sc_hd__or2_1
*I *2972:Y O *D sky130_fd_sc_hd__xnor2_2
*CAP
1 *3036:A 0.000164915
2 *2982:A 0.000185988
3 *2988:A 0.000259074
4 *2972:Y 0.000197682
5 *398:23 0.000384873
6 *398:10 0.000490727
7 *2982:A *2988:B 6.62783e-05
8 *2982:A *408:10 0.000221634
9 *2988:A *2988:B 0.000271339
10 *2988:A *2992:A1 3.48705e-05
11 *3036:A *3031:A2 0.000387723
12 *3036:A *3032:A2_N 0.000572692
13 *3036:A *3032:B2 7.30398e-05
14 *398:10 *3031:A2 0.000128146
15 *398:10 *3032:A2_N 7.83587e-05
16 *398:10 *400:12 6.5427e-05
17 *398:23 *3031:A2 7.55759e-05
18 *398:23 *3032:A2_N 6.63258e-05
19 *2972:B *398:10 0
*RES
1 *2972:Y *398:10 18.4071 
2 *398:10 *2988:A 17.6393 
3 *398:10 *398:23 1.03571 
4 *398:23 *2982:A 17.6214 
5 *398:23 *3036:A 21.2107 
*END

*D_NET *399 0.0014841
*CONN
*I *2976:A I *D sky130_fd_sc_hd__nand2_1
*I *2974:B I *D sky130_fd_sc_hd__xor2_2
*I *2977:A I *D sky130_fd_sc_hd__and3_1
*I *2973:X O *D sky130_fd_sc_hd__a21o_1
*CAP
1 *2976:A 0.000166144
2 *2974:B 0
3 *2977:A 0.000240291
4 *2973:X 4.85523e-05
5 *399:21 0.000194565
6 *399:8 0.000317264
7 *2976:A *2976:B 8.06331e-05
8 *2976:A *401:10 3.57844e-05
9 *2976:A *403:8 3.92757e-05
10 *2976:A *403:32 3.81e-05
11 *2977:A *2977:C 0.000183354
12 *399:8 *401:10 7.83659e-05
13 *399:21 *401:10 4.97876e-05
14 *2977:B *2977:A 1.1979e-05
*RES
1 *2973:X *399:8 14.8357 
2 *399:8 *2977:A 17.2286 
3 *399:8 *399:21 0.732143 
4 *399:21 *2974:B 4.5 
5 *399:21 *2976:A 17.1929 
*END

*D_NET *400 0.00192766
*CONN
*I *3046:B I *D sky130_fd_sc_hd__xnor2_2
*I *2982:D I *D sky130_fd_sc_hd__or4_4
*I *2981:A I *D sky130_fd_sc_hd__or3_1
*I *3031:B1 I *D sky130_fd_sc_hd__a211o_1
*I *2974:X O *D sky130_fd_sc_hd__xor2_2
*CAP
1 *3046:B 9.15381e-05
2 *2982:D 2.76349e-05
3 *2981:A 1.44573e-05
4 *3031:B1 0
5 *2974:X 0.000149002
6 *400:34 0.000234424
7 *400:21 0.000210184
8 *400:12 0.000229478
9 *2981:A *3031:C1 0
10 *2982:D *2982:C 2.89114e-05
11 *3046:B *3043:B 0
12 *3046:B *3046:A 0.000127446
13 *3046:B *3761:A 6.54347e-05
14 *3046:B *403:32 2.8266e-06
15 *3046:B *406:19 2.32154e-05
16 *3046:B *413:23 1.00375e-05
17 *3046:B *1058:50 0
18 *400:12 *2974:A 0
19 *400:12 *3031:A1 1.02504e-05
20 *400:12 *3043:C 0
21 *400:12 *407:10 2.14757e-05
22 *400:12 *413:8 0
23 *400:21 *3031:C1 0.000108082
24 *400:21 *3043:C 9.71197e-05
25 *400:21 *407:10 0.00010096
26 *400:34 *3031:C1 1.98839e-05
27 *400:34 *3043:C 0.000137983
28 *400:34 *3045:A 7.43578e-06
29 *400:34 *403:12 1.57523e-05
30 *400:34 *403:32 5.03694e-05
31 *400:34 *406:19 7.8327e-05
32 *398:10 *400:12 6.5427e-05
*RES
1 *2974:X *400:12 21.3893 
2 *400:12 *3031:B1 9.3 
3 *400:12 *400:21 2.60714 
4 *400:21 *2981:A 9.72857 
5 *400:21 *400:34 7.80357 
6 *400:34 *2982:D 14.3357 
7 *400:34 *3046:B 16.3536 
*END

*D_NET *401 0.00190388
*CONN
*I *2976:B I *D sky130_fd_sc_hd__nand2_1
*I *2977:C I *D sky130_fd_sc_hd__and3_1
*I *2975:X O *D sky130_fd_sc_hd__or3b_1
*CAP
1 *2976:B 5.20783e-05
2 *2977:C 0.000190696
3 *2975:X 0.000268021
4 *401:10 0.000510795
5 *2976:B *406:10 0.00013966
6 *2976:B *406:19 1.02504e-05
7 *2977:C *2974:A 1.24368e-05
8 *401:10 *2973:B1 3.63775e-05
9 *401:10 *406:10 0.000200413
10 *2973:A2 *401:10 5.52238e-05
11 *2976:A *2976:B 8.06331e-05
12 *2976:A *401:10 3.57844e-05
13 *2977:A *2977:C 0.000183354
14 *399:8 *401:10 7.83659e-05
15 *399:21 *401:10 4.97876e-05
*RES
1 *2975:X *401:10 18.5321 
2 *401:10 *2977:C 17.8357 
3 *401:10 *2976:B 15.7464 
*END

*D_NET *402 0.000799988
*CONN
*I *3045:A I *D sky130_fd_sc_hd__xnor2_2
*I *2976:Y O *D sky130_fd_sc_hd__nand2_1
*CAP
1 *3045:A 0.00021537
2 *2976:Y 0.00021537
3 *3045:A *3043:B 2.89114e-05
4 *3045:A *3043:C 3.98547e-05
5 *3045:A *403:12 7.32272e-05
6 *3043:A *3045:A 0.000219818
7 *400:34 *3045:A 7.43578e-06
*RES
1 *2976:Y *3045:A 24.0821 
*END

*D_NET *403 0.00199829
*CONN
*I *3030:B1 I *D sky130_fd_sc_hd__a21o_1
*I *2982:C I *D sky130_fd_sc_hd__or4_4
*I *3031:C1 I *D sky130_fd_sc_hd__a211o_1
*I *2981:B I *D sky130_fd_sc_hd__or3_1
*I *2977:X O *D sky130_fd_sc_hd__and3_1
*CAP
1 *3030:B1 3.92501e-05
2 *2982:C 0.00011727
3 *3031:C1 0.000160518
4 *2981:B 0
5 *2977:X 5.11635e-05
6 *403:32 0.000260712
7 *403:12 0.00033797
8 *403:8 0.000332807
9 *2982:C *3042:A1 1.21371e-05
10 *2982:C *3046:A 5.71472e-05
11 *403:8 *3043:B 9.25014e-06
12 *403:32 *3043:B 0.000243635
13 *403:32 *406:19 0
14 *2976:A *403:8 3.92757e-05
15 *2976:A *403:32 3.81e-05
16 *2981:A *3031:C1 0
17 *2982:D *2982:C 2.89114e-05
18 *3045:A *403:12 7.32272e-05
19 *3046:B *403:32 2.8266e-06
20 *122:108 *403:8 0
21 *400:21 *3031:C1 0.000108082
22 *400:34 *3031:C1 1.98839e-05
23 *400:34 *403:12 1.57523e-05
24 *400:34 *403:32 5.03694e-05
*RES
1 *2977:X *403:8 14.8357 
2 *403:8 *403:12 6.67857 
3 *403:12 *2981:B 9.3 
4 *403:12 *3031:C1 12.6393 
5 *403:8 *403:32 7.66071 
6 *403:32 *2982:C 11.5946 
7 *403:32 *3030:B1 9.83571 
*END

*D_NET *404 0.0011122
*CONN
*I *2987:B I *D sky130_fd_sc_hd__xnor2_2
*I *2980:B1 I *D sky130_fd_sc_hd__a21o_1
*I *2978:X O *D sky130_fd_sc_hd__o221a_1
*CAP
1 *2987:B 8.39821e-05
2 *2980:B1 0.000153295
3 *2978:X 0
4 *404:4 0.000237277
5 *2980:B1 *2974:A 0.000177941
6 *2980:B1 *2980:A1 6.05161e-06
7 *2980:B1 *413:8 0.000128154
8 *2980:B1 *1085:77 0
9 *2987:B *1072:12 0.000232399
10 *2973:A1 *2980:B1 9.31011e-05
*RES
1 *2978:X *404:4 9.3 
2 *404:4 *2980:B1 22.3179 
3 *404:4 *2987:B 11.4786 
*END

*D_NET *405 0.0010146
*CONN
*I *2980:A1 I *D sky130_fd_sc_hd__a21o_1
*I *2979:X O *D sky130_fd_sc_hd__a2bb2o_4
*CAP
1 *2980:A1 0.000311467
2 *2979:X 0.000311467
3 *2980:A1 *1072:22 5.33786e-05
4 *2980:A1 *1073:75 0.000125896
5 *2980:A1 *1073:86 6.16744e-05
6 *2973:A1 *2980:A1 1.65169e-05
7 *2975:B *2980:A1 0.000128146
8 *2980:B1 *2980:A1 6.05161e-06
9 *125:59 *2980:A1 0
*RES
1 *2979:X *2980:A1 33.2607 
*END

*D_NET *406 0.00325171
*CONN
*I *3761:A I *D sky130_fd_sc_hd__dlygate4sd1_1
*I *2982:B I *D sky130_fd_sc_hd__or4_4
*I *2981:C I *D sky130_fd_sc_hd__or3_1
*I *2980:X O *D sky130_fd_sc_hd__a21o_1
*CAP
1 *3761:A 0.000366401
2 *2982:B 0
3 *2981:C 0
4 *2980:X 0.000392998
5 *406:19 0.000453452
6 *406:10 0.000480049
7 *3761:A *413:23 0.000119121
8 *3761:A *1058:44 8.03313e-05
9 *406:10 *413:8 0.00053195
10 *406:10 *1085:77 0
11 *406:19 *413:8 0.000113038
12 *406:19 *413:23 0.0001029
13 *2973:A1 *406:10 9.41642e-05
14 *2976:B *406:10 0.00013966
15 *2976:B *406:19 1.02504e-05
16 *3046:B *3761:A 6.54347e-05
17 *3046:B *406:19 2.32154e-05
18 *400:34 *406:19 7.8327e-05
19 *401:10 *406:10 0.000200413
20 *403:32 *406:19 0
*RES
1 *2980:X *406:10 22.3714 
2 *406:10 *2981:C 13.8 
3 *406:10 *406:19 2.85714 
4 *406:19 *2982:B 13.8 
5 *406:19 *3761:A 20.5143 
*END

*D_NET *407 0.00311157
*CONN
*I *3032:B2 I *D sky130_fd_sc_hd__o2bb2a_1
*I *3035:A1 I *D sky130_fd_sc_hd__a22oi_2
*I *3033:B1_N I *D sky130_fd_sc_hd__a21boi_2
*I *2981:X O *D sky130_fd_sc_hd__or3_1
*CAP
1 *3032:B2 0.000271995
2 *3035:A1 0
3 *3033:B1_N 0.000191946
4 *2981:X 0.000383501
5 *407:12 0.000191946
6 *407:10 0.000655496
7 *3032:B2 *3031:A2 1.08359e-05
8 *3032:B2 *3032:A2_N 1.56e-05
9 *3032:B2 *3032:B1 4.58194e-05
10 *3032:B2 *3034:A 0
11 *3032:B2 *3040:A1 0.000136958
12 *3032:B2 *413:23 0
13 *3032:B2 *460:12 0.000224585
14 *3032:B2 *460:25 2.31791e-05
15 *3033:B1_N *3035:A2 0.00014285
16 *3033:B1_N *3035:B2 0
17 *3033:B1_N *1057:94 0.000117631
18 *407:10 *3031:A1 0.000503757
19 *407:10 *413:23 0
20 *3036:A *3032:B2 7.30398e-05
21 *400:12 *407:10 2.14757e-05
22 *400:21 *407:10 0.00010096
*RES
1 *2981:X *407:10 21.6571 
2 *407:10 *407:12 4.5 
3 *407:12 *3033:B1_N 13.1393 
4 *407:12 *3035:A1 9.3 
5 *407:10 *3032:B2 20.4429 
*END

*D_NET *408 0.00167683
*CONN
*I *3764:A I *D sky130_fd_sc_hd__dlymetal6s2s_1
*I *2992:A1 I *D sky130_fd_sc_hd__a41o_1
*I *2982:X O *D sky130_fd_sc_hd__or4_4
*CAP
1 *3764:A 0
2 *2992:A1 0.00027262
3 *2982:X 0.000180259
4 *408:10 0.000452879
5 *2992:A1 *2988:B 3.18676e-05
6 *2992:A1 *2992:A3 3.14078e-05
7 *2992:A1 *2992:A4 5.33005e-05
8 *2992:A1 *414:8 7.32272e-05
9 *408:10 *2988:B 0.000269535
10 *408:10 *1000:14 5.52302e-05
11 *2982:A *408:10 0.000221634
12 *2988:A *2992:A1 3.48705e-05
*RES
1 *2982:X *408:10 14.0857 
2 *408:10 *2992:A1 14.7643 
3 *408:10 *3764:A 9.3 
*END

*D_NET *409 0.000398476
*CONN
*I *2984:B I *D sky130_fd_sc_hd__xnor2_1
*I *2983:Y O *D sky130_fd_sc_hd__nor2_1
*CAP
1 *2984:B 7.09735e-05
2 *2983:Y 7.09735e-05
3 *2984:B *2984:A 5.33005e-05
4 *2983:A *2984:B 8.40933e-05
5 *383:40 *2984:B 0.000119135
*RES
1 *2983:Y *2984:B 20.7786 
*END

*D_NET *410 0.00388444
*CONN
*I *3024:A1_N I *D sky130_fd_sc_hd__a2bb2o_2
*I *2989:B I *D sky130_fd_sc_hd__and4_1
*I *2992:A2 I *D sky130_fd_sc_hd__a41o_1
*I *2984:Y O *D sky130_fd_sc_hd__xnor2_1
*CAP
1 *3024:A1_N 0.000440302
2 *2989:B 6.94229e-05
3 *2992:A2 0
4 *2984:Y 0.000303517
5 *410:21 0.000680727
6 *410:8 0.000474519
7 *2989:B *2993:A 6.86792e-05
8 *2989:B *1058:44 5.52238e-05
9 *3024:A1_N *3016:B 0.000162832
10 *3024:A1_N *3017:A1 0.000136957
11 *3024:A1_N *3024:A2_N 4.57445e-05
12 *3024:A1_N *3043:B 0.000187019
13 *3024:A1_N *412:34 4.53031e-05
14 *3024:A1_N *412:49 7.45011e-05
15 *3024:A1_N *414:21 3.34366e-05
16 *3024:A1_N *450:10 2.79966e-05
17 *3024:A1_N *452:10 0
18 *3024:A1_N *1058:44 1.17921e-05
19 *410:8 *2972:A 6.07532e-05
20 *410:8 *412:10 0
21 *410:8 *417:10 0.000133802
22 *410:8 *1071:62 3.01126e-05
23 *410:21 *2992:A4 7.75093e-05
24 *410:21 *3043:B 0.000210284
25 *410:21 *412:10 0
26 *410:21 *412:21 6.09057e-06
27 *410:21 *414:21 0.000165269
28 *410:21 *417:10 1.50563e-05
29 *410:21 *417:21 0
30 *2972:B *410:8 0
31 *2986:A *410:8 0.000315165
32 *384:32 *410:8 5.24274e-05
*RES
1 *2984:Y *410:8 22.425 
2 *410:8 *2992:A2 13.8 
3 *410:8 *410:21 4.83929 
4 *410:21 *2989:B 15.1571 
5 *410:21 *3024:A1_N 23.7732 
*END

*D_NET *411 0.000294215
*CONN
*I *2986:B I *D sky130_fd_sc_hd__xnor2_2
*I *2985:X O *D sky130_fd_sc_hd__o22a_1
*CAP
1 *2986:B 5.93922e-05
2 *2985:X 5.93922e-05
3 *2986:B *417:10 0.000127446
4 *395:10 *2986:B 4.79842e-05
*RES
1 *2985:X *2986:B 29.2429 
*END

*D_NET *412 0.00409058
*CONN
*I *3037:A I *D sky130_fd_sc_hd__nor2_1
*I *3038:A I *D sky130_fd_sc_hd__xor2_2
*I *3023:A I *D sky130_fd_sc_hd__and2_1
*I *2989:C I *D sky130_fd_sc_hd__and4_1
*I *2992:A3 I *D sky130_fd_sc_hd__a41o_1
*I *2986:Y O *D sky130_fd_sc_hd__xnor2_2
*CAP
1 *3037:A 0
2 *3038:A 0.000179563
3 *3023:A 3.1663e-05
4 *2989:C 0
5 *2992:A3 9.92986e-05
6 *2986:Y 0.00028561
7 *412:49 0.000294537
8 *412:34 0.000422698
9 *412:21 0.000429202
10 *412:10 0.00053805
11 *2992:A3 *2992:A4 3.18676e-05
12 *3023:A *3023:B 5.52238e-05
13 *3023:A *3660:A 9.90367e-05
14 *3023:A *995:12 6.01685e-05
15 *3038:A *3038:B 0.00016711
16 *3038:A *443:23 5.52302e-05
17 *412:10 *2972:A 5.52302e-05
18 *412:10 *3043:C 1.0562e-05
19 *412:21 *2992:A4 7.57946e-05
20 *412:21 *2993:A 1.76135e-05
21 *412:21 *414:21 0.000150625
22 *412:21 *1000:14 0
23 *412:34 *2993:A 0.000169402
24 *412:34 *3017:A1 6.51803e-05
25 *412:34 *3017:B1 6.32633e-05
26 *412:34 *3032:B1 0
27 *412:34 *414:21 2.47093e-05
28 *412:34 *443:8 0.000100823
29 *412:34 *995:32 0
30 *412:34 *995:38 0
31 *412:34 *1057:72 0
32 *412:34 *1058:44 0.000205065
33 *412:49 *3024:A2_N 0
34 *412:49 *443:8 3.17148e-05
35 *412:49 *443:23 0.000211205
36 *2972:B *412:10 2.8266e-06
37 *2992:A1 *2992:A3 3.14078e-05
38 *3024:A1_N *412:34 4.53031e-05
39 *3024:A1_N *412:49 7.45011e-05
40 *410:8 *412:10 0
41 *410:21 *412:10 0
42 *410:21 *412:21 6.09057e-06
*RES
1 *2986:Y *412:10 18.8179 
2 *412:10 *2992:A3 15.1571 
3 *412:10 *412:21 3.46429 
4 *412:21 *2989:C 13.8 
5 *412:21 *412:34 7.46429 
6 *412:34 *3023:A 15.175 
7 *412:34 *412:49 7.66071 
8 *412:49 *3038:A 12.7286 
9 *412:49 *3037:A 9.3 
*END

*D_NET *413 0.00498924
*CONN
*I *3034:A I *D sky130_fd_sc_hd__xnor2_2
*I *3035:A2 I *D sky130_fd_sc_hd__a22oi_2
*I *2988:B I *D sky130_fd_sc_hd__or2_1
*I *2987:Y O *D sky130_fd_sc_hd__xnor2_2
*CAP
1 *3034:A 0.000259347
2 *3035:A2 2.12761e-05
3 *2988:B 0.000335816
4 *2987:Y 0.000373744
5 *413:23 0.00056103
6 *413:8 0.000989967
7 *2988:B *1000:14 5.71472e-05
8 *3034:A *3034:B 0
9 *3034:A *460:12 0.000126639
10 *3035:A2 *1057:94 0.00014285
11 *413:8 *2974:A 0.000117945
12 *413:8 *3043:C 4.33154e-05
13 *413:8 *1085:77 0
14 *413:23 *3033:A1 0
15 *413:23 *3046:A 0
16 *413:23 *1058:50 0
17 *2973:A1 *413:8 0.00017309
18 *2980:B1 *413:8 0.000128154
19 *2982:A *2988:B 6.62783e-05
20 *2988:A *2988:B 0.000271339
21 *2992:A1 *2988:B 3.18676e-05
22 *3032:B2 *3034:A 0
23 *3032:B2 *413:23 0
24 *3033:B1_N *3035:A2 0.00014285
25 *3046:B *413:23 1.00375e-05
26 *3761:A *413:23 0.000119121
27 *400:12 *413:8 0
28 *406:10 *413:8 0.00053195
29 *406:19 *413:8 0.000113038
30 *406:19 *413:23 0.0001029
31 *407:10 *413:23 0
32 *408:10 *2988:B 0.000269535
*RES
1 *2987:Y *413:8 24.55 
2 *413:8 *2988:B 20.6393 
3 *413:8 *413:23 5.58929 
4 *413:23 *3035:A2 15.1571 
5 *413:23 *3034:A 18.8357 
*END

*D_NET *414 0.00214167
*CONN
*I *3016:B I *D sky130_fd_sc_hd__nand2_1
*I *2989:D I *D sky130_fd_sc_hd__and4_1
*I *2992:A4 I *D sky130_fd_sc_hd__a41o_1
*I *2988:X O *D sky130_fd_sc_hd__or2_1
*CAP
1 *3016:B 0.000219323
2 *2989:D 0
3 *2992:A4 4.57522e-05
4 *2988:X 0.000105543
5 *414:21 0.000279374
6 *414:8 0.000211346
7 *3016:B *2993:B 0
8 *3016:B *3017:B1 0.00010096
9 *3016:B *3035:B2 0
10 *3016:B *419:8 9.41642e-05
11 *3016:B *1058:21 5.33005e-05
12 *3016:B *1058:44 0.000173083
13 *414:21 *1058:44 1.02504e-05
14 *2992:A1 *2992:A4 5.33005e-05
15 *2992:A1 *414:8 7.32272e-05
16 *2992:A3 *2992:A4 3.18676e-05
17 *3024:A1_N *3016:B 0.000162832
18 *3024:A1_N *414:21 3.34366e-05
19 *410:21 *2992:A4 7.75093e-05
20 *410:21 *414:21 0.000165269
21 *412:21 *2992:A4 7.57946e-05
22 *412:21 *414:21 0.000150625
23 *412:34 *414:21 2.47093e-05
*RES
1 *2988:X *414:8 15.1571 
2 *414:8 *2992:A4 15.3714 
3 *414:8 *414:21 2.55357 
4 *414:21 *2989:D 13.8 
5 *414:21 *3016:B 19.3714 
*END

*D_NET *415 0.00348488
*CONN
*I *2993:A I *D sky130_fd_sc_hd__nor2_1
*I *3024:B2 I *D sky130_fd_sc_hd__a2bb2o_2
*I *3027:B1 I *D sky130_fd_sc_hd__a21o_1
*I *2989:X O *D sky130_fd_sc_hd__and4_1
*CAP
1 *2993:A 0.000276587
2 *3024:B2 0.000215624
3 *3027:B1 0
4 *2989:X 0
5 *415:10 0.000765991
6 *415:4 0.000826955
7 *2993:A *3016:A 0
8 *2993:A *3032:A2_N 0
9 *2993:A *1058:44 1.39726e-05
10 *3024:B2 *3028:A 2.72449e-05
11 *3024:B2 *3028:B 0.000150625
12 *3024:B2 *3053:B 0
13 *3024:B2 *441:14 0.000114577
14 *3024:B2 *450:10 7.43578e-06
15 *3024:B2 *479:10 0.000173812
16 *3024:B2 *498:14 0
17 *415:10 *3018:A2 0.000148903
18 *415:10 *3028:A 0.000201855
19 *415:10 *3053:B 0
20 *415:10 *436:12 0.000148911
21 *415:10 *452:10 5.71472e-05
22 *2970:A *415:10 4.43256e-05
23 *2989:B *2993:A 6.86792e-05
24 *3020:A2 *415:10 0
25 *3053:A *415:10 0
26 *395:23 *415:10 5.52238e-05
27 *412:21 *2993:A 1.76135e-05
28 *412:34 *2993:A 0.000169402
*RES
1 *2989:X *415:4 9.3 
2 *415:4 *415:10 15.9464 
3 *415:10 *3027:B1 13.8 
4 *415:10 *3024:B2 19.2464 
5 *415:4 *2993:A 23.7643 
*END

*D_NET *416 0.000342589
*CONN
*I *2991:B1 I *D sky130_fd_sc_hd__o31a_1
*I *2990:Y O *D sky130_fd_sc_hd__o31ai_1
*CAP
1 *2991:B1 6.19608e-05
2 *2990:Y 6.19608e-05
3 *2990:A3 *2991:B1 6.05161e-06
4 *2991:A2 *2991:B1 0.000137983
5 *2991:A3 *2991:B1 1.04232e-05
6 *393:10 *2991:B1 6.42095e-05
*RES
1 *2990:Y *2991:B1 20.3857 
*END

*D_NET *417 0.00545141
*CONN
*I *2993:B I *D sky130_fd_sc_hd__nor2_1
*I *3028:A I *D sky130_fd_sc_hd__xnor2_2
*I *2992:B1 I *D sky130_fd_sc_hd__a41o_1
*I *2991:X O *D sky130_fd_sc_hd__o31a_1
*CAP
1 *2993:B 0.000286537
2 *3028:A 0.000526778
3 *2992:B1 0
4 *2991:X 0.000416982
5 *417:21 0.00098812
6 *417:10 0.000591786
7 *2993:B *419:8 9.55111e-05
8 *2993:B *436:21 6.05161e-06
9 *3028:A *3018:A1 0.000139913
10 *3028:A *3680:A 9.3231e-05
11 *3028:A *436:12 5.58941e-05
12 *3028:A *436:21 4.58976e-05
13 *3028:A *441:10 4.48206e-05
14 *3028:A *450:10 0
15 *3028:A *452:10 0
16 *3028:A *479:10 0.000338366
17 *3028:A *498:22 9.60875e-05
18 *3028:A *535:14 4.87854e-05
19 *3028:A *1057:29 0.000247786
20 *417:10 *2984:A 0.000112323
21 *417:10 *3680:A 8.36642e-05
22 *417:10 *1070:40 5.41794e-05
23 *417:21 *3043:B 0
24 *417:21 *3680:A 0.000121516
25 *417:21 *452:10 7.83587e-05
26 *2985:B1 *417:10 0.000193957
27 *2986:A *417:10 0.000182179
28 *2986:B *417:10 0.000127446
29 *2991:A1 *417:10 1.02504e-05
30 *3016:B *2993:B 0
31 *3024:B2 *3028:A 2.72449e-05
32 *382:33 *417:10 7.79781e-06
33 *390:66 *417:10 2.59355e-05
34 *393:8 *417:10 5.33005e-05
35 *395:10 *417:10 0
36 *410:8 *417:10 0.000133802
37 *410:21 *417:10 1.50563e-05
38 *410:21 *417:21 0
39 *415:10 *3028:A 0.000201855
*RES
1 *2991:X *417:10 26.3 
2 *417:10 *2992:B1 13.8 
3 *417:10 *417:21 8.875 
4 *417:21 *3028:A 31.8714 
5 *417:21 *2993:B 13.0321 
*END

*D_NET *418 7.45407e-05
*CONN
*I *3010:A2 I *D sky130_fd_sc_hd__a21o_1
*I *2992:X O *D sky130_fd_sc_hd__a41o_1
*CAP
1 *3010:A2 3.72704e-05
2 *2992:X 3.72704e-05
*RES
1 *2992:X *3010:A2 19.1357 
*END

*D_NET *419 0.00242683
*CONN
*I *3018:B1 I *D sky130_fd_sc_hd__a21o_1
*I *3056:B I *D sky130_fd_sc_hd__nor3_1
*I *2993:Y O *D sky130_fd_sc_hd__nor2_1
*CAP
1 *3018:B1 0
2 *3056:B 0.000189822
3 *2993:Y 0.000408785
4 *419:8 0.000598607
5 *3056:B *444:12 2.59355e-05
6 *3056:B *498:14 0.000173921
7 *419:8 *3018:A1 4.14279e-05
8 *419:8 *3018:A2 5.71472e-05
9 *419:8 *3043:B 5.33005e-05
10 *419:8 *3681:A 9.41642e-05
11 *419:8 *436:21 0.00026353
12 *419:8 *1058:21 0.000146799
13 *2993:B *419:8 9.55111e-05
14 *3016:B *419:8 9.41642e-05
15 *3056:A *3056:B 0.00018372
*RES
1 *2993:Y *419:8 18.4786 
2 *419:8 *3056:B 13.9429 
3 *419:8 *3018:B1 9.3 
*END

*D_NET *420 0.00436042
*CONN
*I *2995:B1 I *D sky130_fd_sc_hd__a21oi_4
*I *2996:B1 I *D sky130_fd_sc_hd__a211oi_2
*I *2997:A3 I *D sky130_fd_sc_hd__o32ai_4
*I *2998:B1 I *D sky130_fd_sc_hd__o22a_1
*I *2994:X O *D sky130_fd_sc_hd__and3_4
*CAP
1 *2995:B1 0.000141136
2 *2996:B1 0
3 *2997:A3 5.85695e-05
4 *2998:B1 0.000168432
5 *2994:X 0.00018571
6 *420:22 0.000333891
7 *420:16 0.000384541
8 *420:12 0.000604498
9 *2998:B1 *2997:B1 5.52302e-05
10 *2998:B1 *423:8 7.80714e-06
11 *420:12 *2961:A_N 9.09153e-05
12 *420:22 *2997:B1 9.56968e-05
13 *420:22 *423:8 0
14 *2780:A *2998:B1 3.56976e-05
15 *2965:A1 *2995:B1 8.11174e-05
16 *2965:A1 *420:16 1.98839e-05
17 *2965:B1 *2995:B1 4.27935e-05
18 *2965:B1 *420:12 0.000170646
19 *2965:B1 *420:16 5.33005e-05
20 *2995:A1 *2995:B1 0
21 *2996:A1 *420:16 9.41642e-05
22 *2996:A2 *420:16 7.32173e-05
23 *2996:C1 *2998:B1 4.88104e-05
24 *2996:C1 *420:22 1.00375e-05
25 *2997:A2 *2997:A3 0
26 *2997:B2 *420:22 0
27 *2998:B2 *2997:A3 9.41642e-05
28 *2998:B2 *2998:B1 0.000398784
29 *3005:B2 *420:12 0.000193125
30 *136:94 *420:12 1.78353e-05
31 *138:63 *2998:B1 0
32 *352:41 *420:12 6.60598e-05
33 *380:30 *420:22 0.000103041
34 *382:12 *420:12 2.27416e-05
35 *383:29 *2995:B1 0.000207776
36 *383:29 *420:16 0.000183334
37 *389:10 *420:12 0.000148196
38 *391:17 *2995:B1 6.4443e-05
39 *391:17 *420:16 2.05612e-05
40 *392:12 *2997:A3 2.59355e-05
41 *392:12 *420:22 5.83233e-05
*RES
1 *2994:X *420:12 23.8179 
2 *420:12 *420:16 5.89286 
3 *420:16 *420:22 12.1607 
4 *420:22 *2998:B1 23.2464 
5 *420:22 *2997:A3 10.675 
6 *420:16 *2996:B1 9.3 
7 *420:12 *2995:B1 13.55 
*END

*D_NET *421 0.00125395
*CONN
*I *3002:A I *D sky130_fd_sc_hd__xnor2_2
*I *2995:Y O *D sky130_fd_sc_hd__a21oi_4
*CAP
1 *3002:A 0.000342678
2 *2995:Y 0.000342678
3 *3002:A *2962:A 8.47107e-05
4 *3002:A *3008:A 7.79781e-06
5 *3002:A *984:10 7.8327e-05
6 *2962:B *3002:A 0.000227105
7 *386:17 *3002:A 0.000170654
*RES
1 *2995:Y *3002:A 35.3857 
*END

*D_NET *422 0.000445555
*CONN
*I *2997:B1 I *D sky130_fd_sc_hd__o32ai_4
*I *2996:Y O *D sky130_fd_sc_hd__a211oi_2
*CAP
1 *2997:B1 8.57325e-05
2 *2996:Y 8.57325e-05
3 *2997:B1 *423:8 1.99099e-05
4 *2996:C1 *2997:B1 0.000103253
5 *2997:B2 *2997:B1 0
6 *2998:B1 *2997:B1 5.52302e-05
7 *420:22 *2997:B1 9.56968e-05
*RES
1 *2996:Y *2997:B1 30.3857 
*END

*D_NET *423 0.00320347
*CONN
*I *3065:A I *D sky130_fd_sc_hd__xor2_1
*I *3064:A I *D sky130_fd_sc_hd__and3_1
*I *3000:A I *D sky130_fd_sc_hd__and2_1
*I *3001:A I *D sky130_fd_sc_hd__nand2_1
*I *2997:Y O *D sky130_fd_sc_hd__o32ai_4
*CAP
1 *3065:A 0.000122984
2 *3064:A 4.00275e-05
3 *3000:A 0
4 *3001:A 0.000105145
5 *2997:Y 0.000480278
6 *423:34 0.000353428
7 *423:25 0.000246078
8 *423:8 0.000641084
9 *3001:A *3001:B 6.05161e-06
10 *3001:A *3009:A 3.24713e-05
11 *3065:A *3069:A 0.000138015
12 *423:8 *2999:B 0
13 *423:8 *3009:C 0.000169405
14 *423:8 *3012:A1 4.47843e-05
15 *423:8 *3013:B1 1.3142e-05
16 *423:8 *3072:A 0
17 *423:8 *424:10 0
18 *423:8 *425:10 0.000201127
19 *423:8 *425:27 5.83304e-05
20 *423:8 *433:23 0.00010326
21 *423:25 *3012:A1 3.84478e-05
22 *423:25 *3069:A 5.80706e-06
23 *423:25 *3072:A 0
24 *423:25 *425:27 9.30093e-05
25 *423:34 *3069:A 0.000198738
26 *423:34 *3072:B 0
27 *2780:A *423:8 0
28 *2997:B1 *423:8 1.99099e-05
29 *2997:B2 *423:8 1.99099e-05
30 *2998:B1 *423:8 7.80714e-06
31 *2998:B2 *423:8 6.42242e-05
32 *3013:A1 *423:8 0
33 *3013:A2 *423:8 0
34 *392:12 *423:8 0
35 *420:22 *423:8 0
*RES
1 *2997:Y *423:8 24.55 
2 *423:8 *3001:A 15.7464 
3 *423:8 *423:25 1.64286 
4 *423:25 *3000:A 13.8 
5 *423:25 *423:34 4.67857 
6 *423:34 *3064:A 14.3357 
7 *423:34 *3065:A 16.9607 
*END

*D_NET *424 0.000944182
*CONN
*I *2999:B I *D sky130_fd_sc_hd__xnor2_2
*I *3007:A2 I *D sky130_fd_sc_hd__a21o_1
*I *2998:X O *D sky130_fd_sc_hd__o22a_1
*CAP
1 *2999:B 0.000137099
2 *3007:A2 0
3 *2998:X 0.000245277
4 *424:10 0.000382376
5 *2999:B *3072:A 0
6 *2780:A *424:10 5.39629e-06
7 *2999:A *2999:B 8.89289e-05
8 *2999:A *424:10 1.76135e-05
9 *138:63 *424:10 6.74911e-05
10 *423:8 *2999:B 0
11 *423:8 *424:10 0
*RES
1 *2998:X *424:10 17.5143 
2 *424:10 *3007:A2 13.8 
3 *424:10 *2999:B 16.5857 
*END

*D_NET *425 0.0025458
*CONN
*I *3000:B I *D sky130_fd_sc_hd__and2_1
*I *3069:A I *D sky130_fd_sc_hd__xor2_1
*I *3001:B I *D sky130_fd_sc_hd__nand2_1
*I *2999:Y O *D sky130_fd_sc_hd__xnor2_2
*CAP
1 *3000:B 0
2 *3069:A 0.000332782
3 *3001:B 4.03719e-05
4 *2999:Y 0.000129076
5 *425:27 0.000510509
6 *425:10 0.000347174
7 *3069:A *3012:A1 8.25098e-05
8 *3069:A *3064:B 8.00806e-05
9 *3069:A *3069:B 5.90443e-06
10 *3069:A *3071:A1 0.000144512
11 *3069:A *3071:A2 0
12 *3069:A *488:19 0
13 *3069:A *488:32 0
14 *3069:A *491:8 0.000122951
15 *425:10 *3072:A 0
16 *425:27 *3072:A 0
17 *425:27 *498:14 4.88515e-05
18 *3001:A *3001:B 6.05161e-06
19 *3065:A *3069:A 0.000138015
20 *423:8 *425:10 0.000201127
21 *423:8 *425:27 5.83304e-05
22 *423:25 *3069:A 5.80706e-06
23 *423:25 *425:27 9.30093e-05
24 *423:34 *3069:A 0.000198738
*RES
1 *2999:Y *425:10 16.8893 
2 *425:10 *3001:B 14.3357 
3 *425:10 *425:27 8.23214 
4 *425:27 *3069:A 28.1393 
5 *425:27 *3000:B 9.3 
*END

*D_NET *426 0.00120679
*CONN
*I *3071:A1 I *D sky130_fd_sc_hd__a21o_1
*I *3012:A1 I *D sky130_fd_sc_hd__a21oi_1
*I *3000:X O *D sky130_fd_sc_hd__and2_1
*CAP
1 *3071:A1 7.33819e-05
2 *3012:A1 0.000267258
3 *3000:X 3.92213e-05
4 *426:8 0.000379861
5 *3012:A1 *3009:C 8.15843e-05
6 *3012:A1 *428:8 0
7 *3012:A1 *428:19 0
8 *3012:A1 *428:34 0
9 *3071:A1 *3071:A2 0
10 *3071:A1 *428:34 0
11 *426:8 *498:14 5.52302e-05
12 *3069:A *3012:A1 8.25098e-05
13 *3069:A *3071:A1 0.000144512
14 *423:8 *3012:A1 4.47843e-05
15 *423:25 *3012:A1 3.84478e-05
*RES
1 *3000:X *426:8 14.3357 
2 *426:8 *3012:A1 19.6929 
3 *426:8 *3071:A1 15.7464 
*END

*D_NET *427 0.000546332
*CONN
*I *3009:A I *D sky130_fd_sc_hd__or4_4
*I *3001:Y O *D sky130_fd_sc_hd__nand2_1
*CAP
1 *3009:A 9.93545e-05
2 *3001:Y 9.93545e-05
3 *3009:A *3009:C 0.000271352
4 *3009:A *3010:B1 4.37999e-05
5 *3001:A *3009:A 3.24713e-05
*RES
1 *3001:Y *3009:A 22.0464 
*END

*D_NET *428 0.00370479
*CONN
*I *3066:B2 I *D sky130_fd_sc_hd__a2bb2o_1
*I *3770:A I *D sky130_fd_sc_hd__dlygate4sd1_1
*I *3006:A I *D sky130_fd_sc_hd__or2_1
*I *3011:A I *D sky130_fd_sc_hd__or3b_1
*I *3002:Y O *D sky130_fd_sc_hd__xnor2_2
*CAP
1 *3066:B2 0
2 *3770:A 0.000110443
3 *3006:A 6.88338e-05
4 *3011:A 6.01576e-05
5 *3002:Y 0.000156486
6 *428:34 0.000522948
7 *428:19 0.000666896
8 *428:8 0.000402202
9 *3006:A *498:14 2.79421e-05
10 *3011:A *3011:B 3.69047e-06
11 *3770:A *3069:B 0
12 *3770:A *3070:A1 0
13 *3770:A *3070:A2 0
14 *3770:A *492:8 0
15 *428:8 *3009:C 0
16 *428:8 *3013:B1 0
17 *428:8 *431:10 0.000131247
18 *428:8 *433:23 0
19 *428:8 *434:10 0.000128154
20 *428:19 *3009:B 0.000198698
21 *428:19 *434:10 9.25014e-06
22 *428:19 *434:23 0.000143315
23 *428:34 *3009:B 0.000103974
24 *428:34 *3062:A 0.000143797
25 *428:34 *3066:A1_N 0.000127446
26 *428:34 *3066:A2_N 9.90431e-05
27 *428:34 *3069:B 0
28 *428:34 *3071:A2 5.59013e-05
29 *428:34 *440:25 0
30 *428:34 *441:14 5.23057e-05
31 *428:34 *482:10 7.79781e-06
32 *428:34 *482:21 4.97825e-05
33 *428:34 *488:19 0.00010326
34 *428:34 *488:32 0.000248493
35 *3012:A1 *428:8 0
36 *3012:A1 *428:19 0
37 *3012:A1 *428:34 0
38 *3013:A1 *428:8 8.2731e-05
39 *3071:A1 *428:34 0
*RES
1 *3002:Y *428:8 18.4786 
2 *428:8 *3011:A 14.7464 
3 *428:8 *428:19 4.67857 
4 *428:19 *3006:A 14.7464 
5 *428:19 *428:34 15 
6 *428:34 *3770:A 20.2464 
7 *428:34 *3066:B2 9.3 
*END

*D_NET *429 0.000933777
*CONN
*I *3061:C1 I *D sky130_fd_sc_hd__a311o_1
*I *3003:Y O *D sky130_fd_sc_hd__inv_2
*CAP
1 *3061:C1 0.00028966
2 *3003:Y 0.00028966
3 *3061:C1 *3028:B 0.000150625
4 *3061:C1 *441:14 4.37999e-05
5 *3061:C1 *479:10 1.18358e-05
6 *3061:C1 *485:8 0
7 *3061:C1 *1056:10 0.000148196
*RES
1 *3003:Y *3061:C1 33.3321 
*END

*D_NET *430 0.00111392
*CONN
*I *3005:B1 I *D sky130_fd_sc_hd__a22oi_2
*I *3004:X O *D sky130_fd_sc_hd__or3b_1
*CAP
1 *3005:B1 0.000289786
2 *3004:X 0.000289786
3 *3005:B1 *985:20 0.000339352
4 *3005:A1 *3005:B1 1.02504e-05
5 *386:17 *3005:B1 0
6 *392:29 *3005:B1 0.000184745
*RES
1 *3004:X *3005:B1 33.7429 
*END

*D_NET *431 0.00520825
*CONN
*I *3006:B I *D sky130_fd_sc_hd__or2_1
*I *3057:A I *D sky130_fd_sc_hd__or3_1
*I *3058:B1 I *D sky130_fd_sc_hd__o21ai_1
*I *3011:B I *D sky130_fd_sc_hd__or3b_1
*I *3005:Y O *D sky130_fd_sc_hd__a22oi_2
*CAP
1 *3006:B 0
2 *3057:A 0
3 *3058:B1 0.000209
4 *3011:B 9.65396e-05
5 *3005:Y 0.000659315
6 *431:37 0.000451215
7 *431:31 0.000485419
8 *431:10 0.000999058
9 *3058:B1 *3058:A2 0.000132524
10 *3058:B1 *3059:B 1.72894e-05
11 *431:10 *434:10 0.000128154
12 *431:10 *434:23 8.32171e-05
13 *431:10 *447:10 0
14 *431:10 *985:20 0
15 *431:31 *3056:C 0.000154643
16 *431:31 *434:23 0.000131005
17 *431:31 *447:10 0
18 *431:37 *3009:B 2.18733e-05
19 *431:37 *3056:C 1.76135e-05
20 *431:37 *440:10 0
21 *431:37 *447:10 0
22 *431:37 *482:10 0.000177941
23 *431:37 *482:21 0.000152333
24 *2964:A1 *431:10 0.000135028
25 *2964:A2 *431:10 4.48128e-05
26 *3005:B2 *431:10 5.33005e-05
27 *3011:A *3011:B 3.69047e-06
28 *3013:A1 *431:10 0
29 *382:79 *431:10 0.000545413
30 *383:14 *431:10 7.26841e-05
31 *383:29 *431:10 2.66026e-05
32 *390:14 *431:10 0.000218679
33 *390:34 *431:10 5.96516e-05
34 *428:8 *431:10 0.000131247
*RES
1 *3005:Y *431:10 30.3893 
2 *431:10 *3011:B 14.7464 
3 *431:10 *431:31 9.58929 
4 *431:31 *431:37 14.2857 
5 *431:37 *3058:B1 13.4607 
6 *431:37 *3057:A 9.3 
7 *431:31 *3006:B 9.3 
*END

*D_NET *432 0.00142907
*CONN
*I *3062:A I *D sky130_fd_sc_hd__or2_1
*I *3009:B I *D sky130_fd_sc_hd__or4_4
*I *3006:X O *D sky130_fd_sc_hd__or2_1
*CAP
1 *3062:A 4.49243e-05
2 *3009:B 0.000159287
3 *3006:X 4.36033e-05
4 *432:8 0.000247815
5 *3009:B *3009:C 6.61955e-05
6 *3009:B *3009:D 6.05161e-06
7 *3009:B *3010:B1 3.30309e-05
8 *3009:B *3056:C 0.000163847
9 *3009:B *434:23 5.66157e-05
10 *3009:B *482:10 4.46186e-06
11 *3062:A *482:10 8.15939e-05
12 *432:8 *498:14 5.33005e-05
13 *428:19 *3009:B 0.000198698
14 *428:34 *3009:B 0.000103974
15 *428:34 *3062:A 0.000143797
16 *431:37 *3009:B 2.18733e-05
*RES
1 *3006:X *432:8 14.3357 
2 *432:8 *3009:B 18.925 
3 *432:8 *3062:A 15.7464 
*END

*D_NET *433 0.00341452
*CONN
*I *3009:C I *D sky130_fd_sc_hd__or4_4
*I *3012:B1 I *D sky130_fd_sc_hd__a21oi_1
*I *3072:A I *D sky130_fd_sc_hd__xnor2_1
*I *3007:X O *D sky130_fd_sc_hd__a21o_1
*CAP
1 *3009:C 0.000295953
2 *3012:B1 0
3 *3072:A 0.000363469
4 *3007:X 0.000307528
5 *433:23 0.000562749
6 *433:6 0.000937794
7 *3009:C *3010:B1 3.61629e-06
8 *433:23 *3013:B1 7.83659e-05
9 *2781:A *433:6 3.14193e-05
10 *2999:B *3072:A 0
11 *3007:A1 *433:6 0.00014183
12 *3009:A *3009:C 0.000271352
13 *3009:B *3009:C 6.61955e-05
14 *3012:A1 *3009:C 8.15843e-05
15 *423:8 *3009:C 0.000169405
16 *423:8 *3072:A 0
17 *423:8 *433:23 0.00010326
18 *423:25 *3072:A 0
19 *425:10 *3072:A 0
20 *425:27 *3072:A 0
21 *428:8 *3009:C 0
22 *428:8 *433:23 0
*RES
1 *3007:X *433:6 13.1214 
2 *433:6 *3072:A 24.8 
3 *433:6 *433:23 8.42857 
4 *433:23 *3012:B1 13.8 
5 *433:23 *3009:C 19.5455 
*END

*D_NET *434 0.00248641
*CONN
*I *3056:C I *D sky130_fd_sc_hd__nor3_1
*I *3009:D I *D sky130_fd_sc_hd__or4_4
*I *3011:C_N I *D sky130_fd_sc_hd__or3b_1
*I *3008:X O *D sky130_fd_sc_hd__or2_1
*CAP
1 *3056:C 0.000160937
2 *3009:D 3.06752e-05
3 *3011:C_N 0
4 *3008:X 0.000321076
5 *434:23 0.000288746
6 *434:10 0.00041821
7 *3009:D *3010:B1 2.59355e-05
8 *3056:C *447:10 0
9 *3056:C *498:14 0.000100625
10 *434:10 *439:6 0.000118345
11 *3009:B *3009:D 6.05161e-06
12 *3009:B *3056:C 0.000163847
13 *3009:B *434:23 5.66157e-05
14 *428:8 *434:10 0.000128154
15 *428:19 *434:10 9.25014e-06
16 *428:19 *434:23 0.000143315
17 *431:10 *434:10 0.000128154
18 *431:10 *434:23 8.32171e-05
19 *431:31 *3056:C 0.000154643
20 *431:31 *434:23 0.000131005
21 *431:37 *3056:C 1.76135e-05
*RES
1 *3008:X *434:10 19.2643 
2 *434:10 *3011:C_N 13.8 
3 *434:10 *434:23 3.51786 
4 *434:23 *3009:D 14.3357 
5 *434:23 *3056:C 18.3536 
*END

*D_NET *435 0.00294995
*CONN
*I *3010:B1 I *D sky130_fd_sc_hd__a21o_1
*I *3009:X O *D sky130_fd_sc_hd__or4_4
*CAP
1 *3010:B1 0.00116188
2 *3009:X 0.00116188
3 *3010:B1 *3021:B 0.000142856
4 *3010:B1 *436:12 3.05446e-05
5 *3010:B1 *444:12 9.10431e-06
6 *3010:B1 *447:10 0.000250915
7 *3010:B1 *985:20 4.46186e-06
8 *3009:A *3010:B1 4.37999e-05
9 *3009:B *3010:B1 3.30309e-05
10 *3009:C *3010:B1 3.61629e-06
11 *3009:D *3010:B1 2.59355e-05
12 *3020:A1 *3010:B1 5.52302e-05
13 *3020:A2 *3010:B1 1.74352e-05
14 *3053:A *3010:B1 0
15 *3056:A *3010:B1 9.25014e-06
*RES
1 *3009:X *3010:B1 45.1893 
*END

*D_NET *436 0.0035153
*CONN
*I *3759:A I *D sky130_fd_sc_hd__dlygate4sd1_1
*I *3660:A I *D sky130_fd_sc_hd__clkbuf_1
*I *3681:A I *D sky130_fd_sc_hd__buf_6
*I *3010:X O *D sky130_fd_sc_hd__a21o_1
*CAP
1 *3759:A 0
2 *3660:A 0.000508195
3 *3681:A 2.72859e-05
4 *3010:X 0.000226848
5 *436:21 0.000576326
6 *436:12 0.000322265
7 *3660:A *3023:B 1.98839e-05
8 *3660:A *3680:A 5.16297e-05
9 *3660:A *452:10 0.000335922
10 *3660:A *995:12 0.000285276
11 *3660:A *1057:29 0
12 *3660:A *1058:21 4.02462e-05
13 *3681:A *3018:A1 9.60875e-05
14 *436:12 *3020:A3 0
15 *436:12 *3680:A 3.65544e-05
16 *436:21 *3018:A1 0.00016641
17 *2993:B *436:21 6.05161e-06
18 *3010:B1 *436:12 3.05446e-05
19 *3020:A2 *436:12 0
20 *3023:A *3660:A 9.90367e-05
21 *3028:A *436:12 5.58941e-05
22 *3028:A *436:21 4.58976e-05
23 *395:23 *436:12 7.83366e-05
24 *415:10 *436:12 0.000148911
25 *419:8 *3681:A 9.41642e-05
26 *419:8 *436:21 0.00026353
*RES
1 *3010:X *436:12 23.3179 
2 *436:12 *3681:A 10.2464 
3 *436:12 *436:21 2.58929 
4 *436:21 *3660:A 27.6393 
5 *436:21 *3759:A 9.3 
*END

*D_NET *437 0.00014024
*CONN
*I *3012:A2 I *D sky130_fd_sc_hd__a21oi_1
*I *3011:X O *D sky130_fd_sc_hd__or3b_1
*CAP
1 *3012:A2 7.01202e-05
2 *3011:X 7.01202e-05
*RES
1 *3011:X *3012:A2 19.8679 
*END

*D_NET *438 0.000242286
*CONN
*I *3013:B1 I *D sky130_fd_sc_hd__a21oi_1
*I *3012:Y O *D sky130_fd_sc_hd__a21oi_1
*CAP
1 *3013:B1 7.5389e-05
2 *3012:Y 7.5389e-05
3 *3013:A1 *3013:B1 0
4 *423:8 *3013:B1 1.3142e-05
5 *428:8 *3013:B1 0
6 *433:23 *3013:B1 7.83659e-05
*RES
1 *3012:Y *3013:B1 29.0911 
*END

*D_NET *439 0.00712978
*CONN
*I *3043:C I *D sky130_fd_sc_hd__and3_1
*I *3680:A I *D sky130_fd_sc_hd__buf_2
*I *3013:Y O *D sky130_fd_sc_hd__a21oi_1
*CAP
1 *3043:C 0.0011671
2 *3680:A 0.000378256
3 *3013:Y 0.000935523
4 *439:6 0.00248088
5 *3043:C *3031:A1 0
6 *3043:C *3043:B 0.000162665
7 *3680:A *3032:B1 4.08637e-05
8 *3680:A *440:6 5.33005e-05
9 *3680:A *1057:29 7.46341e-05
10 *3680:A *1057:51 9.60939e-05
11 *3680:A *1058:21 0.00010326
12 *439:6 *3008:A 0.000195386
13 *3013:A1 *439:6 4.88515e-05
14 *3028:A *3680:A 9.3231e-05
15 *3043:A *3043:C 0.000103714
16 *3045:A *3043:C 3.98547e-05
17 *3660:A *3680:A 5.16297e-05
18 *395:10 *3680:A 0.000177948
19 *395:23 *3680:A 0.000277516
20 *400:12 *3043:C 0
21 *400:21 *3043:C 9.71197e-05
22 *400:34 *3043:C 0.000137983
23 *412:10 *3043:C 1.0562e-05
24 *413:8 *3043:C 4.33154e-05
25 *417:10 *3680:A 8.36642e-05
26 *417:21 *3680:A 0.000121516
27 *434:10 *439:6 0.000118345
28 *436:12 *3680:A 3.65544e-05
*RES
1 *3013:Y *439:6 24.6214 
2 *439:6 *3680:A 30.3536 
3 *439:6 *3043:C 37.2136 
*END

*D_NET *440 0.00631369
*CONN
*I *3032:B1 I *D sky130_fd_sc_hd__o2bb2a_1
*I *3071:B1 I *D sky130_fd_sc_hd__a21o_1
*I *3057:B I *D sky130_fd_sc_hd__or3_1
*I *3066:A1_N I *D sky130_fd_sc_hd__a2bb2o_1
*I *3058:A1 I *D sky130_fd_sc_hd__o21ai_1
*I *3014:X O *D sky130_fd_sc_hd__and2_1
*CAP
1 *3032:B1 0.000632956
2 *3071:B1 0.000600515
3 *3057:B 0
4 *3066:A1_N 0.000207609
5 *3058:A1 0
6 *3014:X 0
7 *440:25 0.000328919
8 *440:10 0.00026317
9 *440:6 0.00134351
10 *440:4 0.00123409
11 *3032:B1 *3032:A2_N 0.000266473
12 *3032:B1 *3040:A1 1.95846e-05
13 *3032:B1 *3040:B1 1.32552e-05
14 *3032:B1 *3040:C1 1.32552e-05
15 *3032:B1 *3040:D1 6.62898e-05
16 *3032:B1 *443:8 0
17 *3032:B1 *466:10 3.18676e-05
18 *3032:B1 *995:32 0.000184745
19 *3032:B1 *996:53 0
20 *3032:B1 *1057:51 1.69961e-05
21 *3032:B1 *1057:60 0.000226507
22 *3032:B1 *1057:72 0.000132251
23 *3066:A1_N *3058:A2 4.88637e-05
24 *3066:A1_N *483:10 0
25 *3071:B1 *3071:A2 0.000230475
26 *440:6 *3018:A2 2.22999e-05
27 *440:6 *1057:23 1.97756e-05
28 *440:10 *447:10 0
29 *440:25 *3058:A2 0.00014285
30 *440:25 *447:10 0
31 *3032:B2 *3032:B1 4.58194e-05
32 *3680:A *3032:B1 4.08637e-05
33 *3680:A *440:6 5.33005e-05
34 *412:34 *3032:B1 0
35 *428:34 *3066:A1_N 0.000127446
36 *428:34 *440:25 0
37 *431:37 *440:10 0
*RES
1 *3014:X *440:4 9.3 
2 *440:4 *440:6 8.75 
3 *440:6 *440:10 6.44643 
4 *440:10 *3058:A1 13.8 
5 *440:10 *440:25 7.01786 
6 *440:25 *3066:A1_N 21.7107 
7 *440:25 *3057:B 9.3 
8 *440:6 *3071:B1 17.8179 
9 *440:4 *3032:B1 31.7107 
*END

*D_NET *441 0.0031876
*CONN
*I *3024:B1 I *D sky130_fd_sc_hd__a2bb2o_2
*I *3063:A I *D sky130_fd_sc_hd__nand2_1
*I *3064:B I *D sky130_fd_sc_hd__and3_1
*I *3015:Y O *D sky130_fd_sc_hd__nand2_1
*CAP
1 *3024:B1 0
2 *3063:A 3.12428e-05
3 *3064:B 0.000130475
4 *3015:Y 7.80156e-05
5 *441:14 0.0010101
6 *441:10 0.000926401
7 *3063:A *3065:B 1.97695e-05
8 *3064:B *3065:B 2.50627e-05
9 *3064:B *3069:B 3.92757e-05
10 *441:10 *452:10 4.48206e-05
11 *441:14 *3003:A 5.62995e-05
12 *441:14 *3059:A 0.000302728
13 *441:14 *3063:B 5.06778e-05
14 *441:14 *3065:B 1.92905e-05
15 *441:14 *3066:A2_N 6.26276e-05
16 *441:14 *3066:B1 5.52238e-05
17 *3024:B2 *441:14 0.000114577
18 *3028:A *441:10 4.48206e-05
19 *3061:C1 *441:14 4.37999e-05
20 *3069:A *3064:B 8.00806e-05
21 *428:34 *441:14 5.23057e-05
*RES
1 *3015:Y *441:10 19.9429 
2 *441:10 *441:14 14.9286 
3 *441:14 *3064:B 20.7107 
4 *441:14 *3063:A 10.0321 
5 *441:10 *3024:B1 9.3 
*END

*D_NET *442 0.000541983
*CONN
*I *3017:B1 I *D sky130_fd_sc_hd__a21oi_2
*I *3016:Y O *D sky130_fd_sc_hd__nand2_1
*CAP
1 *3017:B1 0.000170712
2 *3016:Y 0.000170712
3 *3017:B1 *3036:B 0
4 *3017:B1 *1057:72 3.63366e-05
5 *3016:B *3017:B1 0.00010096
6 *412:34 *3017:B1 6.32633e-05
*RES
1 *3016:Y *3017:B1 30.6 
*END

*D_NET *443 0.00151009
*CONN
*I *3038:B I *D sky130_fd_sc_hd__xor2_2
*I *3037:B I *D sky130_fd_sc_hd__nor2_1
*I *3023:B I *D sky130_fd_sc_hd__and2_1
*I *3017:Y O *D sky130_fd_sc_hd__a21oi_2
*CAP
1 *3038:B 6.70144e-05
2 *3037:B 0
3 *3023:B 2.72966e-05
4 *3017:Y 9.94919e-05
5 *443:23 0.000220437
6 *443:8 0.000280211
7 *3023:B *995:12 9.60875e-05
8 *443:23 *3040:C1 7.83659e-05
9 *443:23 *466:10 0
10 *3023:A *3023:B 5.52238e-05
11 *3032:B1 *443:8 0
12 *3038:A *3038:B 0.00016711
13 *3038:A *443:23 5.52302e-05
14 *3660:A *3023:B 1.98839e-05
15 *412:34 *443:8 0.000100823
16 *412:49 *443:8 3.17148e-05
17 *412:49 *443:23 0.000211205
*RES
1 *3017:Y *443:8 15.4429 
2 *443:8 *3023:B 14.7464 
3 *443:8 *443:23 7.89286 
4 *443:23 *3037:B 9.3 
5 *443:23 *3038:B 1.70536 
*END

*D_NET *444 0.00132804
*CONN
*I *3019:B I *D sky130_fd_sc_hd__or2_1
*I *3026:B I *D sky130_fd_sc_hd__xnor2_2
*I *3020:A3 I *D sky130_fd_sc_hd__o31a_1
*I *3018:X O *D sky130_fd_sc_hd__a21o_1
*CAP
1 *3019:B 0
2 *3026:B 5.16173e-05
3 *3020:A3 0.000103337
4 *3018:X 9.5703e-05
5 *444:16 0.00023012
6 *444:12 0.000170868
7 *3026:B *3053:B 6.05161e-06
8 *444:16 *3053:B 2.89016e-05
9 *2970:A *3026:B 0.000130419
10 *2970:A *444:16 0.000191194
11 *3010:B1 *444:12 9.10431e-06
12 *3020:A2 *3020:A3 9.01334e-05
13 *3053:A *444:12 0.000100823
14 *3056:A *444:12 3.92854e-05
15 *3056:B *444:12 2.59355e-05
16 *395:23 *3020:A3 0
17 *396:21 *444:16 5.45515e-05
18 *436:12 *3020:A3 0
*RES
1 *3018:X *444:12 20.175 
2 *444:12 *444:16 2.19643 
3 *444:16 *3020:A3 20.55 
4 *444:16 *3026:B 10.6571 
5 *444:12 *3019:B 9.3 
*END

*D_NET *445 0.00103933
*CONN
*I *3053:B I *D sky130_fd_sc_hd__xnor2_1
*I *3019:X O *D sky130_fd_sc_hd__or2_1
*CAP
1 *3053:B 0.000368188
2 *3019:X 0.000368188
3 *3053:B *3018:A2 0
4 *3053:B *498:14 0
5 *3024:B2 *3053:B 0
6 *3026:B *3053:B 6.05161e-06
7 *3053:A *3053:B 0.000268001
8 *415:10 *3053:B 0
9 *444:16 *3053:B 2.89016e-05
*RES
1 *3019:X *3053:B 34.9393 
*END

*D_NET *446 0.000462396
*CONN
*I *3021:B I *D sky130_fd_sc_hd__xnor2_2
*I *3020:X O *D sky130_fd_sc_hd__o31a_1
*CAP
1 *3021:B 0.000104546
2 *3020:X 0.000104546
3 *3021:B *447:10 5.52238e-05
4 *3021:B *985:20 5.52238e-05
5 *3010:B1 *3021:B 0.000142856
*RES
1 *3020:X *3021:B 21.1893 
*END

*D_NET *447 0.00706378
*CONN
*I *3076:A I *D sky130_fd_sc_hd__xnor2_2
*I *3022:A I *D sky130_fd_sc_hd__inv_2
*I *3060:A I *D sky130_fd_sc_hd__nand2_1
*I *3021:Y O *D sky130_fd_sc_hd__xnor2_2
*CAP
1 *3076:A 0.000196432
2 *3022:A 0
3 *3060:A 9.44459e-05
4 *3021:Y 0.000882294
5 *447:29 0.00106641
6 *447:10 0.00184672
7 *3076:A *3076:B 6.42242e-05
8 *3076:A *3078:B1 1.31516e-05
9 *3076:A *3174:A 4.66203e-05
10 *3076:A *452:27 2.84398e-05
11 *447:10 *3070:A1 6.16864e-05
12 *447:10 *3070:B1 0.000200406
13 *447:10 *3109:A0 0.000197984
14 *447:10 *3678:A 0.000167691
15 *447:10 *483:10 0
16 *447:10 *496:8 0.000558552
17 *447:10 *498:14 0.000217025
18 *447:29 *3078:B1 7.2754e-05
19 *447:29 *3110:B1 2.28598e-05
20 *447:29 *3110:B2 0.000651967
21 *447:29 *3113:A 0
22 *447:29 *3114:B 0
23 *447:29 *3678:A 0.000222527
24 *447:29 *452:27 7.8327e-05
25 *447:29 *536:8 3.06878e-06
26 *447:29 *996:16 1.74352e-05
27 *3010:B1 *447:10 0.000250915
28 *3021:B *447:10 5.52238e-05
29 *3053:A *447:10 0
30 *3056:A *447:10 4.66203e-05
31 *3056:C *447:10 0
32 *431:10 *447:10 0
33 *431:31 *447:10 0
34 *431:37 *447:10 0
35 *440:10 *447:10 0
36 *440:25 *447:10 0
*RES
1 *3021:Y *447:10 36.3179 
2 *447:10 *3060:A 15.1571 
3 *447:10 *447:29 22.8571 
4 *447:29 *3022:A 13.8 
5 *447:29 *3076:A 17.5321 
*END

*D_NET *448 0.00145118
*CONN
*I *3075:B1 I *D sky130_fd_sc_hd__a211o_1
*I *3022:Y O *D sky130_fd_sc_hd__inv_2
*CAP
1 *3075:B1 0.00045631
2 *3022:Y 0.00045631
3 *3075:B1 *3074:B1 2.32625e-05
4 *3075:B1 *3075:A1 6.65398e-05
5 *3075:B1 *3075:C1 6.42338e-05
6 *3075:B1 *538:22 2.0165e-05
7 *3075:B1 *539:34 0.000364363
*RES
1 *3022:Y *3075:B1 34.7071 
*END

*D_NET *449 0.00173216
*CONN
*I *3040:D1 I *D sky130_fd_sc_hd__a2111o_1
*I *3024:A2_N I *D sky130_fd_sc_hd__a2bb2o_2
*I *3023:X O *D sky130_fd_sc_hd__and2_1
*CAP
1 *3040:D1 0.000102965
2 *3024:A2_N 0.000283151
3 *3023:X 0
4 *449:4 0.000386116
5 *3024:A2_N *452:10 0.000154762
6 *3024:A2_N *995:12 0.000126669
7 *3040:D1 *3040:C1 0.000360894
8 *3040:D1 *466:10 5.52302e-05
9 *3040:D1 *995:12 0.000142856
10 *3040:D1 *995:32 7.48301e-06
11 *3024:A1_N *3024:A2_N 4.57445e-05
12 *3032:B1 *3040:D1 6.62898e-05
13 *412:49 *3024:A2_N 0
*RES
1 *3023:X *449:4 9.3 
2 *449:4 *3024:A2_N 23.2464 
3 *449:4 *3040:D1 13.55 
*END

*D_NET *450 0.00420691
*CONN
*I *3025:A I *D sky130_fd_sc_hd__inv_2
*I *3093:A I *D sky130_fd_sc_hd__xnor2_2
*I *3051:C_N I *D sky130_fd_sc_hd__or4bb_4
*I *3041:A1 I *D sky130_fd_sc_hd__a21oi_1
*I *3024:X O *D sky130_fd_sc_hd__a2bb2o_2
*CAP
1 *3025:A 0.00013466
2 *3093:A 0
3 *3051:C_N 0
4 *3041:A1 0
5 *3024:X 0.000428286
6 *450:36 0.000301734
7 *450:27 0.000829021
8 *450:10 0.00109023
9 *3025:A *3090:B2 7.83659e-05
10 *3025:A *3093:B 4.1331e-06
11 *3025:A *3094:B 0
12 *3025:A *516:12 0
13 *3025:A *519:10 0
14 *450:10 *3061:A2 0
15 *450:10 *452:10 0.000181378
16 *450:10 *479:10 0
17 *450:27 *3041:A2 0.000177729
18 *450:27 *3041:B1 0.000139913
19 *450:27 *3050:A_N 2.79421e-05
20 *450:27 *3051:B 0.000123295
21 *450:27 *3061:A2 0
22 *450:27 *3095:B 0.000123295
23 *450:27 *452:10 5.80706e-06
24 *450:27 *452:23 2.26327e-05
25 *450:27 *996:14 7.33786e-06
26 *450:36 *3051:B 4.80729e-05
27 *450:36 *3073:A 0
28 *450:36 *3089:A 1.37292e-05
29 *450:36 *3090:B1 0.000148911
30 *450:36 *3093:B 4.48113e-05
31 *450:36 *3095:B 1.02504e-05
32 *450:36 *3661:A 1.5942e-05
33 *450:36 *499:21 4.33438e-05
34 *450:36 *996:14 0
35 *450:36 *1055:54 0
36 *450:36 *1056:71 0.000170654
37 *3024:A1_N *450:10 2.79966e-05
38 *3024:B2 *450:10 7.43578e-06
39 *3028:A *450:10 0
*RES
1 *3024:X *450:10 20.7643 
2 *450:10 *3041:A1 13.8 
3 *450:10 *450:27 18.8929 
4 *450:27 *3051:C_N 13.8 
5 *450:27 *450:36 4.98214 
6 *450:36 *3093:A 13.8 
7 *450:36 *3025:A 16.6571 
*END

*D_NET *451 0.000520955
*CONN
*I *3090:B2 I *D sky130_fd_sc_hd__o2bb2a_1
*I *3025:Y O *D sky130_fd_sc_hd__inv_2
*CAP
1 *3090:B2 0.000191846
2 *3025:Y 0.000191846
3 *3090:B2 *3090:B1 5.41494e-05
4 *3090:B2 *1055:23 9.33978e-07
5 *3090:B2 *1055:54 3.81416e-06
6 *3025:A *3090:B2 7.83659e-05
*RES
1 *3025:Y *3090:B2 30.4036 
*END

*D_NET *452 0.00753588
*CONN
*I *3039:A I *D sky130_fd_sc_hd__nand3_1
*I *3174:A I *D sky130_fd_sc_hd__xor2_1
*I *3094:A I *D sky130_fd_sc_hd__and3_1
*I *3029:A I *D sky130_fd_sc_hd__nand2_1
*I *3026:Y O *D sky130_fd_sc_hd__xnor2_2
*CAP
1 *3039:A 0
2 *3174:A 0.000408175
3 *3094:A 0.000641429
4 *3029:A 0
5 *3026:Y 0.000629605
6 *452:27 0.00134448
7 *452:23 0.000430924
8 *452:10 0.00076565
9 *3094:A *539:34 0.000879882
10 *3174:A *3076:B 0
11 *3174:A *454:38 0.00010326
12 *3174:A *502:16 1.28585e-05
13 *3174:A *516:12 0
14 *3174:A *540:12 0.000193643
15 *452:10 *3043:B 5.9483e-05
16 *452:10 *454:10 0.000117398
17 *452:10 *1057:29 0
18 *452:10 *1058:21 6.8646e-06
19 *452:23 *3039:B 6.05161e-06
20 *452:23 *3061:A2 0
21 *452:23 *454:10 5.80706e-06
22 *452:23 *454:19 5.74562e-05
23 *452:23 *454:38 1.50087e-05
24 *452:23 *477:12 9.71197e-05
25 *452:27 *3061:A2 0
26 *452:27 *3078:A1 8.15939e-05
27 *452:27 *3078:B1 0
28 *452:27 *454:38 0.000644974
29 *3024:A1_N *452:10 0
30 *3024:A2_N *452:10 0.000154762
31 *3028:A *452:10 0
32 *3076:A *3174:A 4.66203e-05
33 *3076:A *452:27 2.84398e-05
34 *3660:A *452:10 0.000335922
35 *415:10 *452:10 5.71472e-05
36 *417:21 *452:10 7.83587e-05
37 *441:10 *452:10 4.48206e-05
38 *447:29 *452:27 7.8327e-05
39 *450:10 *452:10 0.000181378
40 *450:27 *452:10 5.80706e-06
41 *450:27 *452:23 2.26327e-05
*RES
1 *3026:Y *452:10 28.425 
2 *452:10 *3029:A 13.8 
3 *452:10 *452:23 7.69643 
4 *452:23 *452:27 12.8214 
5 *452:27 *3094:A 23.3893 
6 *452:27 *3174:A 22.8179 
7 *452:23 *3039:A 9.3 
*END

*D_NET *453 0.000838093
*CONN
*I *3028:B I *D sky130_fd_sc_hd__xnor2_2
*I *3027:X O *D sky130_fd_sc_hd__a21o_1
*CAP
1 *3028:B 0.000188327
2 *3027:X 0.000188327
3 *3028:B *3003:A 0
4 *3028:B *3059:B 0
5 *3028:B *479:10 0.000160189
6 *3024:B2 *3028:B 0.000150625
7 *3061:C1 *3028:B 0.000150625
*RES
1 *3027:X *3028:B 32.5107 
*END

*D_NET *454 0.0038798
*CONN
*I *3173:A1 I *D sky130_fd_sc_hd__a21o_1
*I *3091:A I *D sky130_fd_sc_hd__xor2_1
*I *3039:B I *D sky130_fd_sc_hd__nand3_1
*I *3029:B I *D sky130_fd_sc_hd__nand2_1
*I *3028:Y O *D sky130_fd_sc_hd__xnor2_2
*CAP
1 *3173:A1 0.000111427
2 *3091:A 2.15003e-05
3 *3039:B 7.39388e-05
4 *3029:B 0
5 *3028:Y 0.000161505
6 *454:38 0.000872371
7 *454:19 0.000890812
8 *454:10 0.000238935
9 *3039:B *477:12 1.4487e-05
10 *3091:A *3173:A2 1.00733e-05
11 *3173:A1 *3173:A2 0.000213018
12 *3173:A1 *517:6 2.44318e-05
13 *454:10 *498:22 0.00014183
14 *454:10 *535:14 7.32272e-05
15 *454:10 *996:14 0
16 *454:19 *996:14 0
17 *454:38 *3173:A2 2.89114e-05
18 *454:38 *516:12 0
19 *454:38 *996:14 0
20 *454:38 *1056:50 5.33786e-05
21 *3174:A *454:38 0.00010326
22 *452:10 *454:10 0.000117398
23 *452:23 *3039:B 6.05161e-06
24 *452:23 *454:10 5.80706e-06
25 *452:23 *454:19 5.74562e-05
26 *452:23 *454:38 1.50087e-05
27 *452:27 *454:38 0.000644974
*RES
1 *3028:Y *454:10 18.0143 
2 *454:10 *3029:B 13.8 
3 *454:10 *454:19 1.64286 
4 *454:19 *3039:B 14.7643 
5 *454:19 *454:38 18.5893 
6 *454:38 *3091:A 9.72857 
7 *454:38 *3173:A1 11.8893 
*END

*D_NET *455 0.000391515
*CONN
*I *3041:B1 I *D sky130_fd_sc_hd__a21oi_1
*I *3029:Y O *D sky130_fd_sc_hd__nand2_1
*CAP
1 *3041:B1 9.62025e-05
2 *3029:Y 9.62025e-05
3 *3041:B1 *3041:A2 5.17614e-05
4 *3041:B1 *467:8 7.43578e-06
5 *450:27 *3041:B1 0.000139913
*RES
1 *3029:Y *3041:B1 20.7786 
*END

*D_NET *456 0.000429726
*CONN
*I *3046:A I *D sky130_fd_sc_hd__xnor2_2
*I *3030:X O *D sky130_fd_sc_hd__a21o_1
*CAP
1 *3046:A 0.000122566
2 *3030:X 0.000122566
3 *3046:A *1058:50 0
4 *2982:C *3046:A 5.71472e-05
5 *3046:B *3046:A 0.000127446
6 *413:23 *3046:A 0
*RES
1 *3030:X *3046:A 30.0821 
*END

*D_NET *457 0.00299098
*CONN
*I *3032:A2_N I *D sky130_fd_sc_hd__o2bb2a_1
*I *3031:X O *D sky130_fd_sc_hd__a211o_1
*CAP
1 *3032:A2_N 0.000696069
2 *3031:X 0.000696069
3 *3032:A2_N *3016:A 5.75896e-05
4 *3032:A2_N *3040:A1 3.57315e-05
5 *3032:A2_N *995:32 0.00020112
6 *3032:A2_N *995:38 0.000148903
7 *3032:A2_N *996:53 5.71472e-05
8 *3032:A2_N *1000:14 9.89015e-05
9 *2993:A *3032:A2_N 0
10 *3032:B1 *3032:A2_N 0.000266473
11 *3032:B2 *3032:A2_N 1.56e-05
12 *3036:A *3032:A2_N 0.000572692
13 *398:10 *3032:A2_N 7.83587e-05
14 *398:23 *3032:A2_N 6.63258e-05
*RES
1 *3031:X *3032:A2_N 42.9929 
*END

*D_NET *458 0.00222882
*CONN
*I *3081:A_N I *D sky130_fd_sc_hd__nand2b_1
*I *3080:A I *D sky130_fd_sc_hd__xnor2_2
*I *3040:A1 I *D sky130_fd_sc_hd__a2111o_1
*I *3032:X O *D sky130_fd_sc_hd__o2bb2a_1
*CAP
1 *3081:A_N 9.53991e-05
2 *3080:A 0.000129634
3 *3040:A1 0.000220959
4 *3032:X 0
5 *458:19 0.000401658
6 *458:4 0.000397584
7 *3040:A1 *3032:A1_N 4.06312e-05
8 *3040:A1 *3040:B1 0.0001399
9 *3040:A1 *996:53 2.51654e-05
10 *3080:A *3049:B_N 0.000181796
11 *3080:A *3049:D 3.97677e-05
12 *3081:A_N *3081:B 4.40142e-05
13 *3081:A_N *3771:A 0
14 *3081:A_N *460:36 5.75803e-05
15 *458:19 *3032:A1_N 9.31893e-05
16 *458:19 *3081:B 5.5782e-05
17 *458:19 *460:36 1.19402e-05
18 *458:19 *472:19 0
19 *458:19 *473:33 0.000101545
20 *3032:A2_N *3040:A1 3.57315e-05
21 *3032:B1 *3040:A1 1.95846e-05
22 *3032:B2 *3040:A1 0.000136958
*RES
1 *3032:X *458:4 9.3 
2 *458:4 *3040:A1 14.2643 
3 *458:4 *458:19 8.51786 
4 *458:19 *3080:A 16.3893 
5 *458:19 *3081:A_N 16.05 
*END

*D_NET *459 0.000342425
*CONN
*I *3034:B I *D sky130_fd_sc_hd__xnor2_2
*I *3033:Y O *D sky130_fd_sc_hd__a21boi_2
*CAP
1 *3034:B 0.000142639
2 *3033:Y 0.000142639
3 *3034:B *472:8 0
4 *3034:B *1057:94 5.71472e-05
5 *3034:A *3034:B 0
*RES
1 *3033:Y *3034:B 30.0821 
*END

*D_NET *460 0.00610857
*CONN
*I *3096:A I *D sky130_fd_sc_hd__nor2_1
*I *3083:B2 I *D sky130_fd_sc_hd__a221o_1
*I *3097:B1 I *D sky130_fd_sc_hd__a2bb2o_2
*I *3082:B2 I *D sky130_fd_sc_hd__a22o_1
*I *3049:C I *D sky130_fd_sc_hd__and4bb_1
*I *3040:A2 I *D sky130_fd_sc_hd__a2111o_1
*I *3034:Y O *D sky130_fd_sc_hd__xnor2_2
*CAP
1 *3096:A 0.000402795
2 *3083:B2 0.00018436
3 *3097:B1 2.76349e-05
4 *3082:B2 0
5 *3049:C 0
6 *3040:A2 0
7 *3034:Y 0.000544071
8 *460:54 0.000656622
9 *460:38 2.76349e-05
10 *460:36 0.000319493
11 *460:25 0.000422096
12 *460:12 0.000716141
13 *3083:B2 *1056:71 7.26559e-05
14 *3083:B2 *1056:82 9.41642e-05
15 *3096:A *1056:82 0.000660965
16 *3097:B1 *3097:A1_N 2.89114e-05
17 *460:12 *462:10 0.000155555
18 *460:12 *473:16 8.03205e-05
19 *460:25 *3039:C 2.59355e-05
20 *460:25 *3049:A_N 0.000184745
21 *460:25 *3084:B 9.31893e-05
22 *460:25 *462:10 7.83587e-05
23 *460:25 *462:21 9.15804e-05
24 *460:25 *462:34 2.31791e-05
25 *460:25 *466:10 0
26 *460:25 *473:33 1.98839e-05
27 *460:36 *3049:A_N 0.000174232
28 *460:36 *3049:D 3.14078e-05
29 *460:36 *3083:A2 9.25014e-06
30 *460:36 *3084:B 9.76575e-05
31 *460:36 *3086:A1_N 0.000263663
32 *460:36 *3097:B2 6.09572e-05
33 *460:36 *996:53 0
34 *460:54 *3083:A2 0.000117189
35 *3032:B2 *460:12 0.000224585
36 *3032:B2 *460:25 2.31791e-05
37 *3034:A *460:12 0.000126639
38 *3081:A_N *460:36 5.75803e-05
39 *458:19 *460:36 1.19402e-05
*RES
1 *3034:Y *460:12 24.6036 
2 *460:12 *3040:A2 13.8 
3 *460:12 *460:25 9.23214 
4 *460:25 *3049:C 9.3 
5 *460:25 *460:36 11.5536 
6 *460:36 *460:38 4.5 
7 *460:38 *3082:B2 9.3 
8 *460:38 *3097:B1 9.83571 
9 *460:36 *460:54 6.14286 
10 *460:54 *3083:B2 12.0857 
11 *460:54 *3096:A 24.9964 
*END

*D_NET *461 0.000278673
*CONN
*I *3036:B I *D sky130_fd_sc_hd__xnor2_2
*I *3035:Y O *D sky130_fd_sc_hd__a22oi_2
*CAP
1 *3036:B 6.04744e-05
2 *3035:Y 6.04744e-05
3 *3036:B *995:32 4.90803e-05
4 *3036:B *995:38 7.83587e-05
5 *3036:B *1057:72 3.0285e-05
6 *3017:B1 *3036:B 0
*RES
1 *3035:Y *3036:B 29.2429 
*END

*D_NET *462 0.00398447
*CONN
*I *3083:C1 I *D sky130_fd_sc_hd__a221o_1
*I *3095:A I *D sky130_fd_sc_hd__xnor2_1
*I *3049:A_N I *D sky130_fd_sc_hd__and4bb_1
*I *3040:B1 I *D sky130_fd_sc_hd__a2111o_1
*I *3036:Y O *D sky130_fd_sc_hd__xnor2_2
*CAP
1 *3083:C1 4.47301e-05
2 *3095:A 4.65083e-05
3 *3049:A_N 6.0628e-05
4 *3040:B1 0.000128585
5 *3036:Y 0.000207803
6 *462:34 0.00035379
7 *462:21 0.000387529
8 *462:10 0.000400736
9 *3049:A_N *3049:B_N 5.30637e-06
10 *3049:A_N *3049:D 9.22103e-06
11 *3049:A_N *473:33 0.00040279
12 *3083:C1 *1056:71 9.41642e-05
13 *3095:A *3051:D_N 9.60875e-05
14 *3095:A *1056:71 0.000137983
15 *462:10 *996:53 0
16 *462:34 *3039:C 0.000153964
17 *462:34 *3051:D_N 0.00019763
18 *462:34 *3089:B 8.44271e-06
19 *462:34 *3092:A2 1.27784e-05
20 *462:34 *473:33 0
21 *462:34 *475:12 0.000287842
22 *462:34 *498:22 1.91512e-05
23 *462:34 *996:53 0
24 *462:34 *1055:54 6.799e-05
25 *3032:B1 *3040:B1 1.32552e-05
26 *3040:A1 *3040:B1 0.0001399
27 *460:12 *462:10 0.000155555
28 *460:25 *3049:A_N 0.000184745
29 *460:25 *462:10 7.83587e-05
30 *460:25 *462:21 9.15804e-05
31 *460:25 *462:34 2.31791e-05
32 *460:36 *3049:A_N 0.000174232
*RES
1 *3036:Y *462:10 17.3 
2 *462:10 *3040:B1 15.5679 
3 *462:10 *462:21 1.33929 
4 *462:21 *3049:A_N 17.6214 
5 *462:21 *462:34 12.2143 
6 *462:34 *3095:A 10.6571 
7 *462:34 *3083:C1 10.2464 
*END

*D_NET *463 0.00106873
*CONN
*I *3040:C1 I *D sky130_fd_sc_hd__a2111o_1
*I *3037:Y O *D sky130_fd_sc_hd__nor2_1
*CAP
1 *3040:C1 0.000308105
2 *3037:Y 0.000308105
3 *3040:C1 *466:10 0
4 *3032:B1 *3040:C1 1.32552e-05
5 *3040:D1 *3040:C1 0.000360894
6 *443:23 *3040:C1 7.83659e-05
*RES
1 *3037:Y *3040:C1 32.4571 
*END

*D_NET *464 0.00471851
*CONN
*I *3084:B I *D sky130_fd_sc_hd__xnor2_2
*I *3039:C I *D sky130_fd_sc_hd__nand3_1
*I *3038:X O *D sky130_fd_sc_hd__xor2_2
*CAP
1 *3084:B 0.000491106
2 *3039:C 0.000793858
3 *3038:X 0
4 *464:4 0.00128496
5 *3039:C *3051:A 9.31893e-05
6 *3039:C *3051:B 5.4585e-05
7 *3039:C *3051:D_N 0.000312203
8 *3039:C *3089:B 7.6644e-05
9 *3039:C *3661:A 0.000117893
10 *3039:C *473:33 1.15172e-05
11 *3039:C *477:12 5.71472e-05
12 *3039:C *496:18 9.22103e-06
13 *3084:B *3049:D 0.000139907
14 *3084:B *3083:A2 0.000161411
15 *3084:B *3083:B1 0.000100831
16 *3084:B *3084:A 5.48581e-05
17 *3084:B *3086:A1_N 0.00026537
18 *3084:B *3092:A2 3.43988e-06
19 *3084:B *507:10 9.91086e-05
20 *3084:B *507:25 0.00012401
21 *3084:B *996:53 9.64979e-05
22 *3084:B *1055:54 0
23 *460:25 *3039:C 2.59355e-05
24 *460:25 *3084:B 9.31893e-05
25 *460:36 *3084:B 9.76575e-05
26 *462:34 *3039:C 0.000153964
*RES
1 *3038:X *464:4 9.3 
2 *464:4 *3039:C 32.9429 
3 *464:4 *3084:B 30.425 
*END

*D_NET *465 0.000505024
*CONN
*I *3051:A I *D sky130_fd_sc_hd__or4bb_4
*I *3039:Y O *D sky130_fd_sc_hd__nand3_1
*CAP
1 *3051:A 7.02699e-05
2 *3039:Y 7.02699e-05
3 *3051:A *477:12 0.000111383
4 *3051:A *496:18 0.000159912
5 *3039:C *3051:A 9.31893e-05
*RES
1 *3039:Y *3051:A 21.6179 
*END

*D_NET *466 0.00389635
*CONN
*I *3089:A I *D sky130_fd_sc_hd__nor2_1
*I *3041:A2 I *D sky130_fd_sc_hd__a21oi_1
*I *3040:X O *D sky130_fd_sc_hd__a2111o_1
*CAP
1 *3089:A 0.000370977
2 *3041:A2 0.000275311
3 *3040:X 0.00034982
4 *466:10 0.000996107
5 *3041:A2 *467:8 3.99614e-06
6 *3041:A2 *996:14 0.000126639
7 *3089:A *3090:B1 2.28598e-05
8 *3089:A *3092:A1 5.33005e-05
9 *3089:A *499:21 0.000347655
10 *3089:A *504:10 0.000476709
11 *3089:A *515:6 8.25996e-05
12 *3089:A *996:14 0
13 *3089:A *1056:71 0.000181796
14 *466:10 *473:33 0.000163774
15 *466:10 *499:21 0.000114492
16 *466:10 *996:14 0
17 *3032:B1 *466:10 3.18676e-05
18 *3040:C1 *466:10 0
19 *3040:D1 *466:10 5.52302e-05
20 *3041:B1 *3041:A2 5.17614e-05
21 *443:23 *466:10 0
22 *450:27 *3041:A2 0.000177729
23 *450:36 *3089:A 1.37292e-05
24 *460:25 *466:10 0
*RES
1 *3040:X *466:10 21.2911 
2 *466:10 *3041:A2 20.5054 
3 *466:10 *3089:A 24.0054 
*END

*D_NET *467 0.00134778
*CONN
*I *3052:A I *D sky130_fd_sc_hd__nand2_1
*I *3061:A1 I *D sky130_fd_sc_hd__a311o_1
*I *3041:Y O *D sky130_fd_sc_hd__a21oi_1
*CAP
1 *3052:A 5.2281e-05
2 *3061:A1 7.62276e-05
3 *3041:Y 0.000116832
4 *467:8 0.00024534
5 *3052:A *479:10 0.000202842
6 *3052:A *1056:10 8.15095e-05
7 *3052:A *1056:29 0.000128154
8 *3061:A1 *3061:A2 0.000262243
9 *3061:A1 *3061:B1 6.20656e-05
10 *3061:A1 *3109:A1 2.60984e-05
11 *467:8 *3061:A2 8.27532e-05
12 *3041:A2 *467:8 3.99614e-06
13 *3041:B1 *467:8 7.43578e-06
*RES
1 *3041:Y *467:8 11.4964 
2 *467:8 *3061:A1 11.9071 
3 *467:8 *3052:A 20.8536 
*END

*D_NET *468 0.000774562
*CONN
*I *3044:A I *D sky130_fd_sc_hd__or2_1
*I *3045:B I *D sky130_fd_sc_hd__xnor2_2
*I *3042:Y O *D sky130_fd_sc_hd__a21oi_2
*CAP
1 *3044:A 0.000184136
2 *3045:B 8.01634e-05
3 *3042:Y 0
4 *468:4 0.000264299
5 *3045:B *3044:B 6.58811e-05
6 *3045:B *1074:64 1.69115e-05
7 *3042:B1 *3044:A 2.89114e-05
8 *3042:B1 *3045:B 0.000100831
9 *122:108 *3045:B 3.34295e-05
*RES
1 *3042:Y *468:4 9.3 
2 *468:4 *3045:B 20.4786 
3 *468:4 *3044:A 11.4964 
*END

*D_NET *469 0.00109884
*CONN
*I *3044:B I *D sky130_fd_sc_hd__or2_1
*I *3043:X O *D sky130_fd_sc_hd__and3_1
*CAP
1 *3044:B 0.0003239
2 *3043:X 0.0003239
3 *3044:B *1074:64 0.000100831
4 *3042:B1 *3044:B 1.00375e-05
5 *3043:A *3044:B 0.000274288
6 *3045:B *3044:B 6.58811e-05
*RES
1 *3043:X *3044:B 32.7607 
*END

*D_NET *470 0.00203819
*CONN
*I *3086:B2 I *D sky130_fd_sc_hd__o2bb2a_1
*I *3102:A I *D sky130_fd_sc_hd__xnor2_1
*I *3047:A2 I *D sky130_fd_sc_hd__o21bai_2
*I *3044:X O *D sky130_fd_sc_hd__or2_1
*CAP
1 *3086:B2 0
2 *3102:A 0.000166642
3 *3047:A2 0.000162683
4 *3044:X 0
5 *470:25 0.000316327
6 *470:6 0.000312368
7 *3047:A2 *3047:B1_N 1.04232e-05
8 *3047:A2 *3103:A 4.39965e-05
9 *3047:A2 *471:6 1.92905e-05
10 *3047:A2 *1074:64 5.57727e-05
11 *3102:A *3103:B 2.79421e-05
12 *470:25 *3101:A1 4.79842e-05
13 *470:25 *3101:A2 0
14 *470:25 *1074:64 0.000103152
15 *121:33 *3047:A2 0.000325393
16 *121:33 *470:25 0.000446214
*RES
1 *3044:X *470:6 13.8 
2 *470:6 *3047:A2 18.8893 
3 *470:6 *470:25 10.0893 
4 *470:25 *3102:A 11.925 
5 *470:25 *3086:B2 9.3 
*END

*D_NET *471 0.000630393
*CONN
*I *3103:A I *D sky130_fd_sc_hd__xnor2_2
*I *3047:B1_N I *D sky130_fd_sc_hd__o21bai_2
*I *3045:Y O *D sky130_fd_sc_hd__xnor2_2
*CAP
1 *3103:A 0.000111538
2 *3047:B1_N 3.58421e-05
3 *3045:Y 4.31754e-05
4 *471:6 0.000190555
5 *3103:A *3103:B 5.80706e-06
6 *3103:A *473:8 0.000128154
7 *3047:A2 *3047:B1_N 1.04232e-05
8 *3047:A2 *3103:A 4.39965e-05
9 *3047:A2 *471:6 1.92905e-05
10 *121:33 *3103:A 4.16114e-05
*RES
1 *3045:Y *471:6 9.83571 
2 *471:6 *3047:B1_N 10.0321 
3 *471:6 *3103:A 20.8893 
*END

*D_NET *472 0.00311519
*CONN
*I *3771:A I *D sky130_fd_sc_hd__dlygate4sd1_1
*I *3049:B_N I *D sky130_fd_sc_hd__and4bb_1
*I *3048:A I *D sky130_fd_sc_hd__or2_1
*I *3046:Y O *D sky130_fd_sc_hd__xnor2_2
*CAP
1 *3771:A 9.01736e-05
2 *3049:B_N 6.74041e-05
3 *3048:A 2.12761e-05
4 *3046:Y 0.000224047
5 *472:19 0.000277362
6 *472:8 0.000365107
7 *3048:A *3032:A1_N 0.00014285
8 *3048:A *996:53 0.00014285
9 *3049:B_N *3049:D 0.000268396
10 *3049:B_N *473:33 9.99644e-06
11 *3771:A *3081:B 0.000112323
12 *3771:A *3086:A1_N 0.000125044
13 *3771:A *535:16 5.52302e-05
14 *3771:A *1056:82 0
15 *472:8 *3086:A1_N 0.000364953
16 *472:8 *473:16 0
17 *472:8 *473:33 0
18 *472:8 *994:10 6.39901e-05
19 *472:8 *1057:107 0.000153047
20 *472:19 *3081:B 0.000175512
21 *472:19 *3086:A1_N 0.000268521
22 *472:19 *473:33 0
23 *3034:B *472:8 0
24 *3049:A_N *3049:B_N 5.30637e-06
25 *3080:A *3049:B_N 0.000181796
26 *3081:A_N *3771:A 0
27 *458:19 *472:19 0
*RES
1 *3046:Y *472:8 19.9964 
2 *472:8 *3048:A 15.1571 
3 *472:8 *472:19 3.46429 
4 *472:19 *3049:B_N 16.3893 
5 *472:19 *3771:A 16.2821 
*END

*D_NET *473 0.00751678
*CONN
*I *3087:A I *D sky130_fd_sc_hd__nor2_1
*I *3051:B I *D sky130_fd_sc_hd__or4bb_4
*I *3050:A_N I *D sky130_fd_sc_hd__and2b_1
*I *3048:B I *D sky130_fd_sc_hd__or2_1
*I *3047:Y O *D sky130_fd_sc_hd__o21bai_2
*CAP
1 *3087:A 0.000246262
2 *3051:B 0.000160813
3 *3050:A_N 4.59241e-05
4 *3048:B 0
5 *3047:Y 0.000456278
6 *473:33 0.00114086
7 *473:16 0.00181556
8 *473:8 0.00158398
9 *3050:A_N *996:14 4.58194e-05
10 *3051:B *3051:D_N 3.69047e-06
11 *3051:B *3095:B 1.3142e-05
12 *3051:B *3661:A 0
13 *3051:B *496:18 0.000180764
14 *3051:B *499:21 0.000234377
15 *3087:A *3104:B 3.06406e-05
16 *473:8 *3102:B 7.83366e-05
17 *473:8 *3103:B 0.000106808
18 *473:8 *3104:B 2.88424e-05
19 *473:8 *528:12 0
20 *473:8 *529:10 0
21 *473:8 *529:25 0
22 *473:33 *499:21 0.00012401
23 *473:33 *996:53 0
24 *3039:C *3051:B 5.4585e-05
25 *3039:C *473:33 1.15172e-05
26 *3049:A_N *473:33 0.00040279
27 *3049:B_N *473:33 9.99644e-06
28 *3103:A *473:8 0.000128154
29 *3104:A *473:8 0
30 *3104:A *473:16 4.87953e-05
31 *121:33 *473:8 0
32 *450:27 *3050:A_N 2.79421e-05
33 *450:27 *3051:B 0.000123295
34 *450:36 *3051:B 4.80729e-05
35 *458:19 *473:33 0.000101545
36 *460:12 *473:16 8.03205e-05
37 *460:25 *473:33 1.98839e-05
38 *462:34 *473:33 0
39 *466:10 *473:33 0.000163774
40 *472:8 *473:16 0
41 *472:8 *473:33 0
42 *472:19 *473:33 0
*RES
1 *3047:Y *473:8 23.9429 
2 *473:8 *473:16 19.5 
3 *473:16 *3048:B 13.8 
4 *473:16 *473:33 24.3571 
5 *473:33 *3050:A_N 14.7464 
6 *473:33 *3051:B 18.7286 
7 *473:8 *3087:A 17.7464 
*END

*D_NET *474 0.00134228
*CONN
*I *3081:B I *D sky130_fd_sc_hd__nand2b_1
*I *3079:B1_N I *D sky130_fd_sc_hd__a21boi_1
*I *3048:X O *D sky130_fd_sc_hd__or2_1
*CAP
1 *3081:B 0.00019849
2 *3079:B1_N 8.67816e-05
3 *3048:X 0
4 *474:4 0.000285272
5 *3079:B1_N *3032:A1_N 9.60875e-05
6 *3081:B *3086:A1_N 0.000183985
7 *3081:B *535:16 0.000104034
8 *3081:A_N *3081:B 4.40142e-05
9 *3771:A *3081:B 0.000112323
10 *458:19 *3081:B 5.5782e-05
11 *472:19 *3081:B 0.000175512
*RES
1 *3048:X *474:4 9.3 
2 *474:4 *3079:B1_N 10.9786 
3 *474:4 *3081:B 24.3937 
*END

*D_NET *475 0.0025154
*CONN
*I *3051:D_N I *D sky130_fd_sc_hd__or4bb_4
*I *3050:B I *D sky130_fd_sc_hd__and2b_1
*I *3049:X O *D sky130_fd_sc_hd__and4bb_1
*CAP
1 *3051:D_N 0.000205427
2 *3050:B 5.20632e-05
3 *3049:X 0.000157104
4 *475:12 0.000414594
5 *3050:B *3095:B 8.37104e-05
6 *3050:B *996:14 0.000186662
7 *3050:B *996:53 5.52302e-05
8 *3051:D_N *3089:B 0.00010047
9 *3051:D_N *3095:B 9.71197e-05
10 *3051:D_N *496:18 1.40034e-05
11 *3051:D_N *1056:71 1.02936e-05
12 *475:12 *3095:B 2.79421e-05
13 *475:12 *498:22 9.76928e-05
14 *475:12 *996:53 0.000115634
15 *3039:C *3051:D_N 0.000312203
16 *3051:B *3051:D_N 3.69047e-06
17 *3095:A *3051:D_N 9.60875e-05
18 *462:34 *3051:D_N 0.00019763
19 *462:34 *475:12 0.000287842
*RES
1 *3049:X *475:12 23.0143 
2 *475:12 *3050:B 11.4786 
3 *475:12 *3051:D_N 24.2821 
*END

*D_NET *476 0.00116284
*CONN
*I *3089:B I *D sky130_fd_sc_hd__nor2_1
*I *3050:X O *D sky130_fd_sc_hd__and2b_1
*CAP
1 *3089:B 0.000292965
2 *3050:X 0.000292965
3 *3089:B *3092:A2 0.000136757
4 *3089:B *3095:B 0.000136951
5 *3089:B *3661:A 1.17921e-05
6 *3089:B *1055:54 0.000105856
7 *3039:C *3089:B 7.6644e-05
8 *3051:D_N *3089:B 0.00010047
9 *462:34 *3089:B 8.44271e-06
*RES
1 *3050:X *3089:B 33.9929 
*END

*D_NET *477 0.00235617
*CONN
*I *3052:B I *D sky130_fd_sc_hd__nand2_1
*I *3061:A3 I *D sky130_fd_sc_hd__a311o_1
*I *3051:X O *D sky130_fd_sc_hd__or4bb_4
*CAP
1 *3052:B 0
2 *3061:A3 0.000200913
3 *3051:X 0.000283121
4 *477:12 0.000484035
5 *3061:A3 *3061:B1 0.000203919
6 *3061:A3 *3068:A 1.41029e-05
7 *3061:A3 *485:8 0.000171368
8 *3061:A3 *496:18 0.000139087
9 *477:12 *496:18 0.000579488
10 *3039:B *477:12 1.4487e-05
11 *3039:C *477:12 5.71472e-05
12 *3051:A *477:12 0.000111383
13 *452:23 *477:12 9.71197e-05
*RES
1 *3051:X *477:12 16.9786 
2 *477:12 *3061:A3 23.675 
3 *477:12 *3052:B 9.3 
*END

*D_NET *478 0.000432552
*CONN
*I *3077:A I *D sky130_fd_sc_hd__nand2_1
*I *3055:A I *D sky130_fd_sc_hd__nor2_1
*I *3052:Y O *D sky130_fd_sc_hd__nand2_1
*CAP
1 *3077:A 2.9238e-05
2 *3055:A 0
3 *3052:Y 8.38643e-05
4 *478:10 0.000113102
5 *3077:A *3055:B 5.33005e-05
6 *478:10 *485:8 0
7 *478:10 *1056:29 0.000153047
*RES
1 *3052:Y *478:10 20.2464 
2 *478:10 *3055:A 9.3 
3 *478:10 *3077:A 9.83571 
*END

*D_NET *479 0.0029176
*CONN
*I *3077:B I *D sky130_fd_sc_hd__nand2_1
*I *3055:B I *D sky130_fd_sc_hd__nor2_1
*I *3054:A I *D sky130_fd_sc_hd__inv_2
*I *3053:Y O *D sky130_fd_sc_hd__xnor2_1
*CAP
1 *3077:B 3.22686e-05
2 *3055:B 0.000139441
3 *3054:A 0
4 *3053:Y 0.000370554
5 *479:21 0.000297693
6 *479:10 0.000496538
7 *3077:B *3078:B2 5.52302e-05
8 *479:10 *3061:A2 0.000225307
9 *479:10 *1056:10 5.74562e-05
10 *479:21 *3061:A2 8.00806e-05
11 *479:21 *3078:A1 0
12 *479:21 *1056:29 0.000222683
13 *3024:B2 *479:10 0.000173812
14 *3028:A *479:10 0.000338366
15 *3028:B *479:10 0.000160189
16 *3052:A *479:10 0.000202842
17 *3061:C1 *479:10 1.18358e-05
18 *3077:A *3055:B 5.33005e-05
19 *450:10 *479:10 0
*RES
1 *3053:Y *479:10 24.8 
2 *479:10 *3054:A 13.8 
3 *479:10 *479:21 7.66071 
4 *479:21 *3055:B 11.4964 
5 *479:21 *3077:B 10.2643 
*END

*D_NET *480 0.0022617
*CONN
*I *3078:A1 I *D sky130_fd_sc_hd__a22o_1
*I *3061:A2 I *D sky130_fd_sc_hd__a311o_1
*I *3054:Y O *D sky130_fd_sc_hd__inv_2
*CAP
1 *3078:A1 0.00026024
2 *3061:A2 0.000358756
3 *3054:Y 0
4 *480:4 0.000618996
5 *3061:A2 *3061:B1 1.74352e-05
6 *3078:A1 *496:18 0.000274294
7 *3061:A1 *3061:A2 0.000262243
8 *450:10 *3061:A2 0
9 *450:27 *3061:A2 0
10 *452:23 *3061:A2 0
11 *452:27 *3061:A2 0
12 *452:27 *3078:A1 8.15939e-05
13 *467:8 *3061:A2 8.27532e-05
14 *479:10 *3061:A2 0.000225307
15 *479:21 *3061:A2 8.00806e-05
16 *479:21 *3078:A1 0
*RES
1 *3054:Y *480:4 9.3 
2 *480:4 *3061:A2 26.2107 
3 *480:4 *3078:A1 22.8357 
*END

*D_NET *481 0.00268336
*CONN
*I *3075:C1 I *D sky130_fd_sc_hd__a211o_1
*I *3074:B1 I *D sky130_fd_sc_hd__a21oi_2
*I *3110:B1 I *D sky130_fd_sc_hd__o2bb2a_1
*I *3055:Y O *D sky130_fd_sc_hd__nor2_1
*CAP
1 *3075:C1 0.000135483
2 *3074:B1 0.000121806
3 *3110:B1 8.7916e-05
4 *3055:Y 9.9371e-05
5 *481:19 0.000380193
6 *481:8 0.000310191
7 *3074:B1 *538:22 0.000396905
8 *3074:B1 *539:34 0.000128342
9 *3075:C1 *3075:A1 0
10 *3075:C1 *3075:A2 0.000113737
11 *3075:C1 *1056:120 1.19402e-05
12 *3110:B1 *3075:A1 6.05161e-06
13 *3110:B1 *3110:A1_N 5.66525e-05
14 *3110:B1 *3110:B2 0.000354111
15 *3110:B1 *996:16 0.000183726
16 *3110:B1 *1055:23 8.94364e-05
17 *481:8 *3075:A1 0
18 *481:8 *3113:A 0
19 *481:8 *1056:29 2.93474e-05
20 *481:8 *1056:120 2.37761e-05
21 *481:19 *3075:A1 0
22 *481:19 *1056:120 4.40142e-05
23 *3075:B1 *3074:B1 2.32625e-05
24 *3075:B1 *3075:C1 6.42338e-05
25 *447:29 *3110:B1 2.28598e-05
*RES
1 *3055:Y *481:8 15.7464 
2 *481:8 *3110:B1 17.6214 
3 *481:8 *481:19 1.94643 
4 *481:19 *3074:B1 18.05 
5 *481:19 *3075:C1 17.1929 
*END

*D_NET *482 0.00165526
*CONN
*I *3058:A2 I *D sky130_fd_sc_hd__o21ai_1
*I *3057:C I *D sky130_fd_sc_hd__or3_1
*I *3062:B I *D sky130_fd_sc_hd__or2_1
*I *3056:Y O *D sky130_fd_sc_hd__nor3_1
*CAP
1 *3058:A2 9.55592e-05
2 *3057:C 0
3 *3062:B 0
4 *3056:Y 0.00018108
5 *482:21 0.000154657
6 *482:10 0.000240178
7 *482:10 *498:14 0.000185643
8 *3009:B *482:10 4.46186e-06
9 *3058:B1 *3058:A2 0.000132524
10 *3062:A *482:10 8.15939e-05
11 *3066:A1_N *3058:A2 4.88637e-05
12 *428:34 *482:10 7.79781e-06
13 *428:34 *482:21 4.97825e-05
14 *431:37 *482:10 0.000177941
15 *431:37 *482:21 0.000152333
16 *440:25 *3058:A2 0.00014285
*RES
1 *3056:Y *482:10 17.8179 
2 *482:10 *3062:B 13.8 
3 *482:10 *482:21 6.44643 
4 *482:21 *3057:C 9.3 
5 *482:21 *3058:A2 12.3179 
*END

*D_NET *483 0.000900169
*CONN
*I *3059:A I *D sky130_fd_sc_hd__and2_1
*I *3066:B1 I *D sky130_fd_sc_hd__a2bb2o_1
*I *3057:X O *D sky130_fd_sc_hd__or3_1
*CAP
1 *3059:A 9.27029e-05
2 *3066:B1 2.36895e-05
3 *3057:X 0.000104236
4 *483:10 0.000220628
5 *3059:A *3070:A2 0.00010096
6 *3066:A1_N *483:10 0
7 *441:14 *3059:A 0.000302728
8 *441:14 *3066:B1 5.52238e-05
9 *447:10 *483:10 0
*RES
1 *3057:X *483:10 19.9429 
2 *483:10 *3066:B1 9.83571 
3 *483:10 *3059:A 12.3 
*END

*D_NET *484 0.000798574
*CONN
*I *3059:B I *D sky130_fd_sc_hd__and2_1
*I *3058:Y O *D sky130_fd_sc_hd__o21ai_1
*CAP
1 *3059:B 0.000310204
2 *3058:Y 0.000310204
3 *3059:B *3003:A 1.02504e-05
4 *3059:B *498:14 0.000150625
5 *3028:B *3059:B 0
6 *3058:B1 *3059:B 1.72894e-05
*RES
1 *3058:Y *3059:B 32.1357 
*END

*D_NET *485 0.00212488
*CONN
*I *3113:A I *D sky130_fd_sc_hd__xnor2_2
*I *3060:B I *D sky130_fd_sc_hd__nand2_1
*I *3059:X O *D sky130_fd_sc_hd__and2_1
*CAP
1 *3113:A 0.000198164
2 *3060:B 3.72884e-05
3 *3059:X 0.000438937
4 *485:8 0.000674389
5 *3113:A *3061:B1 2.82057e-05
6 *3113:A *3075:A1 0.000247057
7 *3113:A *3110:B2 8.91726e-05
8 *3113:A *3113:B 0
9 *3113:A *1056:29 0
10 *485:8 *3003:A 7.83587e-05
11 *485:8 *3061:B1 0.000117144
12 *485:8 *3068:A 2.78822e-05
13 *485:8 *496:8 0
14 *485:8 *498:14 1.69115e-05
15 *485:8 *1056:29 0
16 *3061:A3 *485:8 0.000171368
17 *3061:C1 *485:8 0
18 *447:29 *3113:A 0
19 *478:10 *485:8 0
20 *481:8 *3113:A 0
*RES
1 *3059:X *485:8 23.0321 
2 *485:8 *3060:B 14.3357 
3 *485:8 *3113:A 18.7821 
*END

*D_NET *486 0.00310124
*CONN
*I *3110:B2 I *D sky130_fd_sc_hd__o2bb2a_1
*I *3061:B1 I *D sky130_fd_sc_hd__a311o_1
*I *3060:Y O *D sky130_fd_sc_hd__nand2_1
*CAP
1 *3110:B2 0.000227024
2 *3061:B1 0.000225131
3 *3060:Y 0
4 *486:6 0.000452155
5 *3061:B1 *3068:A 0.000150618
6 *3061:B1 *3109:A1 0.000268396
7 *3061:B1 *3678:A 8.27403e-05
8 *3061:B1 *487:6 4.0342e-06
9 *3061:B1 *496:8 1.78353e-05
10 *3110:B2 *3075:A1 6.4443e-05
11 *3110:B2 *3678:A 6.73499e-05
12 *3110:B2 *536:8 1.74903e-05
13 *3061:A1 *3061:B1 6.20656e-05
14 *3061:A2 *3061:B1 1.74352e-05
15 *3061:A3 *3061:B1 0.000203919
16 *3110:B1 *3110:B2 0.000354111
17 *3113:A *3061:B1 2.82057e-05
18 *3113:A *3110:B2 8.91726e-05
19 *447:29 *3110:B2 0.000651967
20 *485:8 *3061:B1 0.000117144
*RES
1 *3060:Y *486:6 13.8 
2 *486:6 *3061:B1 22.1036 
3 *486:6 *3110:B2 22.3357 
*END

*D_NET *487 0.00210845
*CONN
*I *3068:A I *D sky130_fd_sc_hd__nand2_1
*I *3070:A2 I *D sky130_fd_sc_hd__a21o_1
*I *3061:X O *D sky130_fd_sc_hd__a311o_1
*CAP
1 *3068:A 0.000102943
2 *3070:A2 0.000359689
3 *3061:X 3.79074e-05
4 *487:6 0.00050054
5 *3068:A *3109:S 0.000102545
6 *3068:A *496:8 8.23207e-05
7 *3068:A *496:18 2.89016e-05
8 *3070:A2 *3070:A1 0.000269529
9 *3070:A2 *3070:B1 0.000198698
10 *3070:A2 *3109:A0 0.000114759
11 *3070:A2 *3109:A1 9.20581e-06
12 *487:6 *3109:A1 3.81416e-06
13 *3059:A *3070:A2 0.00010096
14 *3061:A3 *3068:A 1.41029e-05
15 *3061:B1 *3068:A 0.000150618
16 *3061:B1 *487:6 4.0342e-06
17 *3770:A *3070:A2 0
18 *485:8 *3068:A 2.78822e-05
*RES
1 *3061:X *487:6 9.83571 
2 *487:6 *3070:A2 25.4964 
3 *487:6 *3068:A 21.9964 
*END

*D_NET *488 0.00191887
*CONN
*I *3066:A2_N I *D sky130_fd_sc_hd__a2bb2o_1
*I *3063:B I *D sky130_fd_sc_hd__nand2_1
*I *3064:C I *D sky130_fd_sc_hd__and3_1
*I *3071:A2 I *D sky130_fd_sc_hd__a21o_1
*I *3062:X O *D sky130_fd_sc_hd__or2_1
*CAP
1 *3066:A2_N 4.88227e-05
2 *3063:B 4.22848e-05
3 *3064:C 0.000163846
4 *3071:A2 0.000107173
5 *3062:X 0
6 *488:32 0.000210718
7 *488:19 0.000335917
8 *488:6 0.000159634
9 *488:32 *3069:B 0
10 *3069:A *3071:A2 0
11 *3069:A *488:19 0
12 *3069:A *488:32 0
13 *3071:A1 *3071:A2 0
14 *3071:B1 *3071:A2 0.000230475
15 *428:34 *3066:A2_N 9.90431e-05
16 *428:34 *3071:A2 5.59013e-05
17 *428:34 *488:19 0.00010326
18 *428:34 *488:32 0.000248493
19 *441:14 *3063:B 5.06778e-05
20 *441:14 *3066:A2_N 6.26276e-05
*RES
1 *3062:X *488:6 13.8 
2 *488:6 *3071:A2 16.7107 
3 *488:6 *488:19 1.33929 
4 *488:19 *3064:C 16.2464 
5 *488:19 *488:32 7.66071 
6 *488:32 *3063:B 10.2018 
7 *488:32 *3066:A2_N 10.6571 
*END

*D_NET *489 0.000414313
*CONN
*I *3065:B I *D sky130_fd_sc_hd__xor2_1
*I *3063:Y O *D sky130_fd_sc_hd__nand2_1
*CAP
1 *3065:B 0.000175095
2 *3063:Y 0.000175095
3 *3063:A *3065:B 1.97695e-05
4 *3064:B *3065:B 2.50627e-05
5 *441:14 *3065:B 1.92905e-05
*RES
1 *3063:Y *3065:B 21.6357 
*END

*D_NET *490 0.00088441
*CONN
*I *3069:B I *D sky130_fd_sc_hd__xor2_1
*I *3064:X O *D sky130_fd_sc_hd__and3_1
*CAP
1 *3069:B 0.000294514
2 *3064:X 0.000294514
3 *3069:B *491:8 0.000250201
4 *3069:B *492:8 0
5 *3064:B *3069:B 3.92757e-05
6 *3069:A *3069:B 5.90443e-06
7 *3770:A *3069:B 0
8 *428:34 *3069:B 0
9 *488:32 *3069:B 0
*RES
1 *3064:X *3069:B 32.9214 
*END

*D_NET *491 0.00219461
*CONN
*I *3112:A I *D sky130_fd_sc_hd__xor2_1
*I *3067:A_N I *D sky130_fd_sc_hd__and2b_1
*I *3065:X O *D sky130_fd_sc_hd__xor2_1
*CAP
1 *3112:A 0.000404798
2 *3067:A_N 0.000119862
3 *3065:X 0.000321134
4 *491:8 0.000845794
5 *3112:A *3112:B 0.000129868
6 *3112:A *3114:A 0
7 *3112:A *492:8 0
8 *3112:A *492:19 0
9 *491:8 *492:8 0
10 *3069:A *491:8 0.000122951
11 *3069:B *491:8 0.000250201
*RES
1 *3065:X *491:8 21.2107 
2 *491:8 *3067:A_N 15.5679 
3 *491:8 *3112:A 21.8179 
*END

*D_NET *492 0.0018872
*CONN
*I *3114:A I *D sky130_fd_sc_hd__xnor2_1
*I *3111:A I *D sky130_fd_sc_hd__nand2_1
*I *3067:B I *D sky130_fd_sc_hd__and2b_1
*I *3066:X O *D sky130_fd_sc_hd__a2bb2o_1
*CAP
1 *3114:A 0.000172503
2 *3111:A 0
3 *3067:B 6.66388e-05
4 *3066:X 0.00040265
5 *492:19 0.000409691
6 *492:8 0.000706477
7 *3114:A *3112:B 0
8 *3114:A *3114:B 7.17603e-05
9 *3114:A *538:22 5.33433e-05
10 *492:8 *3070:A1 0
11 *492:8 *535:14 0
12 *492:19 *3114:B 4.1331e-06
13 *3069:B *492:8 0
14 *3112:A *3114:A 0
15 *3112:A *492:8 0
16 *3112:A *492:19 0
17 *3770:A *492:8 0
18 *491:8 *492:8 0
*RES
1 *3066:X *492:8 20.9071 
2 *492:8 *3067:B 14.7464 
3 *492:8 *492:19 4.375 
4 *492:19 *3111:A 13.8 
5 *492:19 *3114:A 17.6036 
*END

*D_NET *493 0.00149035
*CONN
*I *3068:B I *D sky130_fd_sc_hd__nand2_1
*I *3070:A1 I *D sky130_fd_sc_hd__a21o_1
*I *3067:X O *D sky130_fd_sc_hd__and2b_1
*CAP
1 *3068:B 8.6442e-05
2 *3070:A1 0.000238462
3 *3067:X 0.000181874
4 *493:8 0.000506778
5 *3070:A1 *3109:A0 4.23086e-05
6 *3070:A1 *535:14 0.000103267
7 *3070:A2 *3070:A1 0.000269529
8 *3770:A *3070:A1 0
9 *447:10 *3070:A1 6.16864e-05
10 *492:8 *3070:A1 0
*RES
1 *3067:X *493:8 12.3179 
2 *493:8 *3070:A1 24.8 
3 *493:8 *3068:B 10.6571 
*END

*D_NET *494 0.000273968
*CONN
*I *3109:S I *D sky130_fd_sc_hd__mux2_2
*I *3068:Y O *D sky130_fd_sc_hd__nand2_1
*CAP
1 *3109:S 3.44389e-05
2 *3068:Y 3.44389e-05
3 *3109:S *496:8 0.000102545
4 *3068:A *3109:S 0.000102545
*RES
1 *3068:Y *3109:S 28.9393 
*END

*D_NET *495 0.00187061
*CONN
*I *3109:A0 I *D sky130_fd_sc_hd__mux2_2
*I *3070:B1 I *D sky130_fd_sc_hd__a21o_1
*I *3069:X O *D sky130_fd_sc_hd__xor2_1
*CAP
1 *3109:A0 5.8581e-05
2 *3070:B1 5.55006e-05
3 *3069:X 0.00036776
4 *495:8 0.000481841
5 *495:8 *3003:A 1.58163e-05
6 *495:8 *535:14 0.000136951
7 *3070:A1 *3109:A0 4.23086e-05
8 *3070:A2 *3070:B1 0.000198698
9 *3070:A2 *3109:A0 0.000114759
10 *447:10 *3070:B1 0.000200406
11 *447:10 *3109:A0 0.000197984
*RES
1 *3069:X *495:8 20.0857 
2 *495:8 *3070:B1 16.3536 
3 *495:8 *3109:A0 16.3536 
*END

*D_NET *496 0.00665258
*CONN
*I *3678:A I *D sky130_fd_sc_hd__buf_6
*I *3092:A1 I *D sky130_fd_sc_hd__a21oi_1
*I *3661:A I *D sky130_fd_sc_hd__clkbuf_1
*I *3070:X O *D sky130_fd_sc_hd__a21o_1
*CAP
1 *3678:A 0.000174162
2 *3092:A1 8.04255e-05
3 *3661:A 0.00012303
4 *3070:X 0.000195268
5 *496:18 0.00115991
6 *496:8 0.00132588
7 *3092:A1 *3092:A2 0.000146474
8 *3092:A1 *515:6 5.33005e-05
9 *3092:A1 *1056:71 6.82922e-05
10 *3661:A *3092:A2 9.03127e-05
11 *3661:A *3095:B 7.2754e-05
12 *3661:A *1056:71 1.52978e-05
13 *3678:A *536:8 9.76689e-05
14 *496:8 *498:14 6.65302e-05
15 *496:18 *1056:71 9.71197e-05
16 *3039:C *3661:A 0.000117893
17 *3039:C *496:18 9.22103e-06
18 *3051:A *496:18 0.000159912
19 *3051:B *3661:A 0
20 *3051:B *496:18 0.000180764
21 *3051:D_N *496:18 1.40034e-05
22 *3061:A3 *496:18 0.000139087
23 *3061:B1 *3678:A 8.27403e-05
24 *3061:B1 *496:8 1.78353e-05
25 *3068:A *496:8 8.23207e-05
26 *3068:A *496:18 2.89016e-05
27 *3078:A1 *496:18 0.000274294
28 *3089:A *3092:A1 5.33005e-05
29 *3089:B *3661:A 1.17921e-05
30 *3109:S *496:8 0.000102545
31 *3110:B2 *3678:A 6.73499e-05
32 *447:10 *3678:A 0.000167691
33 *447:10 *496:8 0.000558552
34 *447:29 *3678:A 0.000222527
35 *450:36 *3661:A 1.5942e-05
36 *477:12 *496:18 0.000579488
37 *485:8 *496:8 0
*RES
1 *3070:X *496:8 20.9071 
2 *496:8 *496:18 25.6964 
3 *496:18 *3661:A 16.9607 
4 *496:18 *3092:A1 16.2821 
5 *496:8 *3678:A 19.9429 
*END

*D_NET *497 0.000436984
*CONN
*I *3072:B I *D sky130_fd_sc_hd__xnor2_1
*I *3071:X O *D sky130_fd_sc_hd__a21o_1
*CAP
1 *3072:B 0.000218492
2 *3071:X 0.000218492
3 *423:34 *3072:B 0
*RES
1 *3071:X *3072:B 30.6 
*END

*D_NET *498 0.00835141
*CONN
*I *3679:A I *D sky130_fd_sc_hd__buf_2
*I *3092:A2 I *D sky130_fd_sc_hd__a21oi_1
*I *3082:A2 I *D sky130_fd_sc_hd__a22o_1
*I *3072:Y O *D sky130_fd_sc_hd__xnor2_1
*CAP
1 *3679:A 0
2 *3092:A2 0.000554351
3 *3082:A2 1.40355e-05
4 *3072:Y 0.000874627
5 *498:22 0.00166638
6 *498:14 0.00197262
7 *3082:A2 *3097:A1_N 2.89114e-05
8 *3082:A2 *1055:54 5.52302e-05
9 *3092:A2 *3083:B1 4.68614e-05
10 *3092:A2 *507:25 2.61337e-05
11 *3092:A2 *1055:54 0.000113119
12 *498:14 *3003:A 8.31501e-05
13 *498:14 *535:14 2.89114e-05
14 *498:22 *3003:A 5.52238e-05
15 *498:22 *507:25 3.57844e-05
16 *498:22 *535:14 0.000598924
17 *498:22 *996:53 0.000171368
18 *3006:A *498:14 2.79421e-05
19 *3024:B2 *498:14 0
20 *3028:A *498:22 9.60875e-05
21 *3053:A *498:14 0.000184645
22 *3053:B *498:14 0
23 *3056:B *498:14 0.000173921
24 *3056:C *498:14 0.000100625
25 *3059:B *498:14 0.000150625
26 *3084:B *3092:A2 3.43988e-06
27 *3089:B *3092:A2 0.000136757
28 *3092:A1 *3092:A2 0.000146474
29 *3661:A *3092:A2 9.03127e-05
30 *425:27 *498:14 4.88515e-05
31 *426:8 *498:14 5.52302e-05
32 *432:8 *498:14 5.33005e-05
33 *447:10 *498:14 0.000217025
34 *454:10 *498:22 0.00014183
35 *462:34 *3092:A2 1.27784e-05
36 *462:34 *498:22 1.91512e-05
37 *475:12 *498:22 9.76928e-05
38 *482:10 *498:14 0.000185643
39 *485:8 *498:14 1.69115e-05
40 *496:8 *498:14 6.65302e-05
*RES
1 *3072:Y *498:14 38.8714 
2 *498:14 *498:22 25.875 
3 *498:22 *3082:A2 14.3357 
4 *498:22 *3092:A2 26.7423 
5 *498:14 *3679:A 9.3 
*END

*D_NET *499 0.00767449
*CONN
*I *3087:B I *D sky130_fd_sc_hd__nor2_1
*I *3104:B I *D sky130_fd_sc_hd__xnor2_2
*I *3097:B2 I *D sky130_fd_sc_hd__a2bb2o_2
*I *3078:A2 I *D sky130_fd_sc_hd__a22o_1
*I *3073:X O *D sky130_fd_sc_hd__and2_4
*CAP
1 *3087:B 0
2 *3104:B 0.000133012
3 *3097:B2 0.000103041
4 *3078:A2 0.000458576
5 *3073:X 0
6 *499:40 0.00100569
7 *499:21 0.00174768
8 *499:4 0.00123054
9 *3078:A2 *3078:B2 0
10 *3078:A2 *504:10 0.000485543
11 *3104:B *3101:A1 0
12 *3104:B *1056:82 0
13 *3104:B *1056:84 0
14 *499:21 *507:10 9.41642e-05
15 *499:21 *535:14 0.000566251
16 *499:21 *535:16 8.25996e-05
17 *499:40 *3088:A 6.16744e-05
18 *499:40 *3088:B 0.000154762
19 *499:40 *506:22 0
20 *499:40 *535:16 0.000476595
21 *499:40 *535:24 5.66157e-05
22 *499:40 *544:14 0
23 *499:40 *1056:82 0
24 *3051:B *499:21 0.000234377
25 *3087:A *3104:B 3.06406e-05
26 *3089:A *499:21 0.000347655
27 *3104:A *3104:B 3.34295e-05
28 *450:36 *499:21 4.33438e-05
29 *460:36 *3097:B2 6.09572e-05
30 *466:10 *499:21 0.000114492
31 *473:8 *3104:B 2.88424e-05
32 *473:33 *499:21 0.00012401
*RES
1 *3073:X *499:4 9.3 
2 *499:4 *3078:A2 15.8 
3 *499:4 *499:21 22.8214 
4 *499:21 *3097:B2 19.9429 
5 *499:21 *499:40 19.2679 
6 *499:40 *3104:B 16.3536 
7 *499:40 *3087:B 13.8 
*END

*D_NET *500 0.00109139
*CONN
*I *3076:B I *D sky130_fd_sc_hd__xnor2_2
*I *3078:B1 I *D sky130_fd_sc_hd__a22o_1
*I *3074:Y O *D sky130_fd_sc_hd__a21oi_2
*CAP
1 *3076:B 0.000112676
2 *3078:B1 0.000322937
3 *3074:Y 0
4 *500:6 0.000435613
5 *3076:B *3075:A2 0
6 *3078:B1 *3074:A1 7.00299e-05
7 *3078:B1 *3075:A2 0
8 *3078:B1 *1056:29 0
9 *3078:B1 *1056:120 0
10 *3076:A *3076:B 6.42242e-05
11 *3076:A *3078:B1 1.31516e-05
12 *3174:A *3076:B 0
13 *447:29 *3078:B1 7.2754e-05
14 *452:27 *3078:B1 0
*RES
1 *3074:Y *500:6 13.8 
2 *500:6 *3078:B1 19.3179 
3 *500:6 *3076:B 15.7464 
*END

*D_NET *501 0.000362324
*CONN
*I *3113:B I *D sky130_fd_sc_hd__xnor2_2
*I *3075:X O *D sky130_fd_sc_hd__a211o_1
*CAP
1 *3113:B 0.000181162
2 *3075:X 0.000181162
3 *3113:B *3075:A1 0
4 *3113:B *540:10 0
5 *3113:A *3113:B 0
*RES
1 *3075:X *3113:B 30.1893 
*END

*D_NET *502 0.00403975
*CONN
*I *3125:A I *D sky130_fd_sc_hd__xnor2_2
*I *3116:A I *D sky130_fd_sc_hd__nor2_1
*I *3076:Y O *D sky130_fd_sc_hd__xnor2_2
*CAP
1 *3125:A 0.000292127
2 *3116:A 0
3 *3076:Y 0.00121962
4 *502:16 0.00151175
5 *3125:A *3123:B 0.000109026
6 *3125:A *3125:B 0.000119618
7 *3125:A *3132:A1 0
8 *3125:A *3171:A 5.22205e-05
9 *3125:A *504:33 0.000194313
10 *3125:A *549:10 3.79467e-05
11 *502:16 *3100:C1 0.000122114
12 *502:16 *3123:B 1.01912e-05
13 *502:16 *504:33 1.01912e-05
14 *502:16 *600:14 0.00034777
15 *3174:A *502:16 1.28585e-05
*RES
1 *3076:Y *502:16 24.1032 
2 *502:16 *3116:A 13.8 
3 *502:16 *3125:A 21.5143 
*END

*D_NET *503 0.000297053
*CONN
*I *3078:B2 I *D sky130_fd_sc_hd__a22o_1
*I *3077:Y O *D sky130_fd_sc_hd__nand2_1
*CAP
1 *3078:B2 0.000120911
2 *3077:Y 0.000120911
3 *3077:B *3078:B2 5.52302e-05
4 *3078:A2 *3078:B2 0
*RES
1 *3077:Y *3078:B2 20.7964 
*END

*D_NET *504 0.00683795
*CONN
*I *3170:A I *D sky130_fd_sc_hd__and2_1
*I *3124:A I *D sky130_fd_sc_hd__nor2_1
*I *3116:B I *D sky130_fd_sc_hd__nor2_1
*I *3078:X O *D sky130_fd_sc_hd__a22o_1
*CAP
1 *3170:A 0.000223998
2 *3124:A 0
3 *3116:B 0.00032142
4 *3078:X 0.00108662
5 *504:33 0.000651412
6 *504:10 0.00183546
7 *3116:B *3123:B 0.000240127
8 *3116:B *3132:A1 0
9 *3116:B *3168:C_N 2.59355e-05
10 *3116:B *535:24 0
11 *3116:B *539:34 0.000225609
12 *3116:B *542:10 5.33005e-05
13 *3170:A *3124:B 2.44318e-05
14 *3170:A *3132:A1 3.18676e-05
15 *3170:A *3170:B 0.000114326
16 *3170:A *3171:A 9.90431e-05
17 *3170:A *597:16 0.000363837
18 *504:10 *3084:A 0
19 *504:10 *3098:A 0
20 *504:10 *3123:B 0
21 *504:10 *3135:A 1.91418e-05
22 *504:10 *510:12 0.000130546
23 *504:10 *589:10 0
24 *504:10 *1056:50 0.000116749
25 *504:10 *1056:71 2.28499e-05
26 *504:33 *3123:B 0
27 *504:33 *3167:A 8.45154e-05
28 *504:33 *538:22 0
29 *3078:A2 *504:10 0.000485543
30 *3089:A *504:10 0.000476709
31 *3125:A *504:33 0.000194313
32 *502:16 *504:33 1.01912e-05
*RES
1 *3078:X *504:10 34.6214 
2 *504:10 *3116:B 28.675 
3 *504:10 *504:33 13.0536 
4 *504:33 *3124:A 9.3 
5 *504:33 *3170:A 15.5143 
*END

*D_NET *505 0.000260264
*CONN
*I *3080:B I *D sky130_fd_sc_hd__xnor2_2
*I *3079:Y O *D sky130_fd_sc_hd__a21boi_1
*CAP
1 *3080:B 4.12058e-05
2 *3079:Y 4.12058e-05
3 *3080:B *3049:D 0.000129868
4 *3080:B *1056:82 4.79842e-05
*RES
1 *3079:Y *3080:B 29.2429 
*END

*D_NET *506 0.00733977
*CONN
*I *3134:B1 I *D sky130_fd_sc_hd__a21o_1
*I *3085:B I *D sky130_fd_sc_hd__or2_4
*I *3156:A I *D sky130_fd_sc_hd__xor2_1
*I *3155:A I *D sky130_fd_sc_hd__xnor2_1
*I *3080:Y O *D sky130_fd_sc_hd__xnor2_2
*CAP
1 *3134:B1 6.46241e-05
2 *3085:B 0.000116842
3 *3156:A 2.45123e-05
4 *3155:A 0.000135503
5 *3080:Y 0.000708914
6 *506:30 0.000351673
7 *506:28 0.000857453
8 *506:22 0.00132249
9 *3085:B *511:8 0
10 *3085:B *547:43 0.000106542
11 *3134:B1 *3135:B 5.52302e-05
12 *3134:B1 *548:55 4.88637e-05
13 *3134:B1 *560:6 0.000131439
14 *3134:B1 *563:6 0.000230482
15 *3155:A *3155:B 5.33005e-05
16 *3155:A *3156:B 0.000144512
17 *3155:A *546:27 0
18 *3155:A *547:8 9.60875e-05
19 *3155:A *547:43 2.58997e-05
20 *3155:A *577:17 1.02504e-05
21 *3155:A *981:14 0.000202835
22 *3156:A *3156:B 6.05161e-06
23 *3156:A *583:8 5.52302e-05
24 *506:22 *3098:A 0.000175519
25 *506:22 *3098:B 0.000245892
26 *506:22 *3099:A 5.41794e-05
27 *506:22 *3135:A 2.49484e-05
28 *506:22 *3135:B 3.97677e-05
29 *506:22 *3137:A1 9.25014e-06
30 *506:22 *3137:B1 3.34366e-05
31 *506:22 *3157:B 0
32 *506:22 *523:10 5.33882e-05
33 *506:22 *535:24 1.66757e-05
34 *506:22 *561:13 4.27338e-05
35 *506:22 *1056:82 0.000170952
36 *506:28 *3108:B 0.000137983
37 *506:28 *3136:A2 0.000181796
38 *506:28 *561:13 1.24368e-05
39 *506:28 *563:6 0.00120975
40 *506:30 *3107:B 0
41 *506:30 *3667:A 0
42 *506:30 *514:34 0
43 *506:30 *547:43 0.000182329
44 *499:40 *506:22 0
*RES
1 *3080:Y *506:22 33.0857 
2 *506:22 *506:28 16.9643 
3 *506:28 *506:30 4.375 
4 *506:30 *3155:A 18.1393 
5 *506:30 *3156:A 14.3357 
6 *506:28 *3085:B 16.3536 
7 *506:22 *3134:B1 12.3179 
*END

*D_NET *507 0.00256352
*CONN
*I *3083:B1 I *D sky130_fd_sc_hd__a221o_1
*I *3082:B1 I *D sky130_fd_sc_hd__a22o_1
*I *3096:B I *D sky130_fd_sc_hd__nor2_1
*I *3081:Y O *D sky130_fd_sc_hd__nand2b_1
*CAP
1 *3083:B1 4.28901e-05
2 *3082:B1 6.19554e-05
3 *3096:B 0.000406222
4 *3081:Y 7.03861e-05
5 *507:25 0.000168888
6 *507:10 0.00054065
7 *3082:B1 *3097:A2_N 0
8 *3082:B1 *1055:54 3.25649e-05
9 *3082:B1 *1055:63 1.98839e-05
10 *3096:B *3097:A1_N 0.000341111
11 *3096:B *3097:A2_N 0.000156878
12 *507:10 *535:16 9.60875e-05
13 *507:10 *996:53 9.91086e-05
14 *3084:B *3083:B1 0.000100831
15 *3084:B *507:10 9.91086e-05
16 *3084:B *507:25 0.00012401
17 *3092:A2 *3083:B1 4.68614e-05
18 *3092:A2 *507:25 2.61337e-05
19 *498:22 *507:25 3.57844e-05
20 *499:21 *507:10 9.41642e-05
*RES
1 *3081:Y *507:10 16.0857 
2 *507:10 *3096:B 20.425 
3 *507:10 *507:25 1.64286 
4 *507:25 *3082:B1 14.7643 
5 *507:25 *3083:B1 15.1393 
*END

*D_NET *508 0.00233065
*CONN
*I *3097:A1_N I *D sky130_fd_sc_hd__a2bb2o_2
*I *3095:B I *D sky130_fd_sc_hd__xnor2_1
*I *3082:X O *D sky130_fd_sc_hd__a22o_1
*CAP
1 *3097:A1_N 0.000206424
2 *3095:B 0.000327545
3 *3082:X 0
4 *508:4 0.000533969
5 *3095:B *996:53 7.49387e-06
6 *3095:B *1055:54 3.34624e-05
7 *3095:B *1056:71 6.08004e-05
8 *3097:A1_N *3097:A2_N 3.71789e-05
9 *3097:A1_N *996:53 9.60875e-05
10 *3097:A1_N *1055:54 1.77651e-05
11 *3097:A1_N *1055:63 4.58194e-05
12 *3050:B *3095:B 8.37104e-05
13 *3051:B *3095:B 1.3142e-05
14 *3051:D_N *3095:B 9.71197e-05
15 *3082:A2 *3097:A1_N 2.89114e-05
16 *3089:B *3095:B 0.000136951
17 *3096:B *3097:A1_N 0.000341111
18 *3097:B1 *3097:A1_N 2.89114e-05
19 *3661:A *3095:B 7.2754e-05
20 *450:27 *3095:B 0.000123295
21 *450:36 *3095:B 1.02504e-05
22 *475:12 *3095:B 2.79421e-05
*RES
1 *3082:X *508:4 9.3 
2 *508:4 *3095:B 26.0679 
3 *508:4 *3097:A1_N 14.9964 
*END

*D_NET *509 0.000234801
*CONN
*I *3084:A I *D sky130_fd_sc_hd__xnor2_2
*I *3083:X O *D sky130_fd_sc_hd__a221o_1
*CAP
1 *3084:A 8.99714e-05
2 *3083:X 8.99714e-05
3 *3084:B *3084:A 5.48581e-05
4 *504:10 *3084:A 0
*RES
1 *3083:X *3084:A 29.5464 
*END

*D_NET *510 0.0043613
*CONN
*I *3163:A I *D sky130_fd_sc_hd__or2_1
*I *3085:A I *D sky130_fd_sc_hd__or2_4
*I *3164:A I *D sky130_fd_sc_hd__xnor2_1
*I *3100:B2 I *D sky130_fd_sc_hd__o221a_1
*I *3084:Y O *D sky130_fd_sc_hd__xnor2_2
*CAP
1 *3163:A 0
2 *3085:A 8.58505e-05
3 *3164:A 9.39849e-05
4 *3100:B2 1.32931e-05
5 *3084:Y 0.000170652
6 *510:31 0.000329151
7 *510:18 0.00102765
8 *510:12 0.0010357
9 *3085:A *3162:B 4.01768e-05
10 *3100:B2 *3100:B1 2.53134e-05
11 *3164:A *3162:B 8.15939e-05
12 *3164:A *3667:A 0.000200413
13 *3164:A *547:43 0
14 *510:12 *3135:A 4.40977e-05
15 *510:12 *3135:B 1.33343e-05
16 *510:18 *3100:B1 0.000436316
17 *510:18 *3163:B 2.28499e-05
18 *510:18 *526:6 1.21289e-05
19 *510:18 *548:55 0.000438775
20 *510:31 *3162:B 1.56e-05
21 *510:31 *526:6 0.000143875
22 *504:10 *510:12 0.000130546
*RES
1 *3084:Y *510:12 20.9964 
2 *510:12 *510:18 12.0714 
3 *510:18 *3100:B2 9.72857 
4 *510:18 *510:31 3.14286 
5 *510:31 *3164:A 21.2821 
6 *510:31 *3085:A 11.0679 
7 *510:12 *3163:A 9.3 
*END

*D_NET *511 0.0012427
*CONN
*I *3762:A I *D sky130_fd_sc_hd__dlymetal6s4s_1
*I *3107:B I *D sky130_fd_sc_hd__or4b_4
*I *3085:X O *D sky130_fd_sc_hd__or2_4
*CAP
1 *3762:A 4.1975e-05
2 *3107:B 0.000202757
3 *3085:X 8.0547e-05
4 *511:8 0.000325279
5 *3107:B *3134:A2 5.33005e-05
6 *3107:B *3667:A 0.000146474
7 *3107:B *514:40 4.27437e-05
8 *3762:A *3100:A2 7.02611e-05
9 *3762:A *563:6 0.000137983
10 *511:8 *3667:A 0.000141375
11 *3085:B *511:8 0
12 *506:30 *3107:B 0
*RES
1 *3085:X *511:8 15.7464 
2 *511:8 *3107:B 17.1036 
3 *511:8 *3762:A 15.1571 
*END

*D_NET *512 0.00149541
*CONN
*I *3103:B I *D sky130_fd_sc_hd__xnor2_2
*I *3086:X O *D sky130_fd_sc_hd__o2bb2a_1
*CAP
1 *3103:B 0.000352866
2 *3086:X 0.000352866
3 *3103:B *3086:A1_N 3.7675e-05
4 *3103:B *3086:A2_N 8.50063e-06
5 *3103:B *3102:B 0.000150625
6 *3102:A *3103:B 2.79421e-05
7 *3103:A *3103:B 5.80706e-06
8 *3104:A *3103:B 5.83233e-05
9 *121:33 *3103:B 0.000393998
10 *473:8 *3103:B 0.000106808
*RES
1 *3086:X *3103:B 36.6 
*END

*D_NET *513 0.000304115
*CONN
*I *3088:B I *D sky130_fd_sc_hd__xor2_2
*I *3087:Y O *D sky130_fd_sc_hd__nor2_1
*CAP
1 *3088:B 6.95511e-05
2 *3087:Y 6.95511e-05
3 *3088:B *3088:A 1.02504e-05
4 *3088:B *1056:82 0
5 *499:40 *3088:B 0.000154762
*RES
1 *3087:Y *3088:B 20.2464 
*END

*D_NET *514 0.00503421
*CONN
*I *3151:A1 I *D sky130_fd_sc_hd__a21o_1
*I *3107:D_N I *D sky130_fd_sc_hd__or4b_4
*I *3100:A1 I *D sky130_fd_sc_hd__o221a_1
*I *3134:A1 I *D sky130_fd_sc_hd__a21o_1
*I *3152:A I *D sky130_fd_sc_hd__nor2_1
*I *3153:B1 I *D sky130_fd_sc_hd__a2bb2o_1
*I *3088:X O *D sky130_fd_sc_hd__xor2_2
*CAP
1 *3151:A1 0
2 *3107:D_N 3.2426e-05
3 *3100:A1 7.02545e-05
4 *3134:A1 0.000170285
5 *3152:A 0.000163312
6 *3153:B1 0
7 *3088:X 0.000168273
8 *514:40 0.000445084
9 *514:34 0.000554608
10 *514:28 0.000625207
11 *514:6 0.000639155
12 *3100:A1 *3100:A2 6.42338e-05
13 *3100:A1 *3667:A 8.37642e-05
14 *3134:A1 *3100:A2 5.52238e-05
15 *3134:A1 *3134:A2 0.000391
16 *3134:A1 *548:55 0.000356389
17 *3134:A1 *563:6 4.72917e-05
18 *3152:A *548:8 0.000250915
19 *514:28 *3153:B2 0.000353086
20 *514:34 *3667:A 0.000104236
21 *514:34 *3763:A 4.35048e-05
22 *514:34 *532:36 0.000116112
23 *514:34 *981:14 0
24 *514:40 *3134:A2 0.000140167
25 *514:40 *3667:A 8.52283e-05
26 *514:40 *532:36 3.17148e-05
27 *514:40 *548:55 0
28 *3107:B *514:40 4.27437e-05
29 *506:30 *514:34 0
*RES
1 *3088:X *514:6 11.8893 
2 *514:6 *3153:B1 9.3 
3 *514:6 *3152:A 21.9964 
4 *514:6 *514:28 4.25 
5 *514:28 *514:34 15.8036 
6 *514:34 *514:40 8.97321 
7 *514:40 *3134:A1 19.2554 
8 *514:40 *3100:A1 15.8982 
9 *514:34 *3107:D_N 9.83571 
10 *514:28 *3151:A1 9.3 
*END

*D_NET *515 0.00116807
*CONN
*I *3092:B1 I *D sky130_fd_sc_hd__a21oi_1
*I *3090:B1 I *D sky130_fd_sc_hd__o2bb2a_1
*I *3089:Y O *D sky130_fd_sc_hd__nor2_1
*CAP
1 *3092:B1 0
2 *3090:B1 0.000198871
3 *3089:Y 0.000109233
4 *515:6 0.000308104
5 *3090:B1 *3073:A 0
6 *3090:B1 *1055:54 7.77652e-05
7 *3090:B1 *1056:71 9.60875e-05
8 *515:6 *3093:B 1.61917e-05
9 *3089:A *3090:B1 2.28598e-05
10 *3089:A *515:6 8.25996e-05
11 *3090:B2 *3090:B1 5.41494e-05
12 *3092:A1 *515:6 5.33005e-05
13 *450:36 *3090:B1 0.000148911
*RES
1 *3089:Y *515:6 11.4786 
2 *515:6 *3090:B1 22.9607 
3 *515:6 *3092:B1 9.3 
*END

*D_NET *516 0.00151892
*CONN
*I *3173:A2 I *D sky130_fd_sc_hd__a21o_1
*I *3091:B I *D sky130_fd_sc_hd__xor2_1
*I *3090:X O *D sky130_fd_sc_hd__o2bb2a_1
*CAP
1 *3173:A2 0.0001101
2 *3091:B 0
3 *3090:X 0.000455565
4 *516:12 0.000565665
5 *3173:A2 *517:6 5.71472e-05
6 *516:12 *996:14 4.08587e-06
7 *516:12 *996:16 3.63188e-05
8 *516:12 *1055:23 3.80385e-05
9 *3025:A *516:12 0
10 *3091:A *3173:A2 1.00733e-05
11 *3173:A1 *3173:A2 0.000213018
12 *3174:A *516:12 0
13 *454:38 *3173:A2 2.89114e-05
14 *454:38 *516:12 0
*RES
1 *3090:X *516:12 24.8536 
2 *516:12 *3091:B 9.3 
3 *516:12 *3173:A2 12.4429 
*END

*D_NET *517 0.00580771
*CONN
*I *3168:C_N I *D sky130_fd_sc_hd__nor3b_1
*I *3186:B1 I *D sky130_fd_sc_hd__a31o_1
*I *3172:A I *D sky130_fd_sc_hd__and4_1
*I *3094:B I *D sky130_fd_sc_hd__and3_1
*I *3091:X O *D sky130_fd_sc_hd__xor2_1
*CAP
1 *3168:C_N 0.000832008
2 *3186:B1 0
3 *3172:A 0
4 *3094:B 0.000207937
5 *3091:X 0.00019574
6 *517:28 0.000937026
7 *517:21 0.00019766
8 *517:6 0.000496319
9 *3094:B *3173:B1 3.06511e-05
10 *3094:B *3186:A2 0
11 *3094:B *519:10 0.00010326
12 *3094:B *519:27 9.4724e-05
13 *3094:B *538:22 5.33005e-05
14 *3168:C_N *3128:B1 4.8843e-05
15 *3168:C_N *3167:A 9.47613e-05
16 *3168:C_N *3188:A 0.00100144
17 *3168:C_N *3191:A1_N 0.000164542
18 *3168:C_N *538:28 5.55288e-05
19 *3168:C_N *541:10 0.00018077
20 *3168:C_N *542:10 0.000125196
21 *3168:C_N *554:10 0.000229456
22 *3168:C_N *593:20 9.99644e-06
23 *517:6 *3173:B1 0.000230475
24 *517:21 *3172:D 0.000188586
25 *517:28 *3167:A 5.52302e-05
26 *517:28 *3172:D 0.000131439
27 *517:28 *589:27 3.5298e-05
28 *3025:A *3094:B 0
29 *3116:B *3168:C_N 2.59355e-05
30 *3173:A1 *517:6 2.44318e-05
31 *3173:A2 *517:6 5.71472e-05
*RES
1 *3091:X *517:6 13.5321 
2 *517:6 *3094:B 22.3 
3 *517:6 *517:21 2.17857 
4 *517:21 *3172:A 9.3 
5 *517:21 *517:28 2.58929 
6 *517:28 *3186:B1 9.3 
7 *517:28 *3168:C_N 28.7643 
*END

*D_NET *518 0.000252975
*CONN
*I *3093:B I *D sky130_fd_sc_hd__xnor2_2
*I *3092:Y O *D sky130_fd_sc_hd__a21oi_1
*CAP
1 *3093:B 9.39195e-05
2 *3092:Y 9.39195e-05
3 *3025:A *3093:B 4.1331e-06
4 *450:36 *3093:B 4.48113e-05
5 *515:6 *3093:B 1.61917e-05
*RES
1 *3092:Y *3093:B 29.3946 
*END

*D_NET *519 0.0024867
*CONN
*I *3172:B I *D sky130_fd_sc_hd__and4_1
*I *3167:A I *D sky130_fd_sc_hd__xor2_2
*I *3186:A1 I *D sky130_fd_sc_hd__a31o_1
*I *3094:C I *D sky130_fd_sc_hd__and3_1
*I *3093:Y O *D sky130_fd_sc_hd__xnor2_2
*CAP
1 *3172:B 0
2 *3167:A 0.000155106
3 *3186:A1 0
4 *3094:C 1.35299e-05
5 *3093:Y 0.000181091
6 *519:37 0.000413348
7 *519:27 0.000356816
8 *519:10 0.000293194
9 *3094:C *539:34 9.50968e-06
10 *3167:A *538:22 6.19181e-05
11 *3167:A *538:28 5.03772e-05
12 *3167:A *589:27 5.52302e-05
13 *519:10 *3100:C1 9.87983e-06
14 *519:10 *589:10 0
15 *519:10 *589:27 0
16 *519:27 *3172:C 8.00806e-05
17 *519:27 *3172:D 0.00010096
18 *519:27 *589:27 0
19 *519:37 *3172:D 0.000114723
20 *519:37 *3186:A2 5.31122e-05
21 *519:37 *589:27 0.000105338
22 *3025:A *519:10 0
23 *3094:B *519:10 0.00010326
24 *3094:B *519:27 9.4724e-05
25 *3168:C_N *3167:A 9.47613e-05
26 *504:33 *3167:A 8.45154e-05
27 *517:28 *3167:A 5.52302e-05
*RES
1 *3093:Y *519:10 17.1929 
2 *519:10 *3094:C 13.9964 
3 *519:10 *519:27 7.21429 
4 *519:27 *519:37 13.1607 
5 *519:37 *3186:A1 9.3 
6 *519:37 *3167:A 22.7286 
7 *519:27 *3172:B 9.3 
*END

*D_NET *520 0.00365339
*CONN
*I *3100:C1 I *D sky130_fd_sc_hd__o221a_1
*I *3094:X O *D sky130_fd_sc_hd__and3_1
*CAP
1 *3100:C1 0.00158308
2 *3094:X 0.00158308
3 *3100:C1 *3119:A 0.000179251
4 *3100:C1 *3120:A2 3.34295e-05
5 *3100:C1 *3120:B1 0.000135127
6 *3100:C1 *3667:A 0
7 *3100:C1 *542:24 7.43295e-06
8 *3100:C1 *600:14 0
9 *502:16 *3100:C1 0.000122114
10 *519:10 *3100:C1 9.87983e-06
*RES
1 *3094:X *3100:C1 39.349 
*END

*D_NET *521 0.00274806
*CONN
*I *3098:A I *D sky130_fd_sc_hd__nor2_1
*I *3099:A I *D sky130_fd_sc_hd__or2_1
*I *3136:B1 I *D sky130_fd_sc_hd__o21ai_1
*I *3095:Y O *D sky130_fd_sc_hd__xnor2_1
*CAP
1 *3098:A 9.17663e-05
2 *3099:A 0.000133099
3 *3136:B1 0.000164141
4 *3095:Y 0.00047288
5 *521:17 0.000224865
6 *521:6 0.000637021
7 *3098:A *3135:A 1.02504e-05
8 *3099:A *523:14 0.000139907
9 *3136:B1 *3136:A1 5.52302e-05
10 *3136:B1 *3137:B1 7.16452e-05
11 *3136:B1 *523:14 3.5298e-05
12 *521:6 *3083:A2 7.13226e-06
13 *521:6 *1056:71 0.000228558
14 *521:6 *1056:82 0.000246572
15 *504:10 *3098:A 0
16 *506:22 *3098:A 0.000175519
17 *506:22 *3099:A 5.41794e-05
*RES
1 *3095:Y *521:6 18.4607 
2 *521:6 *3136:B1 13.55 
3 *521:6 *521:17 4.5 
4 *521:17 *3099:A 17.1214 
5 *521:17 *3098:A 16.05 
*END

*D_NET *522 0.000542582
*CONN
*I *3097:A2_N I *D sky130_fd_sc_hd__a2bb2o_2
*I *3096:Y O *D sky130_fd_sc_hd__nor2_1
*CAP
1 *3097:A2_N 0.000101876
2 *3096:Y 0.000101876
3 *3097:A2_N *523:6 0.000144773
4 *3082:B1 *3097:A2_N 0
5 *3096:B *3097:A2_N 0.000156878
6 *3097:A1_N *3097:A2_N 3.71789e-05
*RES
1 *3096:Y *3097:A2_N 21.6179 
*END

*D_NET *523 0.00271546
*CONN
*I *3157:A I *D sky130_fd_sc_hd__xnor2_2
*I *3098:B I *D sky130_fd_sc_hd__nor2_1
*I *3136:A1 I *D sky130_fd_sc_hd__o21ai_1
*I *3099:B I *D sky130_fd_sc_hd__or2_1
*I *3097:X O *D sky130_fd_sc_hd__a2bb2o_2
*CAP
1 *3157:A 0.000117432
2 *3098:B 0.000114973
3 *3136:A1 6.90893e-05
4 *3099:B 0
5 *3097:X 0.000352914
6 *523:14 0.000136071
7 *523:10 0.000239648
8 *523:6 0.000528039
9 *3098:B *3137:A1 0.000124714
10 *3136:A1 *3107:A 0.000125431
11 *3136:A1 *3137:B1 1.74352e-05
12 *523:10 *3137:A1 3.34295e-05
13 *523:10 *3157:B 0
14 *523:14 *3107:A 0.000181796
15 *3097:A2_N *523:6 0.000144773
16 *3099:A *523:14 0.000139907
17 *3136:B1 *3136:A1 5.52302e-05
18 *3136:B1 *523:14 3.5298e-05
19 *506:22 *3098:B 0.000245892
20 *506:22 *523:10 5.33882e-05
*RES
1 *3097:X *523:6 13.5321 
2 *523:6 *523:10 5.83929 
3 *523:10 *523:14 6.67857 
4 *523:14 *3099:B 9.3 
5 *523:14 *3136:A1 11.4964 
6 *523:10 *3098:B 17.6214 
7 *523:6 *3157:A 10.9786 
*END

*D_NET *524 0.0023318
*CONN
*I *3100:B1 I *D sky130_fd_sc_hd__o221a_1
*I *3161:A I *D sky130_fd_sc_hd__and2_1
*I *3098:Y O *D sky130_fd_sc_hd__nor2_1
*CAP
1 *3100:B1 0.000182116
2 *3161:A 0
3 *3098:Y 0.000310646
4 *524:12 0.000492761
5 *3100:B1 *3108:A 5.83695e-05
6 *3100:B1 *3162:B 0.000165144
7 *3100:B1 *526:6 2.28598e-05
8 *3100:B1 *548:55 5.33005e-05
9 *524:12 *3135:B 0.000307343
10 *524:12 *3161:B 0.000123295
11 *524:12 *548:55 9.91086e-05
12 *524:12 *560:6 5.52302e-05
13 *3100:B2 *3100:B1 2.53134e-05
14 *510:18 *3100:B1 0.000436316
*RES
1 *3098:Y *524:12 23.3536 
2 *524:12 *3161:A 9.3 
3 *524:12 *3100:B1 16.1571 
*END

*D_NET *525 0.00250382
*CONN
*I *3107:A I *D sky130_fd_sc_hd__or4b_4
*I *3137:A1 I *D sky130_fd_sc_hd__o21a_1
*I *3099:X O *D sky130_fd_sc_hd__or2_1
*CAP
1 *3107:A 0.0005694
2 *3137:A1 0.00012858
3 *3099:X 0
4 *525:4 0.000697981
5 *3107:A *3120:A1 5.33005e-05
6 *3107:A *3120:A2 5.52302e-05
7 *3107:A *3120:B1 0.00010096
8 *3107:A *3134:A2 2.27416e-05
9 *3107:A *533:6 9.71197e-05
10 *3107:A *546:14 0.00014183
11 *3137:A1 *3135:B 2.89016e-05
12 *3137:A1 *3137:B1 5.97623e-05
13 *3137:A1 *3157:B 3.84385e-05
14 *3137:A1 *561:6 2.89016e-05
15 *3137:A1 *561:13 6.05161e-06
16 *3098:B *3137:A1 0.000124714
17 *3136:A1 *3107:A 0.000125431
18 *506:22 *3137:A1 9.25014e-06
19 *523:10 *3137:A1 3.34295e-05
20 *523:14 *3107:A 0.000181796
*RES
1 *3099:X *525:4 9.3 
2 *525:4 *3137:A1 21.9964 
3 *525:4 *3107:A 19.7464 
*END

*D_NET *526 0.00177842
*CONN
*I *3120:A2 I *D sky130_fd_sc_hd__a21o_1
*I *3108:A I *D sky130_fd_sc_hd__nand2_1
*I *3100:X O *D sky130_fd_sc_hd__o221a_1
*CAP
1 *3120:A2 0.000210038
2 *3108:A 5.53986e-05
3 *3100:X 7.22146e-05
4 *526:6 0.000337652
5 *3108:A *3162:B 4.58194e-05
6 *3120:A2 *3100:A2 3.6572e-05
7 *3120:A2 *3108:B 0.000151333
8 *3120:A2 *3120:B1 0.000104868
9 *3120:A2 *3667:A 0
10 *3120:A2 *548:55 0.000266092
11 *526:6 *3162:B 0.000172536
12 *3100:B1 *3108:A 5.83695e-05
13 *3100:B1 *526:6 2.28598e-05
14 *3100:C1 *3120:A2 3.34295e-05
15 *3107:A *3120:A2 5.52302e-05
16 *510:18 *526:6 1.21289e-05
17 *510:31 *526:6 0.000143875
*RES
1 *3100:X *526:6 12.3 
2 *526:6 *3108:A 10.675 
3 *526:6 *3120:A2 24.1214 
*END

*D_NET *527 0.000526653
*CONN
*I *3102:B I *D sky130_fd_sc_hd__xnor2_1
*I *3101:X O *D sky130_fd_sc_hd__a21o_1
*CAP
1 *3102:B 0.000148846
2 *3101:X 0.000148846
3 *3103:B *3102:B 0.000150625
4 *473:8 *3102:B 7.83366e-05
*RES
1 *3101:X *3102:B 30.4929 
*END

*D_NET *528 0.00126855
*CONN
*I *3106:C1 I *D sky130_fd_sc_hd__o211ai_2
*I *3141:A I *D sky130_fd_sc_hd__and3_1
*I *3142:B1 I *D sky130_fd_sc_hd__a21oi_2
*I *3102:Y O *D sky130_fd_sc_hd__xnor2_1
*CAP
1 *3106:C1 8.84794e-05
2 *3141:A 0.000240104
3 *3142:B1 0
4 *3102:Y 4.00453e-05
5 *528:12 0.000416868
6 *528:6 0.000305289
7 *3141:A *3142:A1 1.15172e-05
8 *3141:A *3142:A2 0.000144773
9 *3141:A *3147:A 2.14757e-05
10 *528:12 *529:25 0
11 *528:12 *530:12 0
12 *528:12 *568:14 0
13 *473:8 *528:12 0
*RES
1 *3102:Y *528:6 9.83571 
2 *528:6 *528:12 11.8571 
3 *528:12 *3142:B1 9.3 
4 *528:12 *3141:A 13.55 
5 *528:6 *3106:C1 10.6571 
*END

*D_NET *529 0.0041812
*CONN
*I *3149:A I *D sky130_fd_sc_hd__or4_4
*I *3106:B1 I *D sky130_fd_sc_hd__o211ai_2
*I *3147:A I *D sky130_fd_sc_hd__xnor2_2
*I *3103:Y O *D sky130_fd_sc_hd__xnor2_2
*CAP
1 *3149:A 0.000275506
2 *3106:B1 0
3 *3147:A 0.000315053
4 *3103:Y 0.000178052
5 *529:25 0.000421053
6 *529:10 0.000638652
7 *3147:A *3105:B 5.71472e-05
8 *3147:A *3141:C 1.86322e-05
9 *3147:A *3142:A1 0.000139097
10 *3147:A *3142:A2 0.000186662
11 *3147:A *531:8 0.000144773
12 *3147:A *567:10 0.000189169
13 *3149:A *3105:B 5.52238e-05
14 *3149:A *3149:B 0.000536146
15 *3149:A *3149:C 9.90431e-05
16 *3149:A *530:19 0.000312215
17 *3149:A *532:10 0.00022459
18 *3149:A *568:14 7.65834e-05
19 *529:10 *3139:B 0
20 *529:25 *3139:B 0
21 *529:25 *530:12 0
22 *529:25 *548:8 0
23 *529:25 *568:14 7.83587e-05
24 *3141:A *3147:A 2.14757e-05
25 *3148:A *3149:A 0.000213767
26 *473:8 *529:10 0
27 *473:8 *529:25 0
28 *528:12 *529:25 0
*RES
1 *3103:Y *529:10 16.5857 
2 *529:10 *3147:A 22.1571 
3 *529:10 *529:25 7.05357 
4 *529:25 *3106:B1 9.3 
5 *529:25 *3149:A 19.7107 
*END

*D_NET *530 0.00235566
*CONN
*I *3144:A I *D sky130_fd_sc_hd__xnor2_4
*I *3105:B I *D sky130_fd_sc_hd__or2_1
*I *3148:B I *D sky130_fd_sc_hd__nand2_1
*I *3106:A2 I *D sky130_fd_sc_hd__o211ai_2
*I *3104:Y O *D sky130_fd_sc_hd__xnor2_2
*CAP
1 *3144:A 0.00018063
2 *3105:B 0.000154982
3 *3148:B 0
4 *3106:A2 0
5 *3104:Y 0.000156041
6 *530:19 0.000221656
7 *530:12 0.000175669
8 *530:6 0.000445665
9 *3105:B *567:10 5.52302e-05
10 *3105:B *568:14 2.14658e-05
11 *3105:B *1075:73 1.02504e-05
12 *3105:B *1075:81 6.9253e-05
13 *530:12 *548:8 0.000196269
14 *530:19 *3106:A1 5.52238e-05
15 *530:19 *568:14 9.16173e-05
16 *530:19 *1075:81 9.71197e-05
17 *3147:A *3105:B 5.71472e-05
18 *3149:A *3105:B 5.52238e-05
19 *3149:A *530:19 0.000312215
20 *120:37 *3105:B 0
21 *528:12 *530:12 0
22 *529:25 *530:12 0
*RES
1 *3104:Y *530:6 11.8893 
2 *530:6 *530:12 11.5536 
3 *530:12 *3106:A2 9.3 
4 *530:12 *530:19 3 
5 *530:19 *3148:B 9.3 
6 *530:19 *3105:B 21.6214 
7 *530:6 *3144:A 12.2286 
*END

*D_NET *531 0.000978157
*CONN
*I *3141:B I *D sky130_fd_sc_hd__and3_1
*I *3142:A1 I *D sky130_fd_sc_hd__a21oi_2
*I *3105:X O *D sky130_fd_sc_hd__or2_1
*CAP
1 *3141:B 0
2 *3142:A1 0.000275167
3 *3105:X 6.62183e-05
4 *531:8 0.000341385
5 *3142:A1 *3142:A2 0
6 *3141:A *3142:A1 1.15172e-05
7 *3147:A *3142:A1 0.000139097
8 *3147:A *531:8 0.000144773
*RES
1 *3105:X *531:8 11.0857 
2 *531:8 *3142:A1 13.3357 
3 *531:8 *3141:B 9.3 
*END

*D_NET *532 0.00461745
*CONN
*I *3107:C I *D sky130_fd_sc_hd__or4b_4
*I *3134:A2 I *D sky130_fd_sc_hd__a21o_1
*I *3151:A2 I *D sky130_fd_sc_hd__a21o_1
*I *3152:B I *D sky130_fd_sc_hd__nor2_1
*I *3106:Y O *D sky130_fd_sc_hd__o211ai_2
*CAP
1 *3107:C 0
2 *3134:A2 0.000233867
3 *3151:A2 1.64323e-05
4 *3152:B 7.00238e-05
5 *3106:Y 0.000285077
6 *532:36 0.000595878
7 *532:23 0.00052211
8 *532:10 0.000498767
9 *3134:A2 *548:55 8.9163e-05
10 *3134:A2 *563:6 0.000391
11 *3151:A2 *3153:A1_N 9.90431e-05
12 *3151:A2 *3153:B2 9.90431e-05
13 *532:10 *3138:B1 0.000343217
14 *532:23 *3138:B1 0.000117144
15 *532:23 *3140:B 0
16 *532:36 *3138:B1 5.41797e-05
17 *532:36 *3144:B 0
18 *532:36 *3667:A 0.000222878
19 *532:36 *548:8 0
20 *532:36 *548:55 0
21 *3107:A *3134:A2 2.27416e-05
22 *3107:B *3134:A2 5.33005e-05
23 *3134:A1 *3134:A2 0.000391
24 *3149:A *532:10 0.00022459
25 *120:37 *532:10 0
26 *120:37 *532:23 0
27 *514:34 *532:36 0.000116112
28 *514:40 *3134:A2 0.000140167
29 *514:40 *532:36 3.17148e-05
*RES
1 *3106:Y *532:10 20.3536 
2 *532:10 *3152:B 14.7464 
3 *532:10 *532:23 3.39286 
4 *532:23 *3151:A2 14.7464 
5 *532:23 *532:36 12.2143 
6 *532:36 *3134:A2 25.7286 
7 *532:36 *3107:C 9.3 
*END

*D_NET *533 0.0017617
*CONN
*I *3108:B I *D sky130_fd_sc_hd__nand2_1
*I *3120:A1 I *D sky130_fd_sc_hd__a21o_1
*I *3107:X O *D sky130_fd_sc_hd__or4b_4
*CAP
1 *3108:B 0.000291362
2 *3120:A1 4.18948e-05
3 *3107:X 6.12225e-05
4 *533:6 0.000394479
5 *3108:B *3120:B1 0.00026647
6 *3108:B *544:8 0.000235611
7 *3108:B *546:14 9.25014e-06
8 *3108:B *548:55 2.16719e-05
9 *3107:A *3120:A1 5.33005e-05
10 *3107:A *533:6 9.71197e-05
11 *3120:A2 *3108:B 0.000151333
12 *506:28 *3108:B 0.000137983
*RES
1 *3107:X *533:6 10.2464 
2 *533:6 *3120:A1 9.83571 
3 *533:6 *3108:B 34.3714 
*END

*D_NET *534 0.00280579
*CONN
*I *3128:A1 I *D sky130_fd_sc_hd__a21o_1
*I *3117:A1 I *D sky130_fd_sc_hd__a21o_1
*I *3123:A I *D sky130_fd_sc_hd__nand2_1
*I *3108:Y O *D sky130_fd_sc_hd__nand2_1
*CAP
1 *3128:A1 6.55269e-05
2 *3117:A1 0
3 *3123:A 0.000386048
4 *3108:Y 0.00017053
5 *534:12 0.000527421
6 *534:10 0.00037743
7 *3123:A *3127:S 0.000254913
8 *3123:A *3188:A 0.000146513
9 *3123:A *538:30 9.25014e-06
10 *3123:A *539:53 5.15925e-05
11 *3123:A *540:12 8.43535e-06
12 *3123:A *540:27 0.000271339
13 *3123:A *541:10 3.26169e-05
14 *3123:A *541:14 2.6726e-05
15 *3123:A *543:10 0
16 *3128:A1 *3119:C_N 5.52238e-05
17 *3128:A1 *3188:A 1.39841e-05
18 *534:10 *3120:B1 0.00012465
19 *534:10 *3126:B 3.69697e-05
20 *534:10 *3667:A 0
21 *534:10 *3667:B 3.69861e-05
22 *534:10 *539:34 0
23 *534:10 *541:14 5.45756e-05
24 *534:10 *544:8 6.20472e-05
25 *534:10 *593:20 2.61321e-05
26 *534:12 *3117:B1 1.03742e-05
27 *534:12 *3188:A 5.65091e-05
*RES
1 *3108:Y *534:10 22.3714 
2 *534:10 *534:12 1.76786 
3 *534:12 *3123:A 27.2286 
4 *534:12 *3117:A1 9.3 
5 *534:10 *3128:A1 10.2464 
*END

*D_NET *535 0.012168
*CONN
*I *3122:C I *D sky130_fd_sc_hd__nand3_4
*I *3121:A I *D sky130_fd_sc_hd__and3_4
*I *3138:A3 I *D sky130_fd_sc_hd__a31o_4
*I *3132:A1 I *D sky130_fd_sc_hd__o21a_1
*I *3667:C I *D sky130_fd_sc_hd__nand3_1
*I *3109:X O *D sky130_fd_sc_hd__mux2_2
*CAP
1 *3122:C 8.94139e-05
2 *3121:A 0.000385834
3 *3138:A3 0
4 *3132:A1 0.000639982
5 *3667:C 1.1624e-05
6 *3109:X 0.00104096
7 *535:59 0.000541532
8 *535:48 0.000219382
9 *535:24 0.00136297
10 *535:16 0.00124739
11 *535:14 0.00142389
12 *3121:A *3138:A1 7.48091e-05
13 *3121:A *546:27 0.000187882
14 *3122:C *3122:B 0.000183726
15 *3122:C *544:8 2.31791e-05
16 *3122:C *544:14 0.000128154
17 *3122:C *583:8 0.00022459
18 *3132:A1 *3115:B 2.59093e-05
19 *3132:A1 *3123:B 0
20 *3132:A1 *3127:A1 0.000227532
21 *3132:A1 *3127:S 5.52302e-05
22 *3132:A1 *3132:A2 6.05161e-06
23 *3132:A1 *3133:B1 3.18676e-05
24 *3132:A1 *3188:A 0.000147121
25 *3132:A1 *543:19 1.98839e-05
26 *3132:A1 *549:10 0
27 *3132:A1 *597:16 0.000191465
28 *3667:C *539:34 5.52238e-05
29 *3667:C *986:6 5.52238e-05
30 *535:14 *3003:A 3.55279e-05
31 *535:14 *1056:10 0.000271352
32 *535:16 *3086:A1_N 5.1791e-05
33 *535:16 *3088:A 0.000115141
34 *535:24 *3123:B 0
35 *535:24 *3135:A 0
36 *535:24 *3136:A2 2.34204e-05
37 *535:24 *3137:B1 5.39232e-05
38 *535:24 *3157:B 0.00033763
39 *535:24 *3161:B 0.00014576
40 *535:24 *3667:B 0
41 *535:24 *539:34 0
42 *535:24 *544:8 0
43 *535:59 *544:14 5.66157e-05
44 *3028:A *535:14 4.87854e-05
45 *3070:A1 *535:14 0.000103267
46 *3081:B *535:16 0.000104034
47 *3116:B *3132:A1 0
48 *3116:B *535:24 0
49 *3125:A *3132:A1 0
50 *3170:A *3132:A1 3.18676e-05
51 *3771:A *535:16 5.52302e-05
52 *454:10 *535:14 7.32272e-05
53 *492:8 *535:14 0
54 *495:8 *535:14 0.000136951
55 *498:14 *535:14 2.89114e-05
56 *498:22 *535:14 0.000598924
57 *499:21 *535:14 0.000566251
58 *499:21 *535:16 8.25996e-05
59 *499:40 *535:16 0.000476595
60 *499:40 *535:24 5.66157e-05
61 *506:22 *535:24 1.66757e-05
62 *507:10 *535:16 9.60875e-05
*RES
1 *3109:X *535:14 41.55 
2 *535:14 *535:16 11.2143 
3 *535:16 *535:24 17.7321 
4 *535:24 *3667:C 14.3357 
5 *535:24 *3132:A1 27.425 
6 *535:16 *535:48 2.58929 
7 *535:48 *3138:A3 9.3 
8 *535:48 *535:59 6.17857 
9 *535:59 *3121:A 18.8536 
10 *535:59 *3122:C 17.925 
*END

*D_NET *536 0.00239516
*CONN
*I *3114:B I *D sky130_fd_sc_hd__xnor2_1
*I *3111:B I *D sky130_fd_sc_hd__nand2_1
*I *3110:X O *D sky130_fd_sc_hd__o2bb2a_1
*CAP
1 *3114:B 0.000136703
2 *3111:B 0
3 *3110:X 0.000827185
4 *536:8 0.000963887
5 *536:8 *3075:A1 0.000186662
6 *536:8 *1055:23 8.66063e-05
7 *3110:B2 *536:8 1.74903e-05
8 *3114:A *3114:B 7.17603e-05
9 *3678:A *536:8 9.76689e-05
10 *447:29 *3114:B 0
11 *447:29 *536:8 3.06878e-06
12 *492:19 *3114:B 4.1331e-06
*RES
1 *3110:X *536:8 20.0143 
2 *536:8 *3111:B 9.3 
3 *536:8 *3114:B 21.3893 
*END

*D_NET *537 0.000649764
*CONN
*I *3112:B I *D sky130_fd_sc_hd__xor2_1
*I *3111:Y O *D sky130_fd_sc_hd__nand2_1
*CAP
1 *3112:B 0.000259948
2 *3111:Y 0.000259948
3 *3112:A *3112:B 0.000129868
4 *3114:A *3112:B 0
*RES
1 *3111:Y *3112:B 31.4214 
*END

*D_NET *538 0.0103443
*CONN
*I *3127:S I *D sky130_fd_sc_hd__mux2_1
*I *3119:A I *D sky130_fd_sc_hd__or3b_1
*I *3118:A_N I *D sky130_fd_sc_hd__nand2b_1
*I *3112:X O *D sky130_fd_sc_hd__xor2_1
*CAP
1 *3127:S 0.000293251
2 *3119:A 0.000357488
3 *3118:A_N 8.95055e-06
4 *3112:X 0.00210674
5 *538:30 0.000448084
6 *538:28 0.00104885
7 *538:22 0.0027807
8 *3118:A_N *3667:A 5.52302e-05
9 *3118:A_N *3667:B 5.71472e-05
10 *3119:A *3119:C_N 5.7836e-06
11 *3119:A *542:24 0.000108388
12 *3119:A *593:20 7.69776e-06
13 *3119:A *600:14 0
14 *3127:S *3129:B 0
15 *3127:S *539:34 9.11365e-06
16 *3127:S *539:53 5.78386e-05
17 *3127:S *542:24 1.94879e-05
18 *3127:S *543:10 0
19 *3127:S *597:16 2.89114e-05
20 *538:22 *539:34 0.00104856
21 *538:22 *589:10 3.76127e-05
22 *538:22 *589:27 6.65302e-05
23 *538:28 *3117:A2 2.14658e-05
24 *538:28 *542:10 0.000516436
25 *538:30 *539:34 3.93893e-05
26 *538:30 *541:14 3.04798e-05
27 *3074:B1 *538:22 0.000396905
28 *3075:B1 *538:22 2.0165e-05
29 *3094:B *538:22 5.33005e-05
30 *3100:C1 *3119:A 0.000179251
31 *3114:A *538:22 5.33433e-05
32 *3123:A *3127:S 0.000254913
33 *3123:A *538:30 9.25014e-06
34 *3132:A1 *3127:S 5.52302e-05
35 *3167:A *538:22 6.19181e-05
36 *3167:A *538:28 5.03772e-05
37 *3168:C_N *538:28 5.55288e-05
38 *504:33 *538:22 0
*RES
1 *3112:X *538:22 48.1214 
2 *538:22 *538:28 18.1607 
3 *538:28 *538:30 1.64286 
4 *538:30 *3118:A_N 14.3357 
5 *538:30 *3119:A 21.6645 
6 *538:28 *3127:S 20.2286 
*END

*D_NET *539 0.00825843
*CONN
*I *3129:A I *D sky130_fd_sc_hd__xnor2_1
*I *3131:A1 I *D sky130_fd_sc_hd__o21ai_1
*I *3115:A I *D sky130_fd_sc_hd__or2_1
*I *3113:Y O *D sky130_fd_sc_hd__xnor2_2
*CAP
1 *3129:A 0.000445701
2 *3131:A1 0
3 *3115:A 0
4 *3113:Y 0.00100705
5 *539:53 0.000706484
6 *539:34 0.00126784
7 *3129:A *3126:A 9.91086e-05
8 *3129:A *3127:A1 1.08359e-05
9 *3129:A *3129:B 0
10 *3129:A *3131:A2 0.0001399
11 *3129:A *3132:B1 0.000283935
12 *3129:A *3178:A 6.72225e-05
13 *3129:A *540:27 2.14757e-05
14 *3129:A *551:12 5.52238e-05
15 *3129:A *556:12 0
16 *539:34 *3115:B 5.80706e-06
17 *539:34 *3167:B 0.000185643
18 *539:34 *3172:C 0.000109918
19 *539:34 *3667:B 0.000178586
20 *539:34 *593:20 0.000275199
21 *539:34 *986:6 0.000156652
22 *539:34 *986:8 3.89017e-05
23 *539:53 *3115:B 8.0089e-05
24 *539:53 *3188:A 5.27703e-06
25 *539:53 *540:27 0.00022266
26 *539:53 *542:24 1.05524e-05
27 *539:53 *543:10 1.49523e-05
28 *3074:B1 *539:34 0.000128342
29 *3075:B1 *539:34 0.000364363
30 *3094:A *539:34 0.000879882
31 *3094:C *539:34 9.50968e-06
32 *3116:B *539:34 0.000225609
33 *3123:A *539:53 5.15925e-05
34 *3127:S *539:34 9.11365e-06
35 *3127:S *539:53 5.78386e-05
36 *3667:C *539:34 5.52238e-05
37 *534:10 *539:34 0
38 *535:24 *539:34 0
39 *538:22 *539:34 0.00104856
40 *538:30 *539:34 3.93893e-05
*RES
1 *3113:Y *539:34 47.4071 
2 *539:34 *3115:A 13.8 
3 *539:34 *539:53 18.9643 
4 *539:53 *3131:A1 9.3 
5 *539:53 *3129:A 27.3536 
*END

*D_NET *540 0.00947162
*CONN
*I *3178:A I *D sky130_fd_sc_hd__nand2_1
*I *3131:B1 I *D sky130_fd_sc_hd__o21ai_1
*I *3115:B I *D sky130_fd_sc_hd__or2_1
*I *3114:Y O *D sky130_fd_sc_hd__xnor2_1
*CAP
1 *3178:A 0.000392497
2 *3131:B1 0
3 *3115:B 9.33817e-05
4 *3114:Y 0.00019981
5 *540:27 0.000574552
6 *540:12 0.00291482
7 *540:10 0.0028392
8 *3115:B *3188:A 0.00012401
9 *3178:A *3131:A2 5.33005e-05
10 *3178:A *3132:B1 4.88637e-05
11 *540:12 *3174:B 0.000175493
12 *540:12 *3187:A_N 7.15962e-05
13 *540:12 *3187:B 2.49643e-05
14 *540:12 *3188:A 0.000963516
15 *540:27 *3131:A2 9.90367e-05
16 *3113:B *540:10 0
17 *3123:A *540:12 8.43535e-06
18 *3123:A *540:27 0.000271339
19 *3129:A *3178:A 6.72225e-05
20 *3129:A *540:27 2.14757e-05
21 *3132:A1 *3115:B 2.59093e-05
22 *3174:A *540:12 0.000193643
23 *539:34 *3115:B 5.80706e-06
24 *539:53 *3115:B 8.0089e-05
25 *539:53 *540:27 0.00022266
*RES
1 *3114:Y *540:10 21.7643 
2 *540:10 *540:12 34.2143 
3 *540:12 *3115:B 20.55 
4 *540:12 *540:27 4.96429 
5 *540:27 *3131:B1 9.3 
6 *540:27 *3178:A 16.7821 
*END

*D_NET *541 0.0017278
*CONN
*I *3117:B1 I *D sky130_fd_sc_hd__a21o_1
*I *3119:B I *D sky130_fd_sc_hd__or3b_1
*I *3118:B I *D sky130_fd_sc_hd__nand2b_1
*I *3115:X O *D sky130_fd_sc_hd__or2_1
*CAP
1 *3117:B1 8.17702e-06
2 *3119:B 0.000120715
3 *3118:B 1.45739e-05
4 *3115:X 0.000187128
5 *541:14 0.000256952
6 *541:10 0.000316968
7 *3117:B1 *3188:A 2.13202e-05
8 *3118:B *3667:A 3.50985e-05
9 *3118:B *3667:B 2.08269e-05
10 *3119:B *3667:A 0.000255972
11 *3119:B *3667:B 5.33005e-05
12 *3119:B *593:20 9.02232e-05
13 *541:10 *3126:B 0
14 *541:10 *542:24 1.89507e-06
15 *541:10 *543:10 4.46186e-06
16 *541:14 *3126:B 0
17 *541:14 *542:24 4.64488e-06
18 *3123:A *541:10 3.26169e-05
19 *3123:A *541:14 2.6726e-05
20 *3168:C_N *541:10 0.00018077
21 *534:10 *541:14 5.45756e-05
22 *534:12 *3117:B1 1.03742e-05
23 *538:30 *541:14 3.04798e-05
*RES
1 *3115:X *541:10 16.6036 
2 *541:10 *541:14 6.75 
3 *541:14 *3118:B 10.0589 
4 *541:14 *3119:B 12.925 
5 *541:10 *3117:B1 14.0143 
*END

*D_NET *542 0.00302089
*CONN
*I *3117:A2 I *D sky130_fd_sc_hd__a21o_1
*I *3128:A2 I *D sky130_fd_sc_hd__a21o_1
*I *3119:C_N I *D sky130_fd_sc_hd__or3b_1
*I *3116:Y O *D sky130_fd_sc_hd__nor2_1
*CAP
1 *3117:A2 1.56658e-05
2 *3128:A2 0
3 *3119:C_N 0.000209936
4 *3116:Y 0.000156512
5 *542:24 0.000430173
6 *542:10 0.000392415
7 *3117:A2 *3188:A 5.33005e-05
8 *3119:C_N *3128:B1 0.000186662
9 *3119:C_N *3188:A 6.87574e-05
10 *3119:C_N *3667:A 1.76039e-05
11 *3119:C_N *593:20 0.000228558
12 *542:10 *3188:A 0.00022459
13 *542:24 *3126:B 2.06178e-05
14 *542:24 *600:14 8.62926e-05
15 *3100:C1 *542:24 7.43295e-06
16 *3116:B *542:10 5.33005e-05
17 *3119:A *3119:C_N 5.7836e-06
18 *3119:A *542:24 0.000108388
19 *3127:S *542:24 1.94879e-05
20 *3128:A1 *3119:C_N 5.52238e-05
21 *3168:C_N *542:10 0.000125196
22 *538:28 *3117:A2 2.14658e-05
23 *538:28 *542:10 0.000516436
24 *539:53 *542:24 1.05524e-05
25 *541:10 *542:24 1.89507e-06
26 *541:14 *542:24 4.64488e-06
*RES
1 *3116:Y *542:10 15.7286 
2 *542:10 *542:24 16.925 
3 *542:24 *3119:C_N 23.675 
4 *542:24 *3128:A2 9.3 
5 *542:10 *3117:A2 9.83571 
*END

*D_NET *543 0.00164598
*CONN
*I *3132:A2 I *D sky130_fd_sc_hd__o21a_1
*I *3126:A I *D sky130_fd_sc_hd__nand2_1
*I *3127:A0 I *D sky130_fd_sc_hd__mux2_1
*I *3117:X O *D sky130_fd_sc_hd__a21o_1
*CAP
1 *3132:A2 7.97523e-05
2 *3126:A 5.41984e-05
3 *3127:A0 3.92359e-05
4 *3117:X 0.000153709
5 *543:19 0.000265609
6 *543:10 0.000324604
7 *3126:A *3127:A1 0.000123288
8 *3127:A0 *3127:A1 5.52238e-05
9 *3132:A2 *3133:B1 8.25843e-06
10 *3132:A2 *558:8 0
11 *543:10 *3129:B 0.000112323
12 *543:10 *554:10 0.000147332
13 *543:19 *3127:A1 0.000137983
14 *3123:A *543:10 0
15 *3127:S *543:10 0
16 *3129:A *3126:A 9.91086e-05
17 *3132:A1 *3132:A2 6.05161e-06
18 *3132:A1 *543:19 1.98839e-05
19 *539:53 *543:10 1.49523e-05
20 *541:10 *543:10 4.46186e-06
*RES
1 *3117:X *543:10 21.7643 
2 *543:10 *3127:A0 9.83571 
3 *543:10 *543:19 1.76786 
4 *543:19 *3126:A 19.9429 
5 *543:19 *3132:A2 10.5679 
*END

*D_NET *544 0.00469958
*CONN
*I *3667:B I *D sky130_fd_sc_hd__nand3_1
*I *3122:B I *D sky130_fd_sc_hd__nand3_4
*I *3121:B I *D sky130_fd_sc_hd__and3_4
*I *3138:A2 I *D sky130_fd_sc_hd__a31o_4
*I *3118:Y O *D sky130_fd_sc_hd__nand2b_1
*CAP
1 *3667:B 0.000187003
2 *3122:B 0.000168647
3 *3121:B 0.00021852
4 *3138:A2 0
5 *3118:Y 0
6 *544:14 0.000351411
7 *544:8 0.000788759
8 *544:6 0.000674224
9 *3121:B *3138:A1 0.00010096
10 *3121:B *3138:B1 0.000171257
11 *3121:B *546:27 0.00028988
12 *3122:B *583:8 0.000158826
13 *3667:B *3667:A 0.000157256
14 *3667:B *593:20 0.000212741
15 *3667:B *986:6 1.74352e-05
16 *544:8 *3120:B1 5.88692e-05
17 *544:8 *3136:A2 0
18 *544:8 *546:14 4.71964e-05
19 *544:14 *546:14 6.04162e-05
20 *544:14 *548:8 0
21 *3108:B *544:8 0.000235611
22 *3118:A_N *3667:B 5.71472e-05
23 *3118:B *3667:B 2.08269e-05
24 *3119:B *3667:B 5.33005e-05
25 *3122:C *3122:B 0.000183726
26 *3122:C *544:8 2.31791e-05
27 *3122:C *544:14 0.000128154
28 *499:40 *544:14 0
29 *534:10 *3667:B 3.69861e-05
30 *534:10 *544:8 6.20472e-05
31 *535:24 *3667:B 0
32 *535:24 *544:8 0
33 *535:59 *544:14 5.66157e-05
34 *539:34 *3667:B 0.000178586
*RES
1 *3118:Y *544:6 13.8 
2 *544:6 *544:8 9.23214 
3 *544:8 *544:14 7.58929 
4 *544:14 *3138:A2 9.3 
5 *544:14 *3121:B 14.9071 
6 *544:8 *3122:B 17.7643 
7 *544:6 *3667:B 19.8536 
*END

*D_NET *545 0.00150021
*CONN
*I *3120:B1 I *D sky130_fd_sc_hd__a21o_1
*I *3119:X O *D sky130_fd_sc_hd__or3b_1
*CAP
1 *3120:B1 0.000327981
2 *3119:X 0.000327981
3 *3120:B1 *593:20 5.33005e-05
4 *3100:C1 *3120:B1 0.000135127
5 *3107:A *3120:B1 0.00010096
6 *3108:B *3120:B1 0.00026647
7 *3120:A2 *3120:B1 0.000104868
8 *534:10 *3120:B1 0.00012465
9 *544:8 *3120:B1 5.88692e-05
*RES
1 *3119:X *3120:B1 35.8857 
*END

*D_NET *546 0.00308781
*CONN
*I *3763:A I *D sky130_fd_sc_hd__clkbuf_2
*I *3121:C I *D sky130_fd_sc_hd__and3_4
*I *3138:A1 I *D sky130_fd_sc_hd__a31o_4
*I *3120:X O *D sky130_fd_sc_hd__a21o_1
*CAP
1 *3763:A 0.000244623
2 *3121:C 0
3 *3138:A1 6.33998e-05
4 *3120:X 0.000310108
5 *546:27 0.000415414
6 *546:14 0.000544299
7 *3763:A *3153:A1_N 5.71472e-05
8 *3763:A *547:27 6.92105e-05
9 *3763:A *577:17 0.000105901
10 *3763:A *579:10 1.39726e-05
11 *3763:A *981:14 0.000206051
12 *546:14 *548:8 6.04162e-05
13 *546:14 *548:55 4.15432e-05
14 *3107:A *546:14 0.00014183
15 *3108:B *546:14 9.25014e-06
16 *3121:A *3138:A1 7.48091e-05
17 *3121:A *546:27 0.000187882
18 *3121:B *3138:A1 0.00010096
19 *3121:B *546:27 0.00028988
20 *3155:A *546:27 0
21 *514:34 *3763:A 4.35048e-05
22 *544:8 *546:14 4.71964e-05
23 *544:14 *546:14 6.04162e-05
*RES
1 *3120:X *546:14 24.2643 
2 *546:14 *3138:A1 11.0857 
3 *546:14 *546:27 5.07143 
4 *546:27 *3121:C 9.3 
5 *546:27 *3763:A 23.675 
*END

*D_NET *547 0.00580811
*CONN
*I *3162:A I *D sky130_fd_sc_hd__nor2_1
*I *3128:B1 I *D sky130_fd_sc_hd__a21o_1
*I *3151:B1 I *D sky130_fd_sc_hd__a21o_1
*I *3153:B2 I *D sky130_fd_sc_hd__a2bb2o_1
*I *3140:B I *D sky130_fd_sc_hd__xnor2_4
*I *3121:X O *D sky130_fd_sc_hd__and3_4
*CAP
1 *3162:A 2.36895e-05
2 *3128:B1 0.000361212
3 *3151:B1 1.99857e-05
4 *3153:B2 0.000139445
5 *3140:B 0.000180287
6 *3121:X 5.41221e-05
7 *547:43 0.000999729
8 *547:27 0.000341651
9 *547:10 0.000422723
10 *547:8 0.000729167
11 *3128:B1 *3162:B 2.8266e-06
12 *3128:B1 *3168:A 0.000113277
13 *3128:B1 *3168:B 0
14 *3128:B1 *3188:A 0.000354879
15 *3128:B1 *3667:A 0
16 *3128:B1 *593:20 0.000252873
17 *3128:B1 *593:41 0
18 *3140:B *3154:A2 0
19 *3140:B *577:17 7.90803e-05
20 *3153:B2 *3153:A1_N 9.61455e-05
21 *3153:B2 *3153:A2_N 5.33005e-05
22 *3162:A *3165:A 5.52238e-05
23 *547:10 *577:17 9.22948e-05
24 *547:27 *3153:A1_N 1.69961e-05
25 *547:27 *981:14 5.52302e-05
26 *547:43 *3156:B 0.00015134
27 *547:43 *3162:B 0
28 *547:43 *3667:A 0
29 *547:43 *577:17 4.49293e-05
30 *547:43 *584:12 0
31 *547:43 *585:10 0
32 *547:43 *1053:18 0
33 *547:43 *1053:46 0
34 *3085:B *547:43 0.000106542
35 *3119:C_N *3128:B1 0.000186662
36 *3151:A2 *3153:B2 9.90431e-05
37 *3155:A *547:8 9.60875e-05
38 *3155:A *547:43 2.58997e-05
39 *3164:A *547:43 0
40 *3168:C_N *3128:B1 4.8843e-05
41 *3763:A *547:27 6.92105e-05
42 *120:37 *3140:B 0
43 *506:30 *547:43 0.000182329
44 *514:28 *3153:B2 0.000353086
45 *532:23 *3140:B 0
*RES
1 *3121:X *547:8 14.7464 
2 *547:8 *547:10 1.33929 
3 *547:10 *3140:B 17.2643 
4 *547:10 *547:27 7.23214 
5 *547:27 *3153:B2 13.5321 
6 *547:27 *3151:B1 9.72857 
7 *547:8 *547:43 12.875 
8 *547:43 *3128:B1 23.2643 
9 *547:43 *3162:A 14.3357 
*END

*D_NET *548 0.00848328
*CONN
*I *3123:B I *D sky130_fd_sc_hd__nand2_1
*I *3135:A I *D sky130_fd_sc_hd__nand2_1
*I *3141:C I *D sky130_fd_sc_hd__and3_1
*I *3142:A2 I *D sky130_fd_sc_hd__a21oi_2
*I *3139:B I *D sky130_fd_sc_hd__xnor2_1
*I *3122:Y O *D sky130_fd_sc_hd__nand3_4
*CAP
1 *3123:B 0.000409729
2 *3135:A 0.000134117
3 *3141:C 4.62628e-05
4 *3142:A2 6.49318e-05
5 *3139:B 0.000272204
6 *3122:Y 0
7 *548:55 0.00135675
8 *548:23 0.000111195
9 *548:8 0.000858689
10 *548:6 0.00139939
11 *3139:B *3139:A 1.33343e-05
12 *3139:B *1075:73 0
13 *3139:B *1075:81 0
14 *3142:A2 *567:10 1.3701e-05
15 *548:8 *3138:B1 8.45293e-05
16 *548:8 *3144:B 0.000598623
17 *548:8 *1075:81 0
18 *548:55 *3100:A2 4.46186e-06
19 *548:55 *3162:B 2.39999e-05
20 *548:55 *3163:B 0.000274294
21 *548:55 *560:6 5.71472e-05
22 *548:55 *563:6 2.95641e-05
23 *3098:A *3135:A 1.02504e-05
24 *3100:B1 *548:55 5.33005e-05
25 *3108:B *548:55 2.16719e-05
26 *3116:B *3123:B 0.000240127
27 *3120:A2 *548:55 0.000266092
28 *3125:A *3123:B 0.000109026
29 *3132:A1 *3123:B 0
30 *3134:A1 *548:55 0.000356389
31 *3134:A2 *548:55 8.9163e-05
32 *3134:B1 *548:55 4.88637e-05
33 *3141:A *3142:A2 0.000144773
34 *3142:A1 *3142:A2 0
35 *3147:A *3141:C 1.86322e-05
36 *3147:A *3142:A2 0.000186662
37 *3152:A *548:8 0.000250915
38 *502:16 *3123:B 1.01912e-05
39 *504:10 *3123:B 0
40 *504:10 *3135:A 1.91418e-05
41 *504:33 *3123:B 0
42 *506:22 *3135:A 2.49484e-05
43 *510:12 *3135:A 4.40977e-05
44 *510:18 *548:55 0.000438775
45 *514:40 *548:55 0
46 *524:12 *548:55 9.91086e-05
47 *529:10 *3139:B 0
48 *529:25 *3139:B 0
49 *529:25 *548:8 0
50 *530:12 *548:8 0.000196269
51 *532:36 *548:8 0
52 *532:36 *548:55 0
53 *535:24 *3123:B 0
54 *535:24 *3135:A 0
55 *544:14 *548:8 0
56 *546:14 *548:8 6.04162e-05
57 *546:14 *548:55 4.15432e-05
*RES
1 *3122:Y *548:6 13.8 
2 *548:6 *548:8 13.7857 
3 *548:8 *3139:B 17.6214 
4 *548:8 *548:23 4.5 
5 *548:23 *3142:A2 11.8 
6 *548:23 *3141:C 9.90714 
7 *548:6 *548:55 34.9286 
8 *548:55 *3135:A 16.4071 
9 *548:55 *3123:B 21.8179 
*END

*D_NET *549 0.000806766
*CONN
*I *3170:B I *D sky130_fd_sc_hd__and2_1
*I *3124:B I *D sky130_fd_sc_hd__nor2_1
*I *3123:Y O *D sky130_fd_sc_hd__nand2_1
*CAP
1 *3170:B 0.000119752
2 *3124:B 4.98699e-05
3 *3123:Y 6.64086e-05
4 *549:10 0.000236031
5 *3124:B *3171:A 6.75704e-05
6 *3170:B *3171:A 3.3283e-05
7 *3170:B *3171:B 5.71472e-05
8 *3125:A *549:10 3.79467e-05
9 *3132:A1 *549:10 0
10 *3170:A *3124:B 2.44318e-05
11 *3170:A *3170:B 0.000114326
*RES
1 *3123:Y *549:10 19.6393 
2 *549:10 *3124:B 10.675 
3 *549:10 *3170:B 12.4429 
*END

*D_NET *550 0.000686034
*CONN
*I *3125:B I *D sky130_fd_sc_hd__xnor2_2
*I *3171:A I *D sky130_fd_sc_hd__or2_2
*I *3124:Y O *D sky130_fd_sc_hd__nor2_1
*CAP
1 *3125:B 6.18572e-05
2 *3171:A 9.52924e-05
3 *3124:Y 0
4 *550:6 0.00015715
5 *3124:B *3171:A 6.75704e-05
6 *3125:A *3125:B 0.000119618
7 *3125:A *3171:A 5.22205e-05
8 *3170:A *3171:A 9.90431e-05
9 *3170:B *3171:A 3.3283e-05
*RES
1 *3124:Y *550:6 13.8 
2 *550:6 *3171:A 16.5679 
3 *550:6 *3125:B 15.4429 
*END

*D_NET *551 0.00434877
*CONN
*I *3177:A I *D sky130_fd_sc_hd__xor2_1
*I *3231:A1 I *D sky130_fd_sc_hd__o21a_1
*I *3130:A I *D sky130_fd_sc_hd__nor2_1
*I *3125:Y O *D sky130_fd_sc_hd__xnor2_2
*CAP
1 *3177:A 0.000306451
2 *3231:A1 0.000269181
3 *3130:A 0
4 *3125:Y 0.000630639
5 *551:23 0.00101787
6 *551:12 0.00107288
7 *3177:A *3176:B 5.25999e-05
8 *3177:A *3177:B 9.7659e-05
9 *3177:A *3232:B1 3.88512e-05
10 *3177:A *658:14 2.95641e-05
11 *3231:A1 *3231:A2 0
12 *3231:A1 *3231:B1 0.000142856
13 *3231:A1 *3232:B1 0.000100831
14 *551:12 *3129:B 5.33433e-05
15 *551:12 *3130:B 5.7661e-06
16 *551:12 *3231:B1 4.14279e-05
17 *551:12 *555:8 9.11545e-05
18 *551:12 *556:12 5.33334e-05
19 *551:23 *3231:B1 0.000144773
20 *551:23 *3232:A1 2.14757e-05
21 *551:23 *3232:B1 0.00010096
22 *551:23 *3677:A 2.19404e-05
23 *3129:A *551:12 5.52238e-05
*RES
1 *3125:Y *551:12 20.9786 
2 *551:12 *3130:A 9.3 
3 *551:12 *551:23 8.48214 
4 *551:23 *3231:A1 23.1393 
5 *551:23 *3177:A 14.9429 
*END

*D_NET *552 0.000939107
*CONN
*I *3127:A1 I *D sky130_fd_sc_hd__mux2_1
*I *3126:Y O *D sky130_fd_sc_hd__nand2_1
*CAP
1 *3127:A1 0.000143431
2 *3126:Y 0.000143431
3 *3127:A1 *3126:B 3.23658e-05
4 *3127:A1 *3129:B 6.50156e-05
5 *3126:A *3127:A1 0.000123288
6 *3127:A0 *3127:A1 5.52238e-05
7 *3129:A *3127:A1 1.08359e-05
8 *3132:A1 *3127:A1 0.000227532
9 *543:19 *3127:A1 0.000137983
*RES
1 *3126:Y *3127:A1 32.0286 
*END

*D_NET *553 0.00061413
*CONN
*I *3133:B1 I *D sky130_fd_sc_hd__o21ai_1
*I *3127:X O *D sky130_fd_sc_hd__mux2_1
*CAP
1 *3133:B1 0.000109644
2 *3127:X 0.000109644
3 *3133:B1 *558:8 3.76337e-05
4 *3133:B1 *597:16 0.000317082
5 *3132:A1 *3133:B1 3.18676e-05
6 *3132:A2 *3133:B1 8.25843e-06
*RES
1 *3127:X *3133:B1 22.0286 
*END

*D_NET *554 0.00209845
*CONN
*I *3129:B I *D sky130_fd_sc_hd__xnor2_1
*I *3131:A2 I *D sky130_fd_sc_hd__o21ai_1
*I *3128:X O *D sky130_fd_sc_hd__a21o_1
*CAP
1 *3129:B 0.000284391
2 *3131:A2 3.14253e-05
3 *3128:X 0.000206121
4 *554:10 0.000521937
5 *3129:B *3126:B 9.25014e-06
6 *554:10 *3126:B 0.000145618
7 *3127:A1 *3129:B 6.50156e-05
8 *3127:S *3129:B 0
9 *3129:A *3129:B 0
10 *3129:A *3131:A2 0.0001399
11 *3168:C_N *554:10 0.000229456
12 *3178:A *3131:A2 5.33005e-05
13 *540:27 *3131:A2 9.90367e-05
14 *543:10 *3129:B 0.000112323
15 *543:10 *554:10 0.000147332
16 *551:12 *3129:B 5.33433e-05
*RES
1 *3128:X *554:10 17.925 
2 *554:10 *3131:A2 15.1571 
3 *554:10 *3129:B 19.425 
*END

*D_NET *555 0.0019743
*CONN
*I *3231:B1 I *D sky130_fd_sc_hd__o21a_1
*I *3130:B I *D sky130_fd_sc_hd__nor2_1
*I *3129:Y O *D sky130_fd_sc_hd__xnor2_1
*CAP
1 *3231:B1 0.000675585
2 *3130:B 1.70795e-05
3 *3129:Y 8.14968e-05
4 *555:8 0.000774161
5 *3231:A1 *3231:B1 0.000142856
6 *551:12 *3130:B 5.7661e-06
7 *551:12 *3231:B1 4.14279e-05
8 *551:12 *555:8 9.11545e-05
9 *551:23 *3231:B1 0.000144773
*RES
1 *3129:Y *555:8 11.0857 
2 *555:8 *3130:B 9.72857 
3 *555:8 *3231:B1 30.3536 
*END

*D_NET *556 0.00299186
*CONN
*I *3133:A1 I *D sky130_fd_sc_hd__o21ai_1
*I *3232:A1 I *D sky130_fd_sc_hd__a31o_1
*I *3234:A1 I *D sky130_fd_sc_hd__a21bo_1
*I *3178:B I *D sky130_fd_sc_hd__nand2_1
*I *3130:Y O *D sky130_fd_sc_hd__nor2_1
*CAP
1 *3133:A1 0
2 *3232:A1 0.000127544
3 *3234:A1 3.8164e-05
4 *3178:B 9.9794e-05
5 *3130:Y 0.000209391
6 *556:33 0.000443006
7 *556:16 0.000447171
8 *556:12 0.000279469
9 *3178:B *3132:B1 0
10 *3178:B *597:16 3.5707e-05
11 *3232:A1 *3232:A2 4.03318e-05
12 *3232:A1 *3232:B1 5.71472e-05
13 *3232:A1 *3677:A 5.33433e-05
14 *3232:A1 *601:36 9.87983e-06
15 *3232:A1 *1053:8 5.75803e-05
16 *3234:A1 *3234:A2 5.52302e-05
17 *3234:A1 *3234:B1_N 2.77173e-05
18 *3234:A1 *3235:B 5.52302e-05
19 *3234:A1 *661:10 0.000183726
20 *556:12 *3132:B1 0
21 *556:12 *597:16 0
22 *556:16 *3235:A 5.33334e-05
23 *556:16 *558:8 1.04232e-05
24 *556:33 *3234:B1_N 0.000142856
25 *556:33 *3235:A 5.33433e-05
26 *556:33 *3235:B 0.000315158
27 *556:33 *559:10 7.65719e-05
28 *556:33 *601:19 1.52978e-05
29 *556:33 *601:36 1.08359e-05
30 *556:33 *1053:8 1.88048e-05
31 *3129:A *556:12 0
32 *551:12 *556:12 5.33334e-05
33 *551:23 *3232:A1 2.14757e-05
*RES
1 *3130:Y *556:12 21.1929 
2 *556:12 *556:16 1.375 
3 *556:16 *3178:B 20.2464 
4 *556:16 *556:33 11.1071 
5 *556:33 *3234:A1 15.5679 
6 *556:33 *3232:A1 16.9964 
7 *556:12 *3133:A1 9.3 
*END

*D_NET *557 0.00094521
*CONN
*I *3132:B1 I *D sky130_fd_sc_hd__o21a_1
*I *3131:Y O *D sky130_fd_sc_hd__o21ai_1
*CAP
1 *3132:B1 0.000306206
2 *3131:Y 0.000306206
3 *3129:A *3132:B1 0.000283935
4 *3178:A *3132:B1 4.88637e-05
5 *3178:B *3132:B1 0
6 *556:12 *3132:B1 0
*RES
1 *3131:Y *3132:B1 32.2429 
*END

*D_NET *558 0.00069101
*CONN
*I *3235:A I *D sky130_fd_sc_hd__xnor2_2
*I *3133:A2 I *D sky130_fd_sc_hd__o21ai_1
*I *3132:X O *D sky130_fd_sc_hd__o21a_1
*CAP
1 *3235:A 6.27436e-05
2 *3133:A2 0
3 *3132:X 7.23862e-05
4 *558:8 0.00013513
5 *3235:A *559:10 0.000229456
6 *558:8 *559:10 2.44318e-05
7 *558:8 *597:16 1.21289e-05
8 *3132:A2 *558:8 0
9 *3133:B1 *558:8 3.76337e-05
10 *556:16 *3235:A 5.33334e-05
11 *556:16 *558:8 1.04232e-05
12 *556:33 *3235:A 5.33433e-05
*RES
1 *3132:X *558:8 11.0857 
2 *558:8 *3133:A2 9.3 
3 *558:8 *3235:A 11.9071 
*END

*D_NET *559 0.00366388
*CONN
*I *3176:A I *D sky130_fd_sc_hd__nand2_1
*I *3179:B1_N I *D sky130_fd_sc_hd__o21bai_4
*I *3232:A2 I *D sky130_fd_sc_hd__a31o_1
*I *3133:Y O *D sky130_fd_sc_hd__o21ai_1
*CAP
1 *3176:A 0.000113116
2 *3179:B1_N 0.000184471
3 *3232:A2 5.72606e-05
4 *3133:Y 0.000425241
5 *559:25 0.000484833
6 *559:10 0.000669748
7 *3176:A *3177:B 3.34366e-05
8 *3176:A *601:36 0
9 *3179:B1_N *3175:B1 5.66157e-05
10 *3179:B1_N *3182:A 9.40095e-05
11 *3179:B1_N *3677:A 0
12 *3179:B1_N *597:16 5.33334e-05
13 *3179:B1_N *600:31 5.52302e-05
14 *3232:A2 *601:36 0.000125724
15 *559:10 *3235:B 9.10134e-05
16 *559:10 *597:16 0.000315158
17 *559:10 *661:10 0.000278832
18 *559:25 *661:10 0.000255062
19 *3232:A1 *3232:A2 4.03318e-05
20 *3235:A *559:10 0.000229456
21 *556:33 *559:10 7.65719e-05
22 *558:8 *559:10 2.44318e-05
*RES
1 *3133:Y *559:10 18.6036 
2 *559:10 *3232:A2 19.9429 
3 *559:10 *559:25 7.08929 
4 *559:25 *3179:B1_N 17.9071 
5 *559:25 *3176:A 15.7464 
*END

*D_NET *560 0.00162872
*CONN
*I *3161:B I *D sky130_fd_sc_hd__and2_1
*I *3135:B I *D sky130_fd_sc_hd__nand2_1
*I *3134:X O *D sky130_fd_sc_hd__a21o_1
*CAP
1 *3161:B 6.40634e-05
2 *3135:B 0.000215079
3 *3134:X 2.71003e-05
4 *560:6 0.000306243
5 *3135:B *561:6 5.12966e-05
6 *3135:B *561:13 7.49387e-06
7 *3134:B1 *3135:B 5.52302e-05
8 *3134:B1 *560:6 0.000131439
9 *3137:A1 *3135:B 2.89016e-05
10 *506:22 *3135:B 3.97677e-05
11 *510:12 *3135:B 1.33343e-05
12 *524:12 *3135:B 0.000307343
13 *524:12 *3161:B 0.000123295
14 *524:12 *560:6 5.52302e-05
15 *535:24 *3161:B 0.00014576
16 *548:55 *560:6 5.71472e-05
*RES
1 *3134:X *560:6 10.6571 
2 *560:6 *3135:B 14.3714 
3 *560:6 *3161:B 20.2464 
*END

*D_NET *561 0.00215794
*CONN
*I *3136:A2 I *D sky130_fd_sc_hd__o21ai_1
*I *3157:B I *D sky130_fd_sc_hd__xnor2_2
*I *3137:A2 I *D sky130_fd_sc_hd__o21a_1
*I *3135:Y O *D sky130_fd_sc_hd__nand2_1
*CAP
1 *3136:A2 0.000181915
2 *3157:B 0.000174105
3 *3137:A2 0
4 *3135:Y 0.000216177
5 *561:13 0.00045937
6 *561:6 0.000319527
7 *3157:B *3137:B1 7.6644e-05
8 *3135:B *561:6 5.12966e-05
9 *3135:B *561:13 7.49387e-06
10 *3137:A1 *3157:B 3.84385e-05
11 *3137:A1 *561:6 2.89016e-05
12 *3137:A1 *561:13 6.05161e-06
13 *506:22 *3157:B 0
14 *506:22 *561:13 4.27338e-05
15 *506:28 *3136:A2 0.000181796
16 *506:28 *561:13 1.24368e-05
17 *523:10 *3157:B 0
18 *535:24 *3136:A2 2.34204e-05
19 *535:24 *3157:B 0.00033763
20 *544:8 *3136:A2 0
*RES
1 *3135:Y *561:6 11.8893 
2 *561:6 *3137:A2 9.3 
3 *561:6 *561:13 1.35714 
4 *561:13 *3157:B 22.675 
5 *561:13 *3136:A2 21.1036 
*END

*D_NET *562 0.000706772
*CONN
*I *3137:B1 I *D sky130_fd_sc_hd__o21a_1
*I *3136:Y O *D sky130_fd_sc_hd__o21ai_1
*CAP
1 *3137:B1 0.000196962
2 *3136:Y 0.000196962
3 *3136:A1 *3137:B1 1.74352e-05
4 *3136:B1 *3137:B1 7.16452e-05
5 *3137:A1 *3137:B1 5.97623e-05
6 *3157:B *3137:B1 7.6644e-05
7 *506:22 *3137:B1 3.34366e-05
8 *535:24 *3137:B1 5.39232e-05
*RES
1 *3136:Y *3137:B1 31.3143 
*END

*D_NET *563 0.00408489
*CONN
*I *3195:B1_N I *D sky130_fd_sc_hd__a21bo_1
*I *3194:A_N I *D sky130_fd_sc_hd__nand3b_1
*I *3160:B1 I *D sky130_fd_sc_hd__a21o_1
*I *3137:X O *D sky130_fd_sc_hd__o21a_1
*CAP
1 *3195:B1_N 0
2 *3194:A_N 2.54025e-05
3 *3160:B1 0.000117361
4 *3137:X 0.000416131
5 *563:12 0.000381032
6 *563:6 0.0006544
7 *3160:B1 *580:30 9.25014e-06
8 *3160:B1 *585:10 0
9 *3160:B1 *593:47 9.25014e-06
10 *3160:B1 *605:10 0.000108691
11 *3194:A_N *585:10 0
12 *3194:A_N *593:47 5.59013e-05
13 *3194:A_N *1053:46 0
14 *563:6 *3100:A2 6.07526e-05
15 *563:12 *3194:B 1.39841e-05
16 *563:12 *3194:C 0.000186662
17 *3134:A1 *563:6 4.72917e-05
18 *3134:A2 *563:6 0.000391
19 *3134:B1 *563:6 0.000230482
20 *3762:A *563:6 0.000137983
21 *506:28 *563:6 0.00120975
22 *548:55 *563:6 2.95641e-05
*RES
1 *3137:X *563:6 23.3893 
2 *563:6 *563:12 8.75 
3 *563:12 *3160:B1 16.7107 
4 *563:12 *3194:A_N 14.5321 
5 *563:6 *3195:B1_N 9.3 
*END

*D_NET *564 0.00136517
*CONN
*I *3144:B I *D sky130_fd_sc_hd__xnor2_4
*I *3138:X O *D sky130_fd_sc_hd__a31o_4
*CAP
1 *3144:B 0.0002127
2 *3138:X 0.0002127
3 *3144:B *3138:B1 0.000186388
4 *3144:B *3153:A2_N 0.000154762
5 *532:36 *3144:B 0
6 *548:8 *3144:B 0.000598623
*RES
1 *3138:X *3144:B 35.3143 
*END

*D_NET *565 0.000779376
*CONN
*I *3146:A I *D sky130_fd_sc_hd__or4b_4
*I *3139:Y O *D sky130_fd_sc_hd__xnor2_1
*CAP
1 *3146:A 0.000250867
2 *3139:Y 0.000250867
3 *3146:A *3139:A 5.33334e-05
4 *3146:A *3143:A 3.57366e-05
5 *3146:A *567:18 0.000144773
6 *3146:A *572:10 4.37999e-05
*RES
1 *3139:Y *3146:A 23.6714 
*END

*D_NET *566 0.00303413
*CONN
*I *3149:D I *D sky130_fd_sc_hd__or4_4
*I *3210:B I *D sky130_fd_sc_hd__nor2_1
*I *3216:A2 I *D sky130_fd_sc_hd__o21ai_2
*I *3213:A I *D sky130_fd_sc_hd__nand2_1
*I *3214:B1 I *D sky130_fd_sc_hd__a21o_1
*I *3217:A2 I *D sky130_fd_sc_hd__o211a_1
*I *3140:Y O *D sky130_fd_sc_hd__xnor2_4
*CAP
1 *3149:D 2.9238e-05
2 *3210:B 3.3709e-05
3 *3216:A2 0
4 *3213:A 5.97501e-05
5 *3214:B1 3.44045e-05
6 *3217:A2 1.99857e-05
7 *3140:Y 0.000143867
8 *566:31 0.000164699
9 *566:27 0.000142158
10 *566:23 0.000219552
11 *566:14 0.000302506
12 *566:8 0.000341395
13 *3210:B *983:23 2.89114e-05
14 *3217:A2 *983:23 1.04232e-05
15 *566:8 *3146:D_N 1.76135e-05
16 *566:8 *3154:A3 0.000149904
17 *566:8 *3666:A 5.16759e-05
18 *566:8 *570:10 6.16744e-05
19 *566:8 *572:10 0.000213635
20 *566:8 *579:16 0
21 *566:14 *3146:D_N 0.000104236
22 *566:14 *3217:C1 2.95726e-05
23 *566:14 *572:10 0.000197977
24 *566:14 *983:23 2.89016e-05
25 *566:23 *983:23 4.29414e-05
26 *566:27 *3222:B2 9.34004e-05
27 *566:27 *1052:29 9.10431e-06
28 *566:31 *1052:29 6.26653e-05
29 *3148:A *3149:D 5.33005e-05
30 *3210:A *566:23 4.27935e-05
31 *119:61 *566:31 9.47456e-05
32 *119:72 *566:27 0.000100735
33 *119:72 *566:31 5.80706e-06
34 *119:74 *566:23 0.00014285
*RES
1 *3140:Y *566:8 18.4786 
2 *566:8 *566:14 8.82143 
3 *566:14 *3217:A2 9.72857 
4 *566:14 *566:23 2.58929 
5 *566:23 *566:27 7.05357 
6 *566:27 *566:31 6.75 
7 *566:31 *3214:B1 9.83571 
8 *566:31 *3213:A 10.2464 
9 *566:27 *3216:A2 13.8 
10 *566:23 *3210:B 10.2643 
11 *566:8 *3149:D 14.3357 
*END

*D_NET *567 0.00198109
*CONN
*I *3147:B I *D sky130_fd_sc_hd__xnor2_2
*I *3146:B I *D sky130_fd_sc_hd__or4b_4
*I *3143:A I *D sky130_fd_sc_hd__nor2_1
*I *3141:X O *D sky130_fd_sc_hd__and3_1
*CAP
1 *3147:B 0
2 *3146:B 0
3 *3143:A 0.000142279
4 *3141:X 0.000241518
5 *567:18 0.000348248
6 *567:10 0.000447487
7 *3143:A *3143:B 0.000132405
8 *3143:A *3146:D_N 5.71472e-05
9 *3143:A *572:10 1.74352e-05
10 *567:18 *568:16 0
11 *567:18 *572:10 3.61629e-06
12 *3105:B *567:10 5.52302e-05
13 *3142:A2 *567:10 1.3701e-05
14 *3146:A *3143:A 3.57366e-05
15 *3146:A *567:18 0.000144773
16 *3147:A *567:10 0.000189169
17 *120:37 *567:18 0.00015234
*RES
1 *3141:X *567:10 13.9786 
2 *567:10 *567:18 12.7143 
3 *567:18 *3143:A 13.05 
4 *567:18 *3146:B 9.3 
5 *567:10 *3147:B 9.3 
*END

*D_NET *568 0.00400073
*CONN
*I *3149:C I *D sky130_fd_sc_hd__or4_4
*I *3146:C I *D sky130_fd_sc_hd__or4b_4
*I *3143:B I *D sky130_fd_sc_hd__nor2_1
*I *3142:Y O *D sky130_fd_sc_hd__a21oi_2
*CAP
1 *3149:C 8.69735e-05
2 *3146:C 0
3 *3143:B 0.000175721
4 *3142:Y 0.000739972
5 *568:16 0.000379846
6 *568:14 0.00103107
7 *3143:B *3146:D_N 1.02821e-05
8 *3143:B *569:6 2.89114e-05
9 *3143:B *572:10 0.000274288
10 *3149:C *3149:B 2.44318e-05
11 *568:14 *3106:A1 5.71472e-05
12 *568:14 *1075:81 8.57023e-05
13 *568:16 *572:10 0
14 *568:16 *573:10 0
15 *3105:B *568:14 2.14658e-05
16 *3143:A *3143:B 0.000132405
17 *3148:A *3149:C 0.000204129
18 *3148:A *568:14 0.000402784
19 *3149:A *3149:C 9.90431e-05
20 *3149:A *568:14 7.65834e-05
21 *120:37 *3143:B 0
22 *120:37 *3149:C 0
23 *120:37 *568:16 0
24 *528:12 *568:14 0
25 *529:25 *568:14 7.83587e-05
26 *530:19 *568:14 9.16173e-05
27 *567:18 *568:16 0
*RES
1 *3142:Y *568:14 33.4071 
2 *568:14 *568:16 3.46429 
3 *568:16 *3143:B 18.5679 
4 *568:16 *3146:C 13.8 
5 *568:14 *3149:C 16.4652 
*END

*D_NET *569 0.0019035
*CONN
*I *3145:A I *D sky130_fd_sc_hd__nand2_1
*I *3222:B2 I *D sky130_fd_sc_hd__o22a_1
*I *3143:Y O *D sky130_fd_sc_hd__nor2_1
*CAP
1 *3145:A 7.5029e-05
2 *3222:B2 0.000167043
3 *3143:Y 0.000250348
4 *569:6 0.000492421
5 *3145:A *3216:B1 4.43256e-05
6 *3145:A *642:10 5.33433e-05
7 *3222:B2 *3222:B1 0
8 *3222:B2 *1052:29 0.000364967
9 *569:6 *3146:D_N 0.000142856
10 *569:6 *3216:B1 0.000190858
11 *3143:B *569:6 2.89114e-05
12 *3148:A *3222:B2 0
13 *566:27 *3222:B2 9.34004e-05
*RES
1 *3143:Y *569:6 14.7643 
2 *569:6 *3222:B2 22.9786 
3 *569:6 *3145:A 11.0857 
*END

*D_NET *570 0.00202396
*CONN
*I *3767:A I *D sky130_fd_sc_hd__dlygate4sd1_1
*I *3146:D_N I *D sky130_fd_sc_hd__or4b_4
*I *3144:Y O *D sky130_fd_sc_hd__xnor2_4
*CAP
1 *3767:A 0
2 *3146:D_N 0.000279691
3 *3144:Y 0.000312581
4 *570:10 0.000592272
5 *3146:D_N *572:10 5.16583e-05
6 *3146:D_N *982:12 3.90513e-05
7 *3146:D_N *982:14 8.6642e-05
8 *3146:D_N *983:12 0.000127439
9 *570:10 *3212:A 3.06878e-06
10 *570:10 *576:8 7.02611e-05
11 *570:10 *982:10 2.70899e-05
12 *570:10 *982:12 4.03916e-05
13 *3143:A *3146:D_N 5.71472e-05
14 *3143:B *3146:D_N 1.02821e-05
15 *566:8 *3146:D_N 1.76135e-05
16 *566:8 *570:10 6.16744e-05
17 *566:14 *3146:D_N 0.000104236
18 *569:6 *3146:D_N 0.000142856
*RES
1 *3144:Y *570:10 18.4429 
2 *570:10 *3146:D_N 20.6571 
3 *570:10 *3767:A 13.8 
*END

*D_NET *571 0.000877529
*CONN
*I *3211:A1 I *D sky130_fd_sc_hd__o21a_1
*I *3222:A1 I *D sky130_fd_sc_hd__o22a_1
*I *3145:Y O *D sky130_fd_sc_hd__nand2_1
*CAP
1 *3211:A1 0
2 *3222:A1 1.40568e-05
3 *3145:Y 0.000125533
4 *571:10 0.00013959
5 *3222:A1 *3211:B1 2.89016e-05
6 *3222:A1 *648:8 5.52238e-05
7 *571:10 *3145:B 0.000154762
8 *571:10 *3211:A2 0.00012401
9 *571:10 *3222:A2 8.24047e-05
10 *571:10 *3223:A2 0
11 *571:10 *642:10 0.000153047
*RES
1 *3145:Y *571:10 22.3714 
2 *571:10 *3222:A1 9.83571 
3 *571:10 *3211:A1 9.3 
*END

*D_NET *572 0.00318805
*CONN
*I *3154:A3 I *D sky130_fd_sc_hd__a31o_4
*I *3150:A I *D sky130_fd_sc_hd__nand3_1
*I *3146:X O *D sky130_fd_sc_hd__or4b_4
*CAP
1 *3154:A3 9.21441e-05
2 *3150:A 0
3 *3146:X 0.000654411
4 *572:10 0.000746555
5 *3154:A3 *3154:A1 7.32272e-05
6 *3154:A3 *3154:A2 0.00026858
7 *3154:A3 *3666:A 0
8 *3154:A3 *573:19 4.80729e-05
9 *572:10 *573:10 0.000342495
10 *572:10 *573:19 1.02504e-05
11 *572:10 *982:14 0
12 *3143:A *572:10 1.74352e-05
13 *3143:B *572:10 0.000274288
14 *3146:A *572:10 4.37999e-05
15 *3146:D_N *572:10 5.16583e-05
16 *566:8 *3154:A3 0.000149904
17 *566:8 *572:10 0.000213635
18 *566:14 *572:10 0.000197977
19 *567:18 *572:10 3.61629e-06
20 *568:16 *572:10 0
*RES
1 *3146:X *572:10 26.7643 
2 *572:10 *3150:A 13.8 
3 *572:10 *3154:A3 17.4071 
*END

*D_NET *573 0.00313638
*CONN
*I *3154:A2 I *D sky130_fd_sc_hd__a31o_4
*I *3212:A I *D sky130_fd_sc_hd__xnor2_2
*I *3150:B I *D sky130_fd_sc_hd__nand3_1
*I *3147:Y O *D sky130_fd_sc_hd__xnor2_2
*CAP
1 *3154:A2 0.000246342
2 *3212:A 0.000500385
3 *3150:B 0
4 *3147:Y 0.000213931
5 *573:19 0.000758582
6 *573:10 0.000225786
7 *3154:A2 *3154:A1 9.95628e-05
8 *3154:A2 *3154:B1 9.09669e-05
9 *3154:A2 *3666:A 0
10 *3212:A *3202:C 1.95435e-05
11 *3212:A *3203:A1 0.000133507
12 *3212:A *3666:A 5.33334e-05
13 *3212:A *576:8 4.35452e-05
14 *573:10 *575:12 5.26091e-05
15 *573:19 *3154:A1 1.99099e-05
16 *573:19 *575:12 5.90443e-06
17 *3140:B *3154:A2 0
18 *3154:A3 *3154:A2 0.00026858
19 *3154:A3 *573:19 4.80729e-05
20 *568:16 *573:10 0
21 *570:10 *3212:A 3.06878e-06
22 *572:10 *573:10 0.000342495
23 *572:10 *573:19 1.02504e-05
*RES
1 *3147:Y *573:10 18.7107 
2 *573:10 *3150:B 13.8 
3 *573:10 *573:19 0.732143 
4 *573:19 *3212:A 20.4071 
5 *573:19 *3154:A2 19.5857 
*END

*D_NET *574 0.00108176
*CONN
*I *3149:B I *D sky130_fd_sc_hd__or4_4
*I *3148:Y O *D sky130_fd_sc_hd__nand2_1
*CAP
1 *3149:B 0.000232016
2 *3148:Y 0.000232016
3 *3149:B *575:12 5.71472e-05
4 *3149:A *3149:B 0.000536146
5 *3149:C *3149:B 2.44318e-05
*RES
1 *3148:Y *3149:B 24.0643 
*END

*D_NET *575 0.00146466
*CONN
*I *3154:A1 I *D sky130_fd_sc_hd__a31o_4
*I *3150:C I *D sky130_fd_sc_hd__nand3_1
*I *3149:X O *D sky130_fd_sc_hd__or4_4
*CAP
1 *3154:A1 0.000415477
2 *3150:C 0
3 *3149:X 0.00016267
4 *575:12 0.000578147
5 *3149:B *575:12 5.71472e-05
6 *3154:A2 *3154:A1 9.95628e-05
7 *3154:A3 *3154:A1 7.32272e-05
8 *120:37 *3154:A1 0
9 *120:37 *575:12 0
10 *573:10 *575:12 5.26091e-05
11 *573:19 *3154:A1 1.99099e-05
12 *573:19 *575:12 5.90443e-06
*RES
1 *3149:X *575:12 17.1214 
2 *575:12 *3150:C 13.8 
3 *575:12 *3154:A1 19.6929 
*END

*D_NET *576 0.00218127
*CONN
*I *3203:A1 I *D sky130_fd_sc_hd__a21oi_2
*I *3202:A I *D sky130_fd_sc_hd__and3_1
*I *3150:Y O *D sky130_fd_sc_hd__nand3_1
*CAP
1 *3203:A1 0.000273136
2 *3202:A 3.49772e-05
3 *3150:Y 9.45838e-05
4 *576:8 0.000402697
5 *3203:A1 *3202:C 9.50968e-06
6 *3203:A1 *3203:A2 0.000575092
7 *3203:A1 *3203:B1 0.00038816
8 *3203:A1 *579:16 2.59355e-05
9 *576:8 *3666:A 0.00010096
10 *576:8 *982:10 2.89016e-05
11 *3212:A *3203:A1 0.000133507
12 *3212:A *576:8 4.35452e-05
13 *570:10 *576:8 7.02611e-05
*RES
1 *3150:Y *576:8 11.9071 
2 *576:8 *3202:A 10.0321 
3 *576:8 *3203:A1 19.0143 
*END

*D_NET *577 0.00190596
*CONN
*I *3156:B I *D sky130_fd_sc_hd__xor2_1
*I *3155:B I *D sky130_fd_sc_hd__xnor2_1
*I *3153:A1_N I *D sky130_fd_sc_hd__a2bb2o_1
*I *3151:X O *D sky130_fd_sc_hd__a21o_1
*CAP
1 *3156:B 9.82649e-05
2 *3155:B 3.04135e-05
3 *3153:A1_N 8.12523e-05
4 *3151:X 0
5 *577:17 0.000240414
6 *577:4 0.000192988
7 *3153:A1_N *579:10 0.000154027
8 *3156:B *3158:A 3.99614e-06
9 *3156:B *583:8 1.21258e-05
10 *577:17 *579:10 4.88637e-05
11 *577:17 *981:14 8.66228e-05
12 *3140:B *577:17 7.90803e-05
13 *3151:A2 *3153:A1_N 9.90431e-05
14 *3153:B2 *3153:A1_N 9.61455e-05
15 *3155:A *3155:B 5.33005e-05
16 *3155:A *3156:B 0.000144512
17 *3155:A *577:17 1.02504e-05
18 *3156:A *3156:B 6.05161e-06
19 *3763:A *3153:A1_N 5.71472e-05
20 *3763:A *577:17 0.000105901
21 *547:10 *577:17 9.22948e-05
22 *547:27 *3153:A1_N 1.69961e-05
23 *547:43 *3156:B 0.00015134
24 *547:43 *577:17 4.49293e-05
*RES
1 *3151:X *577:4 9.3 
2 *577:4 *3153:A1_N 12.7107 
3 *577:4 *577:17 8.30357 
4 *577:17 *3155:B 14.3357 
5 *577:17 *3156:B 16.7107 
*END

*D_NET *578 0.000495129
*CONN
*I *3153:A2_N I *D sky130_fd_sc_hd__a2bb2o_1
*I *3152:Y O *D sky130_fd_sc_hd__nor2_1
*CAP
1 *3153:A2_N 6.70096e-05
2 *3152:Y 6.70096e-05
3 *3153:A2_N *3138:B1 0.000153047
4 *3144:B *3153:A2_N 0.000154762
5 *3153:B2 *3153:A2_N 5.33005e-05
*RES
1 *3152:Y *3153:A2_N 30.0821 
*END

*D_NET *579 0.00447631
*CONN
*I *3154:B1 I *D sky130_fd_sc_hd__a31o_4
*I *3203:B1 I *D sky130_fd_sc_hd__a21oi_2
*I *3202:B I *D sky130_fd_sc_hd__and3_1
*I *3153:X O *D sky130_fd_sc_hd__a2bb2o_1
*CAP
1 *3154:B1 0.000153006
2 *3203:B1 0.000445302
3 *3202:B 0
4 *3153:X 0.000819906
5 *579:16 0.000693922
6 *579:10 0.00122153
7 *3154:B1 *628:12 3.67257e-05
8 *3203:B1 *3203:A2 0
9 *579:10 *3198:B 9.25014e-06
10 *579:10 *3666:A 4.75715e-05
11 *579:10 *580:22 2.3954e-05
12 *579:10 *628:12 1.19402e-05
13 *579:10 *1052:25 0
14 *579:16 *3202:C 0.000105696
15 *579:16 *3666:A 0.000114121
16 *579:16 *628:12 6.22052e-05
17 *579:16 *982:10 9.25014e-06
18 *3153:A1_N *579:10 0.000154027
19 *3154:A2 *3154:B1 9.09669e-05
20 *3203:A1 *3203:B1 0.00038816
21 *3203:A1 *579:16 2.59355e-05
22 *3763:A *579:10 1.39726e-05
23 *566:8 *579:16 0
24 *577:17 *579:10 4.88637e-05
*RES
1 *3153:X *579:10 24.7107 
2 *579:10 *579:16 8.80357 
3 *579:16 *3202:B 9.3 
4 *579:16 *3203:B1 16.9786 
5 *579:10 *3154:B1 16.8357 
*END

*D_NET *580 0.00304839
*CONN
*I *3199:A2 I *D sky130_fd_sc_hd__a21oi_4
*I *3198:A I *D sky130_fd_sc_hd__and3_1
*I *3160:A2 I *D sky130_fd_sc_hd__a21o_1
*I *3159:A I *D sky130_fd_sc_hd__nand2_1
*I *3154:X O *D sky130_fd_sc_hd__a31o_4
*CAP
1 *3199:A2 2.77303e-05
2 *3198:A 0
3 *3160:A2 0
4 *3159:A 3.20492e-05
5 *3154:X 8.86956e-05
6 *580:30 0.000336859
7 *580:22 0.00056664
8 *580:12 0.000378256
9 *3159:A *3160:A1 0.00010096
10 *3199:A2 *3200:A 2.28598e-05
11 *3199:A2 *624:8 2.59355e-05
12 *3199:A2 *625:6 8.36572e-05
13 *580:12 *3205:A 0.000146474
14 *580:12 *628:12 5.52238e-05
15 *580:12 *1052:25 4.94362e-05
16 *580:22 *3198:C 2.08174e-05
17 *580:22 *3199:A1 9.90431e-05
18 *580:22 *3199:B1 0.000197092
19 *580:22 *624:8 8.48725e-05
20 *580:22 *625:6 0.00018372
21 *580:30 *3160:A1 4.38128e-05
22 *580:30 *3198:C 0.000102545
23 *580:30 *3666:A 0.000150618
24 *580:30 *581:10 1.18064e-05
25 *580:30 *584:12 0
26 *580:30 *605:10 0.000206083
27 *580:30 *624:38 0
28 *3160:B1 *580:30 9.25014e-06
29 *579:10 *580:22 2.3954e-05
*RES
1 *3154:X *580:12 20.7821 
2 *580:12 *580:22 6.76786 
3 *580:22 *580:30 16.75 
4 *580:30 *3159:A 10.2464 
5 *580:30 *3160:A2 9.3 
6 *580:22 *3198:A 9.3 
7 *580:12 *3199:A2 10.2464 
*END

*D_NET *581 0.00166773
*CONN
*I *3199:B1 I *D sky130_fd_sc_hd__a21oi_4
*I *3198:B I *D sky130_fd_sc_hd__and3_1
*I *3155:Y O *D sky130_fd_sc_hd__xnor2_1
*CAP
1 *3199:B1 6.44155e-05
2 *3198:B 4.03012e-05
3 *3155:Y 0.000468139
4 *581:10 0.000572856
5 *3198:B *3666:A 1.91512e-05
6 *3198:B *1052:25 0
7 *3199:B1 *3198:C 5.7993e-06
8 *3199:B1 *624:8 5.62995e-05
9 *581:10 *3198:C 0.000129944
10 *581:10 *3666:A 5.57097e-05
11 *581:10 *624:38 3.69697e-05
12 *581:10 *1052:23 0
13 *581:10 *1052:25 0
14 *579:10 *3198:B 9.25014e-06
15 *580:22 *3199:B1 0.000197092
16 *580:30 *581:10 1.18064e-05
*RES
1 *3155:Y *581:10 19.9786 
2 *581:10 *3198:B 14.5321 
3 *581:10 *3199:B1 15.9964 
*END

*D_NET *582 0.000210277
*CONN
*I *3158:A I *D sky130_fd_sc_hd__nor2_1
*I *3156:X O *D sky130_fd_sc_hd__xor2_1
*CAP
1 *3158:A 5.26603e-05
2 *3156:X 5.26603e-05
3 *3158:A *583:8 0.00010096
4 *3156:B *3158:A 3.99614e-06
*RES
1 *3156:X *3158:A 19.975 
*END

*D_NET *583 0.00378211
*CONN
*I *3208:A I *D sky130_fd_sc_hd__xor2_1
*I *3207:A I *D sky130_fd_sc_hd__xnor2_1
*I *3158:B I *D sky130_fd_sc_hd__nor2_1
*I *3157:Y O *D sky130_fd_sc_hd__xnor2_2
*CAP
1 *3208:A 8.64613e-05
2 *3207:A 0
3 *3158:B 0
4 *3157:Y 0.000755469
5 *583:15 0.000414512
6 *583:8 0.00108352
7 *3208:A *3208:B 0.000232399
8 *3208:A *624:38 4.38128e-05
9 *3208:A *633:12 0.000144773
10 *583:8 *3667:A 0.000139913
11 *583:8 *981:14 0.00014285
12 *583:15 *624:38 0.000186669
13 *3122:B *583:8 0.000158826
14 *3122:C *583:8 0.00022459
15 *3156:A *583:8 5.52302e-05
16 *3156:B *583:8 1.21258e-05
17 *3158:A *583:8 0.00010096
*RES
1 *3157:Y *583:8 22.5857 
2 *583:8 *3158:B 9.3 
3 *583:8 *583:15 5.875 
4 *583:15 *3207:A 9.3 
5 *583:15 *3208:A 12.3 
*END

*D_NET *584 0.000656271
*CONN
*I *3160:A1 I *D sky130_fd_sc_hd__a21o_1
*I *3159:B I *D sky130_fd_sc_hd__nand2_1
*I *3158:Y O *D sky130_fd_sc_hd__nor2_1
*CAP
1 *3160:A1 0.000108248
2 *3159:B 2.23854e-05
3 *3158:Y 0.000125115
4 *584:12 0.000255749
5 *3159:A *3160:A1 0.00010096
6 *547:43 *584:12 0
7 *580:30 *3160:A1 4.38128e-05
8 *580:30 *584:12 0
*RES
1 *3158:Y *584:12 20.175 
2 *584:12 *3159:B 9.72857 
3 *584:12 *3160:A1 11.4786 
*END

*D_NET *585 0.000910277
*CONN
*I *3194:B I *D sky130_fd_sc_hd__nand3b_1
*I *3195:A1 I *D sky130_fd_sc_hd__a21bo_1
*I *3159:Y O *D sky130_fd_sc_hd__nand2_1
*CAP
1 *3194:B 0.000140622
2 *3195:A1 0
3 *3159:Y 0.000126165
4 *585:10 0.000266788
5 *3194:B *3194:C 0.000142927
6 *3194:B *3197:A2 1.3701e-05
7 *3194:B *593:47 1.21258e-05
8 *3194:B *621:8 0.000183713
9 *585:10 *1053:46 1.02504e-05
10 *3160:B1 *585:10 0
11 *3194:A_N *585:10 0
12 *547:43 *585:10 0
13 *563:12 *3194:B 1.39841e-05
*RES
1 *3159:Y *585:10 20.2464 
2 *585:10 *3195:A1 9.3 
3 *585:10 *3194:B 13.1571 
*END

*D_NET *586 0.00314383
*CONN
*I *3190:C I *D sky130_fd_sc_hd__and4b_1
*I *3192:A1 I *D sky130_fd_sc_hd__a21oi_1
*I *3169:A I *D sky130_fd_sc_hd__and2_1
*I *3175:A2 I *D sky130_fd_sc_hd__a211o_4
*I *3189:A I *D sky130_fd_sc_hd__and3_1
*I *3160:X O *D sky130_fd_sc_hd__a21o_1
*CAP
1 *3190:C 0.000162339
2 *3192:A1 0
3 *3169:A 1.16062e-05
4 *3175:A2 0
5 *3189:A 0
6 *3160:X 0.000173414
7 *586:25 0.000323926
8 *586:19 0.000400818
9 *586:12 0.000102533
10 *586:8 0.000349788
11 *3169:A *3169:B 5.52302e-05
12 *3169:A *3191:B1 5.52302e-05
13 *3190:C *3180:B 3.97677e-05
14 *3190:C *3192:B1 3.10821e-05
15 *3190:C *591:21 0.000173539
16 *3190:C *593:41 0.000186662
17 *3190:C *605:10 0.000237528
18 *3190:C *618:8 0
19 *586:8 *3193:B 0
20 *586:8 *605:10 0.000289564
21 *586:8 *618:8 0
22 *586:12 *3189:C 5.52302e-05
23 *586:12 *3192:A2 2.89114e-05
24 *586:19 *3189:C 9.52453e-05
25 *586:19 *3192:A2 9.31893e-05
26 *586:19 *3192:B1 0.00014285
27 *586:19 *615:12 9.60875e-05
28 *586:25 *3180:B 0
29 *586:25 *3192:B1 0
30 *586:25 *3226:B 0
31 *586:25 *591:21 0
32 *586:25 *605:10 0
33 *586:25 *618:8 3.92854e-05
34 *586:25 *634:27 0
*RES
1 *3160:X *586:8 17.5679 
2 *586:8 *586:12 5.03571 
3 *586:12 *3189:A 9.3 
4 *586:12 *586:19 3 
5 *586:19 *586:25 14.2857 
6 *586:25 *3175:A2 9.3 
7 *586:25 *3169:A 9.83571 
8 *586:19 *3192:A1 9.3 
9 *586:8 *3190:C 19.55 
*END

*D_NET *587 0.00326854
*CONN
*I *3162:B I *D sky130_fd_sc_hd__nor2_1
*I *3163:B I *D sky130_fd_sc_hd__or2_1
*I *3161:X O *D sky130_fd_sc_hd__and2_1
*CAP
1 *3162:B 0.000962385
2 *3163:B 0.000163584
3 *3161:X 0
4 *587:4 0.00112597
5 *3162:B *3164:B 0.000142856
6 *3162:B *590:6 2.89016e-05
7 *3085:A *3162:B 4.01768e-05
8 *3100:B1 *3162:B 0.000165144
9 *3108:A *3162:B 4.58194e-05
10 *3128:B1 *3162:B 2.8266e-06
11 *3164:A *3162:B 8.15939e-05
12 *510:18 *3163:B 2.28499e-05
13 *510:31 *3162:B 1.56e-05
14 *526:6 *3162:B 0.000172536
15 *547:43 *3162:B 0
16 *548:55 *3162:B 2.39999e-05
17 *548:55 *3163:B 0.000274294
*RES
1 *3161:X *587:4 9.3 
2 *587:4 *3163:B 13.3357 
3 *587:4 *3162:B 32.4071 
*END

*D_NET *588 0.000362797
*CONN
*I *3164:B I *D sky130_fd_sc_hd__xnor2_1
*I *3162:Y O *D sky130_fd_sc_hd__nor2_1
*CAP
1 *3164:B 0.000100188
2 *3162:Y 0.000100188
3 *3164:B *3165:A 7.43578e-06
4 *3164:B *590:6 1.21289e-05
5 *3162:B *3164:B 0.000142856
*RES
1 *3162:Y *3164:B 20.7786 
*END

*D_NET *589 0.00198771
*CONN
*I *3186:A3 I *D sky130_fd_sc_hd__a31o_1
*I *3172:D I *D sky130_fd_sc_hd__and4_1
*I *3166:B I *D sky130_fd_sc_hd__nand2_1
*I *3163:X O *D sky130_fd_sc_hd__or2_1
*CAP
1 *3186:A3 0
2 *3172:D 3.94711e-05
3 *3166:B 0
4 *3163:X 0.000334315
5 *589:27 0.000225429
6 *589:10 0.000520273
7 *589:27 *3186:A2 3.25078e-05
8 *3167:A *589:27 5.52302e-05
9 *504:10 *589:10 0
10 *517:21 *3172:D 0.000188586
11 *517:28 *3172:D 0.000131439
12 *517:28 *589:27 3.5298e-05
13 *519:10 *589:10 0
14 *519:10 *589:27 0
15 *519:27 *3172:D 0.00010096
16 *519:27 *589:27 0
17 *519:37 *3172:D 0.000114723
18 *519:37 *589:27 0.000105338
19 *538:22 *589:10 3.76127e-05
20 *538:22 *589:27 6.65302e-05
*RES
1 *3163:X *589:10 17.925 
2 *589:10 *3166:B 13.8 
3 *589:10 *589:27 8.35714 
4 *589:27 *3172:D 12.3 
5 *589:27 *3186:A3 9.3 
*END

*D_NET *590 0.000862266
*CONN
*I *3168:A I *D sky130_fd_sc_hd__nor3b_1
*I *3165:A I *D sky130_fd_sc_hd__inv_2
*I *3164:Y O *D sky130_fd_sc_hd__xnor2_1
*CAP
1 *3168:A 8.15563e-05
2 *3165:A 0.000169553
3 *3164:Y 7.154e-05
4 *590:6 0.000322649
5 *3168:A *3191:A2_N 0
6 *3128:B1 *3168:A 0.000113277
7 *3162:A *3165:A 5.52238e-05
8 *3162:B *590:6 2.89016e-05
9 *3164:B *3165:A 7.43578e-06
10 *3164:B *590:6 1.21289e-05
*RES
1 *3164:Y *590:6 10.2464 
2 *590:6 *3165:A 12.3357 
3 *590:6 *3168:A 19.9429 
*END

*D_NET *591 0.00162794
*CONN
*I *3189:B I *D sky130_fd_sc_hd__and3_1
*I *3192:B1 I *D sky130_fd_sc_hd__a21oi_1
*I *3190:D I *D sky130_fd_sc_hd__and4b_1
*I *3165:Y O *D sky130_fd_sc_hd__inv_2
*CAP
1 *3189:B 0
2 *3192:B1 6.09766e-05
3 *3190:D 0
4 *3165:Y 0.000107791
5 *591:21 0.000387308
6 *591:6 0.000434123
7 *3192:B1 *3192:A2 0.000140933
8 *3192:B1 *618:8 1.88048e-05
9 *591:6 *593:41 6.95541e-05
10 *591:21 *3180:B 3.47797e-05
11 *591:21 *593:41 2.62037e-05
12 *3190:C *3192:B1 3.10821e-05
13 *3190:C *591:21 0.000173539
14 *586:19 *3192:B1 0.00014285
15 *586:25 *3192:B1 0
16 *586:25 *591:21 0
*RES
1 *3165:Y *591:6 11.367 
2 *591:6 *3190:D 9.3 
3 *591:6 *591:21 10.7366 
4 *591:21 *3192:B1 16.1929 
5 *591:21 *3189:B 13.8 
*END

*D_NET *592 0.000400007
*CONN
*I *3167:B I *D sky130_fd_sc_hd__xor2_2
*I *3166:Y O *D sky130_fd_sc_hd__nand2_1
*CAP
1 *3167:B 5.43348e-05
2 *3166:Y 5.43348e-05
3 *3167:B *3166:A 5.52238e-05
4 *3167:B *986:6 5.04705e-05
5 *539:34 *3167:B 0.000185643
*RES
1 *3166:Y *3167:B 11.4339 
*END

*D_NET *593 0.00861078
*CONN
*I *3190:A_N I *D sky130_fd_sc_hd__and4b_1
*I *3197:B1 I *D sky130_fd_sc_hd__a2111o_1
*I *3268:A I *D sky130_fd_sc_hd__xor2_2
*I *3168:B I *D sky130_fd_sc_hd__nor3b_1
*I *3167:X O *D sky130_fd_sc_hd__xor2_2
*CAP
1 *3190:A_N 0
2 *3197:B1 0
3 *3268:A 0.000538788
4 *3168:B 3.82418e-05
5 *3167:X 0.00108362
6 *593:47 0.000911451
7 *593:41 0.000750288
8 *593:20 0.00149948
9 *3168:B *3188:A 0
10 *3268:A *3196:A 1.54142e-05
11 *3268:A *3197:C1 5.52302e-05
12 *3268:A *3267:B1_N 0.000172309
13 *3268:A *3268:B 0.000258064
14 *3268:A *615:21 0.000217141
15 *3268:A *622:8 0.000155988
16 *593:20 *3126:B 7.6644e-05
17 *593:20 *3191:A1_N 1.12553e-05
18 *593:20 *3667:A 0
19 *593:41 *3180:B 0.000129515
20 *593:41 *3191:A1_N 3.48705e-05
21 *593:41 *3191:A2_N 7.83587e-05
22 *593:41 *594:12 0.000230475
23 *593:41 *605:10 5.58941e-05
24 *593:41 *1053:18 1.18064e-05
25 *593:41 *1053:66 0.000142856
26 *593:47 *3194:C 1.24368e-05
27 *593:47 *3196:A 4.38128e-05
28 *593:47 *605:10 0.000409896
29 *593:47 *620:6 0.000144773
30 *593:47 *621:8 1.57523e-05
31 *593:47 *1053:18 0
32 *593:47 *1053:46 0
33 *3119:A *593:20 7.69776e-06
34 *3119:B *593:20 9.02232e-05
35 *3119:C_N *593:20 0.000228558
36 *3120:B1 *593:20 5.33005e-05
37 *3128:B1 *3168:B 0
38 *3128:B1 *593:20 0.000252873
39 *3128:B1 *593:41 0
40 *3160:B1 *593:47 9.25014e-06
41 *3168:C_N *593:20 9.99644e-06
42 *3190:C *593:41 0.000186662
43 *3194:A_N *593:47 5.59013e-05
44 *3194:B *593:47 1.21258e-05
45 *3667:B *593:20 0.000212741
46 *534:10 *593:20 2.61321e-05
47 *539:34 *593:20 0.000275199
48 *591:6 *593:41 6.95541e-05
49 *591:21 *593:41 2.62037e-05
*RES
1 *3167:X *593:20 35.2286 
2 *593:20 *3168:B 10.0321 
3 *593:20 *593:41 21.9821 
4 *593:41 *593:47 12.7857 
5 *593:47 *3268:A 18.9429 
6 *593:47 *3197:B1 9.3 
7 *593:41 *3190:A_N 13.8 
*END

*D_NET *594 0.00220788
*CONN
*I *3169:B I *D sky130_fd_sc_hd__and2_1
*I *3175:A1 I *D sky130_fd_sc_hd__a211o_4
*I *3168:Y O *D sky130_fd_sc_hd__nor3b_1
*CAP
1 *3169:B 0.000112656
2 *3175:A1 2.23854e-05
3 *3168:Y 0.000556024
4 *594:12 0.000691065
5 *3169:B *3180:A_N 5.7661e-06
6 *3169:B *3191:B1 9.61455e-05
7 *594:12 *3175:B1 3.18676e-05
8 *594:12 *3191:A1_N 8.07313e-05
9 *594:12 *3191:A2_N 9.90367e-05
10 *594:12 *3191:B1 0.000198619
11 *594:12 *617:6 2.78812e-05
12 *3169:A *3169:B 5.52302e-05
13 *593:41 *594:12 0.000230475
*RES
1 *3168:Y *594:12 19.0321 
2 *594:12 *3175:A1 9.72857 
3 *594:12 *3169:B 11.9071 
*END

*D_NET *595 0.00172733
*CONN
*I *3180:A_N I *D sky130_fd_sc_hd__nand2b_1
*I *3191:B1 I *D sky130_fd_sc_hd__a2bb2o_1
*I *3169:X O *D sky130_fd_sc_hd__and2_1
*CAP
1 *3180:A_N 4.14314e-05
2 *3191:B1 0.000164145
3 *3169:X 0
4 *595:4 0.000205577
5 *3180:A_N *617:6 2.44318e-05
6 *3191:B1 *3175:B1 5.52238e-05
7 *3191:B1 *617:6 0.000880763
8 *3169:A *3191:B1 5.52302e-05
9 *3169:B *3180:A_N 5.7661e-06
10 *3169:B *3191:B1 9.61455e-05
11 *594:12 *3191:B1 0.000198619
*RES
1 *3169:X *595:4 9.3 
2 *595:4 *3191:B1 17.6393 
3 *595:4 *3180:A_N 10.2643 
*END

*D_NET *596 0.000104357
*CONN
*I *3171:B I *D sky130_fd_sc_hd__or2_2
*I *3170:X O *D sky130_fd_sc_hd__and2_1
*CAP
1 *3171:B 2.36049e-05
2 *3170:X 2.36049e-05
3 *3170:B *3171:B 5.71472e-05
*RES
1 *3170:X *3171:B 19.1357 
*END

*D_NET *597 0.00680057
*CONN
*I *3182:A I *D sky130_fd_sc_hd__xnor2_4
*I *3175:B1 I *D sky130_fd_sc_hd__a211o_4
*I *3171:X O *D sky130_fd_sc_hd__or2_2
*CAP
1 *3182:A 0.000341851
2 *3175:B1 0.000177124
3 *3171:X 0.00190459
4 *597:16 0.00242357
5 *3175:B1 *3175:C1 9.44065e-05
6 *3175:B1 *3182:B 0
7 *3175:B1 *3677:A 0
8 *3175:B1 *600:31 8.22793e-06
9 *3175:B1 *606:12 0
10 *3182:A *3182:B 0
11 *3182:A *661:10 0.00020578
12 *597:16 *3179:A1 2.23758e-05
13 *597:16 *3179:A2 5.33334e-05
14 *597:16 *600:31 1.39726e-05
15 *597:16 *1053:8 0
16 *597:16 *1053:14 0
17 *3127:S *597:16 2.89114e-05
18 *3132:A1 *597:16 0.000191465
19 *3133:B1 *597:16 0.000317082
20 *3170:A *597:16 0.000363837
21 *3178:B *597:16 3.5707e-05
22 *3179:B1_N *3175:B1 5.66157e-05
23 *3179:B1_N *3182:A 9.40095e-05
24 *3179:B1_N *597:16 5.33334e-05
25 *3191:B1 *3175:B1 5.52238e-05
26 *556:12 *597:16 0
27 *558:8 *597:16 1.21289e-05
28 *559:10 *597:16 0.000315158
29 *594:12 *3175:B1 3.18676e-05
*RES
1 *3171:X *597:16 49.0143 
2 *597:16 *3175:B1 17.8 
3 *597:16 *3182:A 20.6214 
*END

*D_NET *598 0.00103044
*CONN
*I *3187:A_N I *D sky130_fd_sc_hd__nand2b_1
*I *3173:B1 I *D sky130_fd_sc_hd__a21o_1
*I *3172:X O *D sky130_fd_sc_hd__and4_1
*CAP
1 *3187:A_N 0.000191531
2 *3173:B1 0.000138429
3 *3172:X 0
4 *598:6 0.000329959
5 *3173:B1 *3174:B 4.1331e-06
6 *3173:B1 *3187:B 0
7 *3187:A_N *3174:B 3.36635e-05
8 *3187:A_N *3187:B 0
9 *3094:B *3173:B1 3.06511e-05
10 *517:6 *3173:B1 0.000230475
11 *540:12 *3187:A_N 7.15962e-05
*RES
1 *3172:X *598:6 13.8 
2 *598:6 *3173:B1 17.0143 
3 *598:6 *3187:A_N 17.5143 
*END

*D_NET *599 0.00064115
*CONN
*I *3174:B I *D sky130_fd_sc_hd__xor2_1
*I *3173:X O *D sky130_fd_sc_hd__a21o_1
*CAP
1 *3174:B 0.00021393
2 *3173:X 0.00021393
3 *3173:B1 *3174:B 4.1331e-06
4 *3187:A_N *3174:B 3.36635e-05
5 *540:12 *3174:B 0.000175493
*RES
1 *3173:X *3174:B 32.2429 
*END

*D_NET *600 0.00702678
*CONN
*I *3181:A I *D sky130_fd_sc_hd__or2_2
*I *3183:A I *D sky130_fd_sc_hd__nand2_1
*I *3175:C1 I *D sky130_fd_sc_hd__a211o_4
*I *3174:X O *D sky130_fd_sc_hd__xor2_1
*CAP
1 *3181:A 0.000127903
2 *3183:A 0
3 *3175:C1 8.71356e-05
4 *3174:X 0.00272779
5 *600:31 0.0002812
6 *600:14 0.00296822
7 *3175:C1 *3677:A 1.53815e-05
8 *3175:C1 *605:10 5.16852e-05
9 *3181:A *3183:B 5.52238e-05
10 *3181:A *3184:A 0
11 *3181:A *3184:B 0.000102902
12 *600:31 *3677:A 3.43988e-06
13 *3100:C1 *600:14 0
14 *3119:A *600:14 0
15 *3175:B1 *3175:C1 9.44065e-05
16 *3175:B1 *600:31 8.22793e-06
17 *3179:B1_N *600:31 5.52302e-05
18 *502:16 *600:14 0.00034777
19 *542:24 *600:14 8.62926e-05
20 *597:16 *600:31 1.39726e-05
*RES
1 *3174:X *600:14 27.0695 
2 *600:14 *3175:C1 16.2018 
3 *600:14 *600:31 7.38393 
4 *600:31 *3183:A 9.3 
5 *600:31 *3181:A 12.5857 
*END

*D_NET *601 0.00172364
*CONN
*I *3176:B I *D sky130_fd_sc_hd__nand2_1
*I *3232:A3 I *D sky130_fd_sc_hd__a31o_1
*I *3234:A2 I *D sky130_fd_sc_hd__a21bo_1
*I *3179:A2 I *D sky130_fd_sc_hd__o21bai_4
*I *3175:X O *D sky130_fd_sc_hd__a211o_4
*CAP
1 *3176:B 6.27541e-05
2 *3232:A3 0
3 *3234:A2 1.40355e-05
4 *3179:A2 4.10855e-05
5 *3175:X 9.61731e-05
6 *601:36 0.000255675
7 *601:19 0.000322464
8 *601:8 0.000252766
9 *3176:B *3232:B1 1.64329e-05
10 *3176:B *3677:A 2.59355e-05
11 *3176:B *658:14 5.71472e-05
12 *3234:A2 *3234:B1_N 2.89114e-05
13 *601:8 *3677:A 2.15666e-05
14 *601:8 *605:10 2.79092e-05
15 *601:8 *1053:14 0
16 *601:19 *3677:A 5.72433e-05
17 *601:19 *1053:14 0
18 *601:36 *3677:A 0.000120638
19 *3176:A *601:36 0
20 *3177:A *3176:B 5.25999e-05
21 *3232:A1 *601:36 9.87983e-06
22 *3232:A2 *601:36 0.000125724
23 *3234:A1 *3234:A2 5.52302e-05
24 *556:33 *601:19 1.52978e-05
25 *556:33 *601:36 1.08359e-05
26 *597:16 *3179:A2 5.33334e-05
*RES
1 *3175:X *601:8 15.7464 
2 *601:8 *3179:A2 14.7464 
3 *601:8 *601:19 2.25 
4 *601:19 *3234:A2 14.3357 
5 *601:19 *601:36 8.125 
6 *601:36 *3232:A3 9.3 
7 *601:36 *3176:B 11.0857 
*END

*D_NET *602 0.000714273
*CONN
*I *3231:A2 I *D sky130_fd_sc_hd__o21a_1
*I *3177:B I *D sky130_fd_sc_hd__xor2_1
*I *3176:Y O *D sky130_fd_sc_hd__nand2_1
*CAP
1 *3231:A2 9.34165e-05
2 *3177:B 0.00010535
3 *3176:Y 0
4 *602:6 0.000198767
5 *3177:B *3232:B1 0
6 *3177:B *658:14 0.000185643
7 *3231:A2 *3232:B1 0
8 *3176:A *3177:B 3.34366e-05
9 *3177:A *3177:B 9.7659e-05
10 *3231:A1 *3231:A2 0
*RES
1 *3176:Y *602:6 13.8 
2 *602:6 *3177:B 16.6036 
3 *602:6 *3231:A2 15.4429 
*END

*D_NET *603 0.00527704
*CONN
*I *3291:A I *D sky130_fd_sc_hd__nor2_1
*I *3238:B1 I *D sky130_fd_sc_hd__a31o_1
*I *3229:A I *D sky130_fd_sc_hd__nand2_1
*I *3177:X O *D sky130_fd_sc_hd__xor2_1
*CAP
1 *3291:A 0.000601062
2 *3238:B1 1.99857e-05
3 *3229:A 2.45257e-05
4 *3177:X 0.000670516
5 *603:23 0.000839653
6 *603:10 0.000913647
7 *3229:A *3240:A2 1.87955e-05
8 *3229:A *661:14 5.58941e-05
9 *3238:B1 *608:17 1.04232e-05
10 *3291:A *3241:A 0.000122159
11 *3291:A *3241:B 0
12 *3291:A *667:8 5.80217e-05
13 *603:10 *3240:A2 3.0285e-05
14 *603:10 *658:14 0.000975294
15 *603:10 *661:14 2.24646e-05
16 *603:23 *3241:A 2.44318e-05
17 *603:23 *608:6 9.90431e-05
18 *603:23 *608:17 0.0004776
19 *603:23 *661:38 0.000313241
*RES
1 *3177:X *603:10 24.3 
2 *603:10 *3229:A 14.5321 
3 *603:10 *603:23 10.375 
4 *603:23 *3238:B1 9.72857 
5 *603:23 *3291:A 28.675 
*END

*D_NET *604 0.000583795
*CONN
*I *3179:A1 I *D sky130_fd_sc_hd__o21bai_4
*I *3178:Y O *D sky130_fd_sc_hd__nand2_1
*CAP
1 *3179:A1 0.00028071
2 *3178:Y 0.00028071
3 *597:16 *3179:A1 2.23758e-05
*RES
1 *3178:Y *3179:A1 22.0107 
*END

*D_NET *605 0.00560545
*CONN
*I *3677:A I *D sky130_fd_sc_hd__buf_4
*I *3676:A I *D sky130_fd_sc_hd__buf_6
*I *3666:A I *D sky130_fd_sc_hd__clkbuf_1
*I *3179:Y O *D sky130_fd_sc_hd__o21bai_4
*CAP
1 *3677:A 0.00050761
2 *3676:A 2.0281e-05
3 *3666:A 0.000386646
4 *3179:Y 0
5 *605:10 0.00102955
6 *605:6 0.00113023
7 *3666:A *3198:C 5.52302e-05
8 *3676:A *3198:C 4.38128e-05
9 *3677:A *3232:B1 2.24079e-05
10 *605:10 *3193:B 0
11 *605:10 *624:38 0.000109809
12 *605:10 *1053:14 0
13 *605:10 *1053:16 0
14 *3154:A2 *3666:A 0
15 *3154:A3 *3666:A 0
16 *3160:B1 *605:10 0.000108691
17 *3175:B1 *3677:A 0
18 *3175:C1 *3677:A 1.53815e-05
19 *3175:C1 *605:10 5.16852e-05
20 *3176:B *3677:A 2.59355e-05
21 *3179:B1_N *3677:A 0
22 *3190:C *605:10 0.000237528
23 *3198:B *3666:A 1.91512e-05
24 *3212:A *3666:A 5.33334e-05
25 *3232:A1 *3677:A 5.33433e-05
26 *551:23 *3677:A 2.19404e-05
27 *566:8 *3666:A 5.16759e-05
28 *576:8 *3666:A 0.00010096
29 *579:10 *3666:A 4.75715e-05
30 *579:16 *3666:A 0.000114121
31 *580:30 *3666:A 0.000150618
32 *580:30 *605:10 0.000206083
33 *581:10 *3666:A 5.57097e-05
34 *586:8 *605:10 0.000289564
35 *586:25 *605:10 0
36 *593:41 *605:10 5.58941e-05
37 *593:47 *605:10 0.000409896
38 *600:31 *3677:A 3.43988e-06
39 *601:8 *3677:A 2.15666e-05
40 *601:8 *605:10 2.79092e-05
41 *601:19 *3677:A 5.72433e-05
42 *601:36 *3677:A 0.000120638
*RES
1 *3179:Y *605:6 13.8 
2 *605:6 *605:10 21.0179 
3 *605:10 *3666:A 27.7107 
4 *605:10 *3676:A 9.83571 
5 *605:6 *3677:A 22.4071 
*END

*D_NET *606 0.000992956
*CONN
*I *3181:B I *D sky130_fd_sc_hd__or2_2
*I *3183:B I *D sky130_fd_sc_hd__nand2_1
*I *3180:Y O *D sky130_fd_sc_hd__nand2b_1
*CAP
1 *3181:B 0
2 *3183:B 1.1624e-05
3 *3180:Y 0.000291525
4 *606:12 0.000303149
5 *3183:B *3184:B 5.52238e-05
6 *606:12 *610:8 0
7 *606:12 *617:6 0.000276211
8 *3175:B1 *606:12 0
9 *3181:A *3183:B 5.52238e-05
*RES
1 *3180:Y *606:12 22.8357 
2 *606:12 *3183:B 9.83571 
3 *606:12 *3181:B 9.3 
*END

*D_NET *607 0.000381551
*CONN
*I *3184:A I *D sky130_fd_sc_hd__and2_1
*I *3182:B I *D sky130_fd_sc_hd__xnor2_4
*I *3181:X O *D sky130_fd_sc_hd__or2_2
*CAP
1 *3184:A 4.75558e-05
2 *3182:B 0.000124403
3 *3181:X 0
4 *607:4 0.000171959
5 *3184:A *3184:B 3.76337e-05
6 *3175:B1 *3182:B 0
7 *3181:A *3184:A 0
8 *3182:A *3182:B 0
*RES
1 *3181:X *607:4 9.3 
2 *607:4 *3182:B 20.2464 
3 *607:4 *3184:A 10.2643 
*END

*D_NET *608 0.00181068
*CONN
*I *3241:A I *D sky130_fd_sc_hd__xor2_4
*I *3238:A1 I *D sky130_fd_sc_hd__a31o_1
*I *3229:B I *D sky130_fd_sc_hd__nand2_1
*I *3182:Y O *D sky130_fd_sc_hd__xnor2_4
*CAP
1 *3241:A 6.85839e-05
2 *3238:A1 0
3 *3229:B 2.23854e-05
4 *3182:Y 5.22118e-05
5 *608:17 0.000209106
6 *608:6 0.000215119
7 *3241:A *3243:A2_N 1.98839e-05
8 *3241:A *662:38 0.00014285
9 *608:6 *655:12 1.92789e-05
10 *608:6 *661:10 1.24368e-05
11 *608:6 *661:38 1.38323e-05
12 *608:17 *3240:A1 4.88637e-05
13 *608:17 *3240:B1 9.60875e-05
14 *608:17 *3243:A2_N 1.21289e-05
15 *608:17 *658:14 9.41642e-05
16 *608:17 *662:38 5.00917e-05
17 *3238:B1 *608:17 1.04232e-05
18 *3291:A *3241:A 0.000122159
19 *603:23 *3241:A 2.44318e-05
20 *603:23 *608:6 9.90431e-05
21 *603:23 *608:17 0.0004776
*RES
1 *3182:Y *608:6 10.6571 
2 *608:6 *3229:B 9.72857 
3 *608:6 *608:17 5.07143 
4 *608:17 *3238:A1 9.3 
5 *608:17 *3241:A 11.8893 
*END

*D_NET *609 0.000612061
*CONN
*I *3184:B I *D sky130_fd_sc_hd__and2_1
*I *3183:Y O *D sky130_fd_sc_hd__nand2_1
*CAP
1 *3184:B 0.000208151
2 *3183:Y 0.000208151
3 *3181:A *3184:B 0.000102902
4 *3183:B *3184:B 5.52238e-05
5 *3184:A *3184:B 3.76337e-05
*RES
1 *3183:Y *3184:B 22.85 
*END

*D_NET *610 0.00306105
*CONN
*I *3185:A I *D sky130_fd_sc_hd__inv_2
*I *3227:A I *D sky130_fd_sc_hd__and3_1
*I *3226:D I *D sky130_fd_sc_hd__and4_1
*I *3184:X O *D sky130_fd_sc_hd__and2_1
*CAP
1 *3185:A 0.000881754
2 *3227:A 0
3 *3226:D 8.29479e-05
4 *3184:X 0.00013314
5 *610:21 0.000993845
6 *610:8 0.000328179
7 *3185:A *3227:B 1.56e-05
8 *3185:A *3227:C 1.95435e-05
9 *3185:A *3228:B 2.15245e-05
10 *3185:A *3294:A 3.18676e-05
11 *3185:A *617:6 1.92789e-05
12 *3185:A *654:10 0.000242907
13 *3185:A *662:8 3.30309e-05
14 *3185:A *1050:18 9.90367e-05
15 *3185:A *1051:16 1.60597e-05
16 *3185:A *1051:30 5.33005e-05
17 *3226:D *3180:B 0
18 *3226:D *617:10 0
19 *610:8 *3180:B 0
20 *610:8 *617:10 0
21 *610:8 *652:23 0
22 *610:8 *653:10 0
23 *610:21 *617:6 8.90314e-05
24 *606:12 *610:8 0
*RES
1 *3184:X *610:8 16.05 
2 *610:8 *3226:D 15.1393 
3 *610:8 *610:21 6.67857 
4 *610:21 *3227:A 9.3 
5 *610:21 *3185:A 23.6929 
*END

*D_NET *611 0.00191723
*CONN
*I *3288:A I *D sky130_fd_sc_hd__xnor2_1
*I *3289:A4 I *D sky130_fd_sc_hd__a41o_1
*I *3274:A I *D sky130_fd_sc_hd__and3_1
*I *3185:Y O *D sky130_fd_sc_hd__inv_2
*CAP
1 *3288:A 0
2 *3289:A4 0
3 *3274:A 0.000156274
4 *3185:Y 0.000196122
5 *611:14 0.000359583
6 *611:8 0.00039943
7 *3274:A *694:10 2.39876e-05
8 *3274:A *698:12 3.43988e-06
9 *3274:A *698:20 0.000239528
10 *3274:A *701:20 6.72944e-05
11 *3274:A *714:18 5.52238e-05
12 *611:8 *669:14 4.57538e-05
13 *611:8 *698:12 8.89385e-05
14 *611:8 *718:10 0
15 *611:8 *1051:30 0
16 *611:14 *694:10 8.24334e-05
17 *611:14 *698:12 0.000199225
18 *611:14 *714:8 0
19 *611:14 *718:10 0
*RES
1 *3185:Y *611:8 18.175 
2 *611:8 *611:14 5.64286 
3 *611:14 *3274:A 17.5143 
4 *611:14 *3289:A4 13.8 
5 *611:8 *3288:A 13.8 
*END

*D_NET *612 0.000384806
*CONN
*I *3187:B I *D sky130_fd_sc_hd__nand2b_1
*I *3186:X O *D sky130_fd_sc_hd__a31o_1
*CAP
1 *3187:B 0.000179921
2 *3186:X 0.000179921
3 *3173:B1 *3187:B 0
4 *3187:A_N *3187:B 0
5 *540:12 *3187:B 2.49643e-05
*RES
1 *3186:X *3187:B 30.5196 
*END

*D_NET *613 0.00435268
*CONN
*I *3188:A I *D sky130_fd_sc_hd__inv_2
*I *3187:Y O *D sky130_fd_sc_hd__nand2b_1
*CAP
1 *3188:A 0.000585731
2 *3187:Y 0.000585731
3 *3115:B *3188:A 0.00012401
4 *3117:A2 *3188:A 5.33005e-05
5 *3117:B1 *3188:A 2.13202e-05
6 *3119:C_N *3188:A 6.87574e-05
7 *3123:A *3188:A 0.000146513
8 *3128:A1 *3188:A 1.39841e-05
9 *3128:B1 *3188:A 0.000354879
10 *3132:A1 *3188:A 0.000147121
11 *3168:B *3188:A 0
12 *3168:C_N *3188:A 0.00100144
13 *534:12 *3188:A 5.65091e-05
14 *539:53 *3188:A 5.27703e-06
15 *540:12 *3188:A 0.000963516
16 *542:10 *3188:A 0.00022459
*RES
1 *3187:Y *3188:A 48.7071 
*END

*D_NET *614 0.000898103
*CONN
*I *3191:A1_N I *D sky130_fd_sc_hd__a2bb2o_1
*I *3188:Y O *D sky130_fd_sc_hd__inv_2
*CAP
1 *3191:A1_N 0.000252872
2 *3188:Y 0.000252872
3 *3191:A1_N *617:6 0.00010096
4 *3168:C_N *3191:A1_N 0.000164542
5 *593:20 *3191:A1_N 1.12553e-05
6 *593:41 *3191:A1_N 3.48705e-05
7 *594:12 *3191:A1_N 8.07313e-05
*RES
1 *3188:Y *3191:A1_N 23.6893 
*END

*D_NET *615 0.00192281
*CONN
*I *3267:B1_N I *D sky130_fd_sc_hd__o21bai_1
*I *3193:A I *D sky130_fd_sc_hd__or2_1
*I *3197:C1 I *D sky130_fd_sc_hd__a2111o_1
*I *3189:X O *D sky130_fd_sc_hd__and3_1
*CAP
1 *3267:B1_N 4.15111e-05
2 *3193:A 0.000171071
3 *3197:C1 1.42796e-05
4 *3189:X 0.000181313
5 *615:21 0.000248839
6 *615:12 0.000231849
7 *3193:A *3193:B 0
8 *3193:A *634:27 0
9 *3197:C1 *3196:A 5.33005e-05
10 *3267:B1_N *3196:B 1.92905e-05
11 *3267:B1_N *622:8 1.92789e-05
12 *3267:B1_N *623:10 2.24763e-05
13 *615:12 *3193:B 5.41794e-05
14 *615:12 *618:8 0.00012401
15 *615:12 *634:27 0
16 *615:21 *3196:A 0.000186669
17 *615:21 *3196:B 1.39726e-05
18 *3268:A *3197:C1 5.52302e-05
19 *3268:A *3267:B1_N 0.000172309
20 *3268:A *615:21 0.000217141
21 *586:19 *615:12 9.60875e-05
*RES
1 *3189:X *615:12 21.4964 
2 *615:12 *3197:C1 9.83571 
3 *615:12 *615:21 2.17857 
4 *615:21 *3193:A 21.0857 
5 *615:21 *3267:B1_N 11.0679 
*END

*D_NET *616 0.000540254
*CONN
*I *3191:A2_N I *D sky130_fd_sc_hd__a2bb2o_1
*I *3190:X O *D sky130_fd_sc_hd__and4b_1
*CAP
1 *3191:A2_N 9.31188e-05
2 *3190:X 9.31188e-05
3 *3191:A2_N *617:6 5.33334e-05
4 *3191:A2_N *1053:16 0.000113038
5 *3191:A2_N *1053:18 1.02504e-05
6 *3168:A *3191:A2_N 0
7 *593:41 *3191:A2_N 7.83587e-05
8 *594:12 *3191:A2_N 9.90367e-05
*RES
1 *3190:X *3191:A2_N 30.1893 
*END

*D_NET *617 0.00574717
*CONN
*I *3227:B I *D sky130_fd_sc_hd__and3_1
*I *3225:D I *D sky130_fd_sc_hd__and4bb_1
*I *3272:A I *D sky130_fd_sc_hd__xnor2_1
*I *3271:C1 I *D sky130_fd_sc_hd__o211a_1
*I *3191:X O *D sky130_fd_sc_hd__a2bb2o_1
*CAP
1 *3227:B 5.15574e-05
2 *3225:D 0
3 *3272:A 0.000394314
4 *3271:C1 0
5 *3191:X 0.00075014
6 *617:20 0.00066005
7 *617:10 0.000400082
8 *617:6 0.000936044
9 *3272:A *3270:A1 0
10 *3272:A *3270:B1 1.21289e-05
11 *3272:A *3271:A1 0.000140933
12 *3272:A *3271:B1 5.7661e-06
13 *3272:A *3272:B 1.32552e-05
14 *3272:A *662:16 5.91452e-05
15 *617:6 *3180:B 6.26774e-06
16 *617:10 *3227:C 0.000102545
17 *617:10 *652:10 0
18 *617:10 *652:23 0
19 *617:20 *3225:A_N 0.000142856
20 *617:20 *3225:C 7.09043e-05
21 *617:20 *3227:C 5.59013e-05
22 *617:20 *3270:A1 1.04232e-05
23 *617:20 *3270:A2 1.95646e-05
24 *617:20 *3270:B1 5.71472e-05
25 *617:20 *3271:A1 0.000117956
26 *617:20 *3271:B1 0
27 *617:20 *3272:B 2.44318e-05
28 *617:20 *623:25 0.000102207
29 *617:20 *623:32 0.000117621
30 *617:20 *652:10 8.43535e-06
31 *3180:A_N *617:6 2.44318e-05
32 *3185:A *3227:B 1.56e-05
33 *3185:A *617:6 1.92789e-05
34 *3191:A1_N *617:6 0.00010096
35 *3191:A2_N *617:6 5.33334e-05
36 *3191:B1 *617:6 0.000880763
37 *3226:D *617:10 0
38 *594:12 *617:6 2.78812e-05
39 *606:12 *617:6 0.000276211
40 *610:8 *617:10 0
41 *610:21 *617:6 8.90314e-05
*RES
1 *3191:X *617:6 25.4429 
2 *617:6 *617:10 7.05357 
3 *617:10 *617:20 12.0714 
4 *617:20 *3271:C1 9.3 
5 *617:20 *3272:A 14.9964 
6 *617:10 *3225:D 13.8 
7 *617:6 *3227:B 10.2643 
*END

*D_NET *618 0.00116444
*CONN
*I *3197:D1 I *D sky130_fd_sc_hd__a2111o_1
*I *3193:B I *D sky130_fd_sc_hd__or2_1
*I *3192:Y O *D sky130_fd_sc_hd__a21oi_1
*CAP
1 *3197:D1 1.69531e-05
2 *3193:B 0.000260421
3 *3192:Y 0.000133404
4 *618:8 0.000410778
5 *3197:D1 *3196:A 5.33005e-05
6 *3197:D1 *3196:B 5.33005e-05
7 *3190:C *618:8 0
8 *3192:B1 *618:8 1.88048e-05
9 *3193:A *3193:B 0
10 *586:8 *3193:B 0
11 *586:8 *618:8 0
12 *586:25 *618:8 3.92854e-05
13 *605:10 *3193:B 0
14 *615:12 *3193:B 5.41794e-05
15 *615:12 *618:8 0.00012401
*RES
1 *3192:Y *618:8 16.6571 
2 *618:8 *3193:B 18.0143 
3 *618:8 *3197:D1 14.3357 
*END

*D_NET *619 0.000898166
*CONN
*I *3275:A I *D sky130_fd_sc_hd__xnor2_1
*I *3267:A1 I *D sky130_fd_sc_hd__o21bai_1
*I *3193:X O *D sky130_fd_sc_hd__or2_1
*CAP
1 *3275:A 0
2 *3267:A1 0.000134455
3 *3193:X 0.000209564
4 *619:6 0.000344019
5 *3267:A1 *3226:C 7.80714e-06
6 *3267:A1 *3267:A2 0.000103285
7 *3267:A1 *631:36 0
8 *3267:A1 *701:20 0
9 *619:6 *3267:A2 5.71472e-05
10 *619:6 *692:8 4.18895e-05
*RES
1 *3193:X *619:6 12.7107 
2 *619:6 *3267:A1 21.1571 
3 *619:6 *3275:A 9.3 
*END

*D_NET *620 0.000924423
*CONN
*I *3196:A I *D sky130_fd_sc_hd__and2_1
*I *3197:A1 I *D sky130_fd_sc_hd__a2111o_1
*I *3194:Y O *D sky130_fd_sc_hd__nand3b_1
*CAP
1 *3196:A 6.1571e-05
2 *3197:A1 2.03441e-05
3 *3194:Y 2.01926e-05
4 *620:6 0.000102108
5 *3196:A *3196:B 0.000143437
6 *3197:A1 *3194:C 0
7 *3197:A1 *3197:A2 5.7661e-06
8 *620:6 *3196:B 5.62995e-05
9 *620:6 *621:8 1.74352e-05
10 *3197:C1 *3196:A 5.33005e-05
11 *3197:D1 *3196:A 5.33005e-05
12 *3268:A *3196:A 1.54142e-05
13 *593:47 *3196:A 4.38128e-05
14 *593:47 *620:6 0.000144773
15 *615:21 *3196:A 0.000186669
*RES
1 *3194:Y *620:6 10.6571 
2 *620:6 *3197:A1 9.72857 
3 *620:6 *3196:A 12.3 
*END

*D_NET *621 0.00161924
*CONN
*I *3196:B I *D sky130_fd_sc_hd__and2_1
*I *3197:A2 I *D sky130_fd_sc_hd__a2111o_1
*I *3195:X O *D sky130_fd_sc_hd__a21bo_1
*CAP
1 *3196:B 0.000218124
2 *3197:A2 1.4261e-05
3 *3195:X 0.000243516
4 *621:8 0.000475901
5 *3196:B *623:10 0.000144773
6 *3194:B *3197:A2 1.3701e-05
7 *3194:B *621:8 0.000183713
8 *3196:A *3196:B 0.000143437
9 *3197:A1 *3197:A2 5.7661e-06
10 *3197:D1 *3196:B 5.33005e-05
11 *3267:B1_N *3196:B 1.92905e-05
12 *593:47 *621:8 1.57523e-05
13 *615:21 *3196:B 1.39726e-05
14 *620:6 *3196:B 5.62995e-05
15 *620:6 *621:8 1.74352e-05
*RES
1 *3195:X *621:8 12.7286 
2 *621:8 *3197:A2 9.72857 
3 *621:8 *3196:B 14.3714 
*END

*D_NET *622 0.00272786
*CONN
*I *3277:A I *D sky130_fd_sc_hd__nand2_1
*I *3266:C1 I *D sky130_fd_sc_hd__a211o_1
*I *3279:A I *D sky130_fd_sc_hd__xnor2_2
*I *3196:X O *D sky130_fd_sc_hd__and2_1
*CAP
1 *3277:A 0
2 *3266:C1 0.000127684
3 *3279:A 0
4 *3196:X 0.000515988
5 *622:14 0.000257392
6 *622:8 0.000645696
7 *3266:C1 *3278:A 0.000129595
8 *622:8 *3268:B 1.74352e-05
9 *622:8 *623:10 0.000486435
10 *622:8 *694:10 0.000151061
11 *622:14 *661:14 0
12 *622:14 *690:27 0.000221307
13 *3267:B1_N *622:8 1.92789e-05
14 *3268:A *622:8 0.000155988
*RES
1 *3196:X *622:8 20.5321 
2 *622:8 *622:14 11.8571 
3 *622:14 *3279:A 9.3 
4 *622:14 *3266:C1 12.3357 
5 *622:8 *3277:A 9.3 
*END

*D_NET *623 0.00400432
*CONN
*I *3271:A1 I *D sky130_fd_sc_hd__o211a_1
*I *3270:A1 I *D sky130_fd_sc_hd__o21ai_1
*I *3225:B_N I *D sky130_fd_sc_hd__and4bb_1
*I *3209:B1 I *D sky130_fd_sc_hd__a21o_1
*I *3197:X O *D sky130_fd_sc_hd__a2111o_1
*CAP
1 *3271:A1 0.000261613
2 *3270:A1 1.99857e-05
3 *3225:B_N 0
4 *3209:B1 0
5 *3197:X 0.000534238
6 *623:32 0.000391251
7 *623:25 0.000292163
8 *623:10 0.00071675
9 *3271:A1 *3270:B1 2.89016e-05
10 *3271:A1 *3271:B1 4.1896e-06
11 *3271:A1 *661:14 0
12 *3271:A1 *662:16 5.03772e-05
13 *3271:A1 *1050:18 6.91215e-06
14 *623:10 *3209:A1 1.12323e-05
15 *623:10 *3225:A_N 2.14474e-05
16 *623:10 *3225:C 2.8266e-06
17 *623:10 *3226:C 0
18 *623:10 *631:36 6.54117e-05
19 *623:25 *3225:A_N 0.000182061
20 *623:25 *3225:C 0
21 *623:25 *3227:C 0.00017309
22 *623:25 *652:10 9.90431e-05
23 *623:25 *661:14 0
24 *3196:B *623:10 0.000144773
25 *3267:B1_N *623:10 2.24763e-05
26 *3272:A *3270:A1 0
27 *3272:A *3271:A1 0.000140933
28 *617:20 *3270:A1 1.04232e-05
29 *617:20 *3271:A1 0.000117956
30 *617:20 *623:25 0.000102207
31 *617:20 *623:32 0.000117621
32 *622:8 *623:10 0.000486435
*RES
1 *3197:X *623:10 22.1393 
2 *623:10 *3209:B1 13.8 
3 *623:10 *623:25 9.96429 
4 *623:25 *3225:B_N 9.3 
5 *623:25 *623:32 2.17857 
6 *623:32 *3270:A1 9.72857 
7 *623:32 *3271:A1 22.9429 
*END

*D_NET *624 0.00313585
*CONN
*I *3208:B I *D sky130_fd_sc_hd__xor2_1
*I *3207:B I *D sky130_fd_sc_hd__xnor2_1
*I *3200:A I *D sky130_fd_sc_hd__nor2_1
*I *3205:A I *D sky130_fd_sc_hd__or4_4
*I *3198:X O *D sky130_fd_sc_hd__and3_1
*CAP
1 *3208:B 7.75247e-05
2 *3207:B 0
3 *3200:A 0.000167755
4 *3205:A 0.000155502
5 *3198:X 0
6 *624:38 0.000354659
7 *624:8 0.000542685
8 *624:4 0.000496562
9 *3200:A *3200:B 2.50566e-05
10 *3200:A *625:6 6.09804e-05
11 *3205:A *628:12 7.48091e-05
12 *3205:A *631:10 5.41494e-05
13 *3205:A *638:57 7.41547e-05
14 *3205:A *1052:25 0
15 *624:8 *3199:A1 9.90431e-05
16 *624:38 *3198:C 6.8646e-06
17 *624:38 *1052:23 0
18 *3199:A2 *3200:A 2.28598e-05
19 *3199:A2 *624:8 2.59355e-05
20 *3199:B1 *624:8 5.62995e-05
21 *3208:A *3208:B 0.000232399
22 *3208:A *624:38 4.38128e-05
23 *580:12 *3205:A 0.000146474
24 *580:22 *624:8 8.48725e-05
25 *580:30 *624:38 0
26 *581:10 *624:38 3.69697e-05
27 *583:15 *624:38 0.000186669
28 *605:10 *624:38 0.000109809
*RES
1 *3198:X *624:4 9.3 
2 *624:4 *624:8 4.25 
3 *624:8 *3205:A 22.5143 
4 *624:8 *3200:A 12.3179 
5 *624:4 *624:38 15.25 
6 *624:38 *3207:B 9.3 
7 *624:38 *3208:B 11.4786 
*END

*D_NET *625 0.00139979
*CONN
*I *3200:B I *D sky130_fd_sc_hd__nor2_1
*I *3205:C I *D sky130_fd_sc_hd__or4_4
*I *3199:Y O *D sky130_fd_sc_hd__a21oi_4
*CAP
1 *3200:B 6.77246e-05
2 *3205:C 8.70147e-05
3 *3199:Y 0.000219672
4 *625:6 0.000374411
5 *3200:B *3204:A 0
6 *3200:B *626:6 2.27416e-05
7 *3200:B *628:20 0.000130419
8 *3205:C *628:20 7.6644e-05
9 *3205:C *631:10 2.65571e-06
10 *3205:C *638:57 1.17968e-05
11 *625:6 *628:20 5.33005e-05
12 *3199:A2 *625:6 8.36572e-05
13 *3200:A *3200:B 2.50566e-05
14 *3200:A *625:6 6.09804e-05
15 *580:22 *625:6 0.00018372
*RES
1 *3199:Y *625:6 13.5321 
2 *625:6 *3205:C 19.8491 
3 *625:6 *3200:B 11.3893 
*END

*D_NET *626 0.0036066
*CONN
*I *3285:A I *D sky130_fd_sc_hd__nor2_1
*I *3201:A I *D sky130_fd_sc_hd__inv_2
*I *3200:Y O *D sky130_fd_sc_hd__nor2_1
*CAP
1 *3285:A 0.000868815
2 *3201:A 2.23854e-05
3 *3200:Y 0.000319686
4 *626:6 0.00121089
5 *3201:A *3204:A 0
6 *3285:A *3206:A 9.90431e-05
7 *3285:A *3285:B 7.28814e-05
8 *3285:A *3286:B1 8.37135e-05
9 *3285:A *3287:A2 5.33005e-05
10 *3285:A *3287:B1 0.000140933
11 *3285:A *3287:D1 0.000105902
12 *3285:A *3289:A1 0.000183726
13 *3285:A *3302:A1 9.71197e-05
14 *3285:A *3302:A2 7.50614e-05
15 *3285:A *3302:B1 7.80417e-05
16 *3285:A *3302:B2 9.60939e-05
17 *626:6 *628:20 7.62726e-05
18 *3200:B *626:6 2.27416e-05
*RES
1 *3200:Y *626:6 14.3536 
2 *626:6 *3201:A 9.72857 
3 *626:6 *3285:A 25.8714 
*END

*D_NET *627 0.000717598
*CONN
*I *3286:B1 I *D sky130_fd_sc_hd__a22o_4
*I *3201:Y O *D sky130_fd_sc_hd__inv_2
*CAP
1 *3286:B1 0.000290271
2 *3201:Y 0.000290271
3 *3286:B1 *3206:A 5.33433e-05
4 *3286:B1 *3286:A1 0
5 *3286:B1 *3659:A 0
6 *3286:B1 *631:10 0
7 *3286:B1 *992:10 0
8 *3285:A *3286:B1 8.37135e-05
*RES
1 *3201:Y *3286:B1 32.85 
*END

*D_NET *628 0.00309284
*CONN
*I *3205:B I *D sky130_fd_sc_hd__or4_4
*I *3204:A I *D sky130_fd_sc_hd__nor2_2
*I *3283:B1 I *D sky130_fd_sc_hd__a2111o_1
*I *3202:X O *D sky130_fd_sc_hd__and3_1
*CAP
1 *3205:B 0
2 *3204:A 5.40981e-05
3 *3283:B1 9.90822e-05
4 *3202:X 0.000650392
5 *628:20 0.000491795
6 *628:12 0.000989007
7 *3283:B1 *3283:D1 2.89016e-05
8 *3283:B1 *649:42 7.6644e-05
9 *628:12 *3202:C 4.25523e-05
10 *628:12 *631:10 4.46231e-06
11 *628:12 *1052:25 0
12 *628:12 *1052:29 0
13 *628:20 *638:57 7.83659e-05
14 *3154:B1 *628:12 3.67257e-05
15 *3200:B *3204:A 0
16 *3200:B *628:20 0.000130419
17 *3201:A *3204:A 0
18 *3205:A *628:12 7.48091e-05
19 *3205:C *628:20 7.6644e-05
20 *579:10 *628:12 1.19402e-05
21 *579:16 *628:12 6.22052e-05
22 *580:12 *628:12 5.52238e-05
23 *625:6 *628:20 5.33005e-05
24 *626:6 *628:20 7.62726e-05
*RES
1 *3202:X *628:12 27.5321 
2 *628:12 *628:20 14.2679 
3 *628:20 *3283:B1 19.8714 
4 *628:20 *3204:A 10.3357 
5 *628:12 *3205:B 9.3 
*END

*D_NET *629 0.00185612
*CONN
*I *3204:B I *D sky130_fd_sc_hd__nor2_2
*I *3283:C1 I *D sky130_fd_sc_hd__a2111o_1
*I *3205:D I *D sky130_fd_sc_hd__or4_4
*I *3203:Y O *D sky130_fd_sc_hd__a21oi_2
*CAP
1 *3204:B 3.71139e-05
2 *3283:C1 0
3 *3205:D 0.000150416
4 *3203:Y 0
5 *629:23 0.000363772
6 *629:4 0.000477074
7 *3204:B *3284:A 0.000104974
8 *3204:B *649:42 0.000143797
9 *3204:B *1051:36 2.82057e-05
10 *3205:D *3203:A2 0.00010096
11 *3205:D *3283:D1 0
12 *3205:D *638:57 0
13 *629:23 *3203:A2 6.12481e-05
14 *629:23 *3284:A 0.000193118
15 *629:23 *649:42 0.000191403
16 *629:23 *670:8 4.0342e-06
*RES
1 *3203:Y *629:4 9.3 
2 *629:4 *3205:D 20.5857 
3 *629:4 *629:23 10.0536 
4 *629:23 *3283:C1 13.8 
5 *629:23 *3204:B 15.7464 
*END

*D_NET *630 0.00182842
*CONN
*I *3284:A I *D sky130_fd_sc_hd__xnor2_4
*I *3204:Y O *D sky130_fd_sc_hd__nor2_2
*CAP
1 *3284:A 0.000469724
2 *3204:Y 0.000469724
3 *3284:A *3284:B 0.000271345
4 *3284:A *649:42 1.3142e-05
5 *3284:A *670:8 6.25848e-05
6 *3284:A *1050:22 6.37408e-06
7 *3284:A *1050:24 6.19181e-05
8 *3284:A *1051:36 0.000175519
9 *3204:B *3284:A 0.000104974
10 *629:23 *3284:A 0.000193118
*RES
1 *3204:Y *3284:A 37.975 
*END

*D_NET *631 0.00570684
*CONN
*I *3225:A_N I *D sky130_fd_sc_hd__and4bb_1
*I *3209:A1 I *D sky130_fd_sc_hd__a21o_1
*I *3263:B1 I *D sky130_fd_sc_hd__a21oi_1
*I *3206:A I *D sky130_fd_sc_hd__inv_2
*I *3205:X O *D sky130_fd_sc_hd__or4_4
*CAP
1 *3225:A_N 0.000220696
2 *3209:A1 0.000130937
3 *3263:B1 1.03356e-05
4 *3206:A 1.99167e-05
5 *3205:X 0.000799924
6 *631:36 0.000723474
7 *631:25 0.000666508
8 *631:10 0.00110417
9 *3209:A1 *3227:C 4.00276e-06
10 *3225:A_N *661:14 0
11 *3263:B1 *633:12 5.52238e-05
12 *3263:B1 *689:6 3.18676e-05
13 *631:10 *3281:B 0
14 *631:10 *3283:A2 0.000306317
15 *631:10 *3286:A1 4.97918e-05
16 *631:10 *3286:A2 5.41794e-05
17 *631:10 *1050:22 0.000250201
18 *631:10 *1050:24 3.17148e-05
19 *631:10 *1051:57 2.6269e-05
20 *631:25 *3265:A2 2.49484e-05
21 *631:25 *3269:B1 0.000196269
22 *631:25 *3281:B 0
23 *631:25 *633:12 0.000140933
24 *631:25 *649:42 0
25 *631:25 *689:6 7.03295e-05
26 *631:25 *1050:22 0.000115474
27 *631:25 *1051:36 2.26327e-05
28 *631:36 *3226:C 0
29 *631:36 *3265:A2 0
30 *631:36 *649:42 4.46186e-06
31 *631:36 *661:14 0
32 *631:36 *701:20 9.60337e-06
33 *3205:A *631:10 5.41494e-05
34 *3205:C *631:10 2.65571e-06
35 *3267:A1 *631:36 0
36 *3285:A *3206:A 9.90431e-05
37 *3286:B1 *3206:A 5.33433e-05
38 *3286:B1 *631:10 0
39 *617:20 *3225:A_N 0.000142856
40 *623:10 *3209:A1 1.12323e-05
41 *623:10 *3225:A_N 2.14474e-05
42 *623:10 *631:36 6.54117e-05
43 *623:25 *3225:A_N 0.000182061
44 *628:12 *631:10 4.46231e-06
*RES
1 *3205:X *631:10 25.6036 
2 *631:10 *3206:A 14.7464 
3 *631:10 *631:25 10.8393 
4 *631:25 *3263:B1 9.83571 
5 *631:25 *631:36 10.8482 
6 *631:36 *3209:A1 15.4339 
7 *631:36 *3225:A_N 18.7018 
*END

*D_NET *632 0.00023777
*CONN
*I *3286:A1 I *D sky130_fd_sc_hd__a22o_4
*I *3206:Y O *D sky130_fd_sc_hd__inv_2
*CAP
1 *3286:A1 9.10854e-05
2 *3206:Y 9.10854e-05
3 *3286:A1 *3286:A2 5.80706e-06
4 *3286:B1 *3286:A1 0
5 *631:10 *3286:A1 4.97918e-05
*RES
1 *3206:Y *3286:A1 29.5464 
*END

*D_NET *633 0.00347261
*CONN
*I *3281:A I *D sky130_fd_sc_hd__xnor2_1
*I *3264:A I *D sky130_fd_sc_hd__nor2_1
*I *3207:Y O *D sky130_fd_sc_hd__xnor2_1
*CAP
1 *3281:A 0.000334401
2 *3264:A 0
3 *3207:Y 0.0004595
4 *633:12 0.000793901
5 *3281:A *3265:A2 0
6 *3281:A *3266:A1 0.000102197
7 *3281:A *3269:B1 0
8 *3281:A *3281:B 0.000195555
9 *3281:A *3659:A 0
10 *3281:A *690:23 0.000173328
11 *3281:A *690:27 2.8266e-06
12 *3281:A *1050:18 0
13 *633:12 *3226:C 0.000230482
14 *633:12 *3263:A1 0.000303747
15 *633:12 *3264:B 0.000102013
16 *633:12 *3265:A2 9.22103e-06
17 *633:12 *3266:A1 7.80837e-05
18 *633:12 *638:57 0.000183726
19 *633:12 *649:42 9.90367e-05
20 *633:12 *689:6 8.43535e-06
21 *633:12 *690:23 5.52302e-05
22 *3208:A *633:12 0.000144773
23 *3263:B1 *633:12 5.52238e-05
24 *631:25 *633:12 0.000140933
*RES
1 *3207:Y *633:12 21.0857 
2 *633:12 *3264:A 9.3 
3 *633:12 *3281:A 25.05 
*END

*D_NET *634 0.00413009
*CONN
*I *3209:A2 I *D sky130_fd_sc_hd__a21o_1
*I *3225:C I *D sky130_fd_sc_hd__and4bb_1
*I *3280:A I *D sky130_fd_sc_hd__xnor2_1
*I *3208:X O *D sky130_fd_sc_hd__xor2_1
*CAP
1 *3209:A2 0
2 *3225:C 0.000196794
3 *3280:A 0.000597487
4 *3208:X 0
5 *634:27 0.000713499
6 *634:6 0.00111419
7 *3225:C *3226:A 6.05161e-06
8 *3225:C *3226:C 0
9 *3225:C *3227:C 4.06875e-05
10 *3225:C *652:10 7.02611e-05
11 *3280:A *638:57 8.81343e-05
12 *3280:A *649:42 0
13 *3280:A *695:8 0.000316184
14 *3280:A *1050:18 0.000264101
15 *3280:A *1051:30 9.73881e-05
16 *634:27 *3226:B 0.000502899
17 *634:27 *3226:C 2.39779e-05
18 *634:27 *638:57 2.46999e-05
19 *634:27 *649:42 0
20 *3193:A *634:27 0
21 *586:25 *634:27 0
22 *615:12 *634:27 0
23 *617:20 *3225:C 7.09043e-05
24 *623:10 *3225:C 2.8266e-06
25 *623:25 *3225:C 0
*RES
1 *3208:X *634:6 13.8 
2 *634:6 *3280:A 26.7821 
3 *634:6 *634:27 14.9107 
4 *634:27 *3225:C 22.5143 
5 *634:27 *3209:A2 9.3 
*END

*D_NET *635 0.000865169
*CONN
*I *3227:C I *D sky130_fd_sc_hd__and3_1
*I *3209:X O *D sky130_fd_sc_hd__a21o_1
*CAP
1 *3227:C 0.000222989
2 *3209:X 0.000222989
3 *3227:C *652:10 2.34204e-05
4 *3227:C *661:14 0
5 *3185:A *3227:C 1.95435e-05
6 *3209:A1 *3227:C 4.00276e-06
7 *3225:C *3227:C 4.06875e-05
8 *617:10 *3227:C 0.000102545
9 *617:20 *3227:C 5.59013e-05
10 *623:25 *3227:C 0.00017309
*RES
1 *3209:X *3227:C 32.2071 
*END

*D_NET *636 0.00103508
*CONN
*I *3211:A2 I *D sky130_fd_sc_hd__o21a_1
*I *3210:Y O *D sky130_fd_sc_hd__nor2_1
*CAP
1 *3211:A2 0.000301415
2 *3210:Y 0.000301415
3 *3211:A2 *3223:A2 0
4 *3211:A2 *983:23 0.00030824
5 *571:10 *3211:A2 0.00012401
*RES
1 *3210:Y *3211:A2 32.2429 
*END

*D_NET *637 0.000780988
*CONN
*I *3212:B I *D sky130_fd_sc_hd__xnor2_2
*I *3211:X O *D sky130_fd_sc_hd__o21a_1
*CAP
1 *3212:B 0.000264652
2 *3211:X 0.000264652
3 *3212:B *3211:B1 0.000162208
4 *3212:B *638:12 6.05161e-06
5 *3212:B *648:8 2.24763e-05
6 *3212:B *1052:29 6.09476e-05
*RES
1 *3211:X *3212:B 31.8321 
*END

*D_NET *638 0.00689307
*CONN
*I *3263:A1 I *D sky130_fd_sc_hd__a21oi_1
*I *3226:B I *D sky130_fd_sc_hd__and4_1
*I *3246:A1 I *D sky130_fd_sc_hd__a32o_1
*I *3245:A I *D sky130_fd_sc_hd__or2_1
*I *3224:A I *D sky130_fd_sc_hd__and2_1
*I *3212:Y O *D sky130_fd_sc_hd__xnor2_2
*CAP
1 *3263:A1 0.000202914
2 *3226:B 0.000253902
3 *3246:A1 0
4 *3245:A 0.000192896
5 *3224:A 0
6 *3212:Y 0
7 *638:57 0.00116021
8 *638:25 0.000575463
9 *638:12 0.000564022
10 *638:6 0.000884845
11 *3226:B *3226:C 0.000721391
12 *3245:A *3246:B2 0.000191227
13 *3245:A *672:20 8.41603e-05
14 *638:12 *3222:A2 0
15 *638:12 *648:8 3.18676e-05
16 *638:12 *650:10 0
17 *638:12 *1052:29 0
18 *638:25 *3211:B1 0
19 *638:25 *3224:B 0.00036768
20 *638:25 *3246:B1 3.39051e-05
21 *638:25 *3246:B2 6.81065e-05
22 *638:25 *3260:A 6.87574e-05
23 *638:25 *648:8 2.95641e-05
24 *638:25 *650:10 0.000188586
25 *638:57 *3283:D1 0
26 *638:57 *650:10 0
27 *638:57 *1052:23 0
28 *638:57 *1052:25 0
29 *3205:A *638:57 7.41547e-05
30 *3205:C *638:57 1.17968e-05
31 *3205:D *638:57 0
32 *3212:B *638:12 6.05161e-06
33 *3280:A *638:57 8.81343e-05
34 *586:25 *3226:B 0
35 *628:20 *638:57 7.83659e-05
36 *633:12 *3263:A1 0.000303747
37 *633:12 *638:57 0.000183726
38 *634:27 *3226:B 0.000502899
39 *634:27 *638:57 2.46999e-05
*RES
1 *3212:Y *638:6 13.8 
2 *638:6 *638:12 7.28571 
3 *638:12 *3224:A 9.3 
4 *638:12 *638:25 9.10714 
5 *638:25 *3245:A 13.8357 
6 *638:25 *3246:A1 9.3 
7 *638:6 *638:57 17.6786 
8 *638:57 *3226:B 27.5321 
9 *638:57 *3263:A1 12.3 
*END

*D_NET *639 0.000878215
*CONN
*I *3221:A2 I *D sky130_fd_sc_hd__o221a_1
*I *3215:A2 I *D sky130_fd_sc_hd__o21ai_2
*I *3213:Y O *D sky130_fd_sc_hd__nand2_1
*CAP
1 *3221:A2 0
2 *3215:A2 9.48804e-05
3 *3213:Y 0.000135079
4 *639:10 0.000229959
5 *3215:A2 *640:8 0
6 *639:10 *3219:B 0.000101545
7 *639:10 *640:8 0
8 *3221:A1 *3215:A2 8.91726e-05
9 *118:85 *3215:A2 8.91822e-05
10 *118:102 *3215:A2 1.02504e-05
11 *118:102 *639:10 0.000128146
*RES
1 *3213:Y *639:10 16.3893 
2 *639:10 *3215:A2 16.3536 
3 *639:10 *3221:A2 13.8 
*END

*D_NET *640 0.000490696
*CONN
*I *3221:C1 I *D sky130_fd_sc_hd__o221a_1
*I *3215:B1 I *D sky130_fd_sc_hd__o21ai_2
*I *3214:X O *D sky130_fd_sc_hd__a21o_1
*CAP
1 *3221:C1 0
2 *3215:B1 6.08536e-05
3 *3214:X 7.06197e-05
4 *640:8 0.000131473
5 *640:8 *3219:B 3.57163e-05
6 *3215:A2 *640:8 0
7 *118:85 *3215:B1 8.06427e-05
8 *118:85 *640:8 5.80706e-06
9 *119:61 *3215:B1 5.48581e-05
10 *119:61 *640:8 5.0725e-05
11 *639:10 *640:8 0
*RES
1 *3214:X *640:8 15.7464 
2 *640:8 *3215:B1 15.7464 
3 *640:8 *3221:C1 13.8 
*END

*D_NET *641 0.00222649
*CONN
*I *3251:B1 I *D sky130_fd_sc_hd__a211o_1
*I *3252:A I *D sky130_fd_sc_hd__xnor2_2
*I *3215:Y O *D sky130_fd_sc_hd__o21ai_2
*CAP
1 *3251:B1 0
2 *3252:A 0.000172986
3 *3215:Y 0.000595197
4 *641:8 0.000768184
5 *3252:A *3249:A 5.33005e-05
6 *3252:A *3251:C1 0.000170654
7 *3252:A *3252:B 9.41642e-05
8 *3252:A *645:17 9.41642e-05
9 *3252:A *1051:105 0
10 *641:8 *3251:A1 6.20656e-05
11 *641:8 *1051:99 1.21289e-05
12 *641:8 *1051:105 5.52302e-05
13 *119:18 *641:8 9.31893e-05
14 *119:20 *641:8 5.52238e-05
*RES
1 *3215:Y *641:8 19.3 
2 *641:8 *3252:A 21.9071 
3 *641:8 *3251:B1 9.3 
*END

*D_NET *642 0.00101964
*CONN
*I *3218:B I *D sky130_fd_sc_hd__xnor2_2
*I *3222:A2 I *D sky130_fd_sc_hd__o22a_1
*I *3216:Y O *D sky130_fd_sc_hd__o21ai_2
*CAP
1 *3218:B 0
2 *3222:A2 0.000111846
3 *3216:Y 0.000117047
4 *642:10 0.000228893
5 *3222:A2 *1052:29 0.000197269
6 *642:10 *1052:29 7.57869e-05
7 *3145:A *642:10 5.33433e-05
8 *571:10 *3222:A2 8.24047e-05
9 *571:10 *642:10 0.000153047
10 *638:12 *3222:A2 0
*RES
1 *3216:Y *642:10 16.6929 
2 *642:10 *3222:A2 16.8893 
3 *642:10 *3218:B 13.8 
*END

*D_NET *643 0.000457966
*CONN
*I *3222:B1 I *D sky130_fd_sc_hd__o22a_1
*I *3217:X O *D sky130_fd_sc_hd__o211a_1
*CAP
1 *3222:B1 0.000123353
2 *3217:X 0.000123353
3 *3222:B1 *3211:B1 7.77751e-05
4 *3222:B1 *648:8 0.00010096
5 *3222:B1 *982:12 0
6 *3148:A *3222:B1 3.25247e-05
7 *3222:B2 *3222:B1 0
*RES
1 *3217:X *3222:B1 30.6 
*END

*D_NET *644 0.00190955
*CONN
*I *3223:A1 I *D sky130_fd_sc_hd__a21o_1
*I *3259:A1 I *D sky130_fd_sc_hd__a22o_1
*I *3257:A I *D sky130_fd_sc_hd__xnor2_2
*I *3218:Y O *D sky130_fd_sc_hd__xnor2_2
*CAP
1 *3223:A1 0.000115769
2 *3259:A1 8.98733e-05
3 *3257:A 0.000261534
4 *3218:Y 4.26984e-05
5 *644:10 0.000466583
6 *644:8 0.000273643
7 *3223:A1 *3223:A2 0.000143804
8 *3223:A1 *3260:A 0
9 *3223:A1 *3260:B 0
10 *3223:A1 *648:8 5.52302e-05
11 *3257:A *3257:B 4.1331e-06
12 *3257:A *3259:B1 0
13 *3257:A *3259:B2 0
14 *3257:A *647:12 0
15 *3257:A *1051:105 0
16 *3259:A1 *3259:A2 0.000186669
17 *3259:A1 *3259:B2 5.52302e-05
18 *3259:A1 *3260:B 1.32552e-05
19 *644:10 *3223:A2 0.000201127
20 *644:10 *3260:B 0
21 *644:10 *647:12 0
22 *644:10 *1050:39 0
23 *3221:A1 *3257:A 0
*RES
1 *3218:Y *644:8 14.3357 
2 *644:8 *644:10 2.85714 
3 *644:10 *3257:A 18.4786 
4 *644:10 *3259:A1 15.9786 
5 *644:8 *3223:A1 16.2821 
*END

*D_NET *645 0.00388621
*CONN
*I *3249:A I *D sky130_fd_sc_hd__xor2_1
*I *3220:B I *D sky130_fd_sc_hd__nor2_1
*I *3221:B1 I *D sky130_fd_sc_hd__o221a_1
*I *3219:Y O *D sky130_fd_sc_hd__xnor2_1
*CAP
1 *3249:A 0.000214908
2 *3220:B 0.000131107
3 *3221:B1 2.34873e-05
4 *3219:Y 0.00015091
5 *645:17 0.00094776
6 *645:8 0.000776142
7 *3220:B *3250:B1 5.17643e-05
8 *3220:B *3251:C1 0.000187702
9 *3220:B *1050:39 0.000197984
10 *3220:B *1051:105 0
11 *3249:A *3249:B 2.59355e-05
12 *3249:A *678:10 2.77258e-05
13 *3249:A *683:6 0.000554834
14 *645:8 *3219:B 8.02709e-05
15 *645:17 *3219:B 1.39841e-05
16 *645:17 *3252:B 2.28499e-05
17 *645:17 *683:6 0.000138881
18 *3220:A *3220:B 1.04232e-05
19 *3252:A *3249:A 5.33005e-05
20 *3252:A *645:17 9.41642e-05
21 *118:102 *3220:B 8.1579e-05
22 *118:102 *3221:B1 2.47631e-06
23 *118:102 *645:17 9.80173e-05
*RES
1 *3219:Y *645:8 11.9071 
2 *645:8 *3221:B1 9.72857 
3 *645:8 *645:17 9.98214 
4 *645:17 *3220:B 22.7821 
5 *645:17 *3249:A 15.1929 
*END

*D_NET *646 0.00102632
*CONN
*I *3251:C1 I *D sky130_fd_sc_hd__a211o_1
*I *3250:B1 I *D sky130_fd_sc_hd__a21oi_1
*I *3220:Y O *D sky130_fd_sc_hd__nor2_1
*CAP
1 *3251:C1 0.000162894
2 *3250:B1 6.23133e-05
3 *3220:Y 0
4 *646:4 0.000225207
5 *3251:C1 *3252:B 6.75007e-05
6 *3251:C1 *1050:39 7.38556e-05
7 *3251:C1 *1051:105 0
8 *3220:B *3250:B1 5.17643e-05
9 *3220:B *3251:C1 0.000187702
10 *3252:A *3251:C1 0.000170654
11 *118:102 *3250:B1 2.44318e-05
*RES
1 *3220:Y *646:4 9.3 
2 *646:4 *3250:B1 10.9964 
3 *646:4 *3251:C1 22.9071 
*END

*D_NET *647 0.0021236
*CONN
*I *3259:A2 I *D sky130_fd_sc_hd__a22o_1
*I *3223:A2 I *D sky130_fd_sc_hd__a21o_1
*I *3221:X O *D sky130_fd_sc_hd__o221a_1
*CAP
1 *3259:A2 7.49177e-05
2 *3223:A2 0.000220806
3 *3221:X 0.000389145
4 *647:12 0.000684868
5 *3223:A2 *3145:B 0
6 *3223:A2 *3224:B 5.52302e-05
7 *3223:A2 *3260:A 0
8 *3223:A2 *648:8 5.52302e-05
9 *3259:A2 *3260:B 4.01768e-05
10 *647:12 *3145:B 5.80706e-06
11 *647:12 *1052:29 0
12 *3211:A2 *3223:A2 0
13 *3223:A1 *3223:A2 0.000143804
14 *3257:A *647:12 0
15 *3259:A1 *3259:A2 0.000186669
16 *118:102 *647:12 6.58195e-05
17 *571:10 *3223:A2 0
18 *644:10 *3223:A2 0.000201127
19 *644:10 *647:12 0
*RES
1 *3221:X *647:12 25.3714 
2 *647:12 *3223:A2 23.8179 
3 *647:12 *3259:A2 11.4786 
*END

*D_NET *648 0.00220113
*CONN
*I *3260:A I *D sky130_fd_sc_hd__xnor2_2
*I *3223:B1 I *D sky130_fd_sc_hd__a21o_1
*I *3222:X O *D sky130_fd_sc_hd__o22a_1
*CAP
1 *3260:A 0.000193081
2 *3223:B1 0
3 *3222:X 0.000474057
4 *648:8 0.000667138
5 *3260:A *3224:B 9.90367e-05
6 *3260:A *3260:B 5.80706e-06
7 *3260:A *649:8 5.7836e-06
8 *3260:A *649:25 4.64488e-06
9 *3260:A *1050:39 9.10492e-05
10 *648:8 *3211:B1 0.000128084
11 *648:8 *3224:B 0.000113142
12 *3212:B *648:8 2.24763e-05
13 *3222:A1 *648:8 5.52238e-05
14 *3222:B1 *648:8 0.00010096
15 *3223:A1 *3260:A 0
16 *3223:A1 *648:8 5.52302e-05
17 *3223:A2 *3260:A 0
18 *3223:A2 *648:8 5.52302e-05
19 *638:12 *648:8 3.18676e-05
20 *638:25 *3260:A 6.87574e-05
21 *638:25 *648:8 2.95641e-05
*RES
1 *3222:X *648:8 18.4786 
2 *648:8 *3223:B1 9.3 
3 *648:8 *3260:A 22.7286 
*END

*D_NET *649 0.00608255
*CONN
*I *3263:A2 I *D sky130_fd_sc_hd__a21oi_1
*I *3226:C I *D sky130_fd_sc_hd__and4_1
*I *3224:B I *D sky130_fd_sc_hd__and2_1
*I *3245:B I *D sky130_fd_sc_hd__or2_1
*I *3223:X O *D sky130_fd_sc_hd__a21o_1
*CAP
1 *3263:A2 0
2 *3226:C 0.000463059
3 *3224:B 7.53451e-05
4 *3245:B 0.000547483
5 *3223:X 1.6285e-05
6 *649:42 0.00105521
7 *649:25 0.000703734
8 *649:8 0.000600004
9 *3224:B *3211:B1 0
10 *3226:C *3267:A2 0.000199698
11 *3245:B *992:16 5.7836e-06
12 *3245:B *1051:83 1.90936e-05
13 *649:25 *1050:39 0
14 *649:42 *3283:D1 9.99989e-05
15 *649:42 *650:10 8.15939e-05
16 *649:42 *1050:24 0
17 *649:42 *1050:39 0
18 *649:42 *1051:36 5.7599e-05
19 *3204:B *649:42 0.000143797
20 *3223:A2 *3224:B 5.52302e-05
21 *3225:C *3226:C 0
22 *3226:B *3226:C 0.000721391
23 *3260:A *3224:B 9.90367e-05
24 *3260:A *649:8 5.7836e-06
25 *3260:A *649:25 4.64488e-06
26 *3267:A1 *3226:C 7.80714e-06
27 *3280:A *649:42 0
28 *3283:B1 *649:42 7.6644e-05
29 *3284:A *649:42 1.3142e-05
30 *623:10 *3226:C 0
31 *629:23 *649:42 0.000191403
32 *631:25 *649:42 0
33 *631:36 *3226:C 0
34 *631:36 *649:42 4.46186e-06
35 *633:12 *3226:C 0.000230482
36 *633:12 *649:42 9.90367e-05
37 *634:27 *3226:C 2.39779e-05
38 *634:27 *649:42 0
39 *638:25 *3224:B 0.00036768
40 *648:8 *3224:B 0.000113142
*RES
1 *3223:X *649:8 14.0768 
2 *649:8 *3245:B 21.8807 
3 *649:8 *649:25 0.580357 
4 *649:25 *3224:B 17.6393 
5 *649:25 *649:42 17.7143 
6 *649:42 *3226:C 30.3179 
7 *649:42 *3263:A2 9.3 
*END

*D_NET *650 0.00141544
*CONN
*I *3283:D1 I *D sky130_fd_sc_hd__a2111o_1
*I *3244:B1 I *D sky130_fd_sc_hd__a21oi_4
*I *3224:X O *D sky130_fd_sc_hd__and2_1
*CAP
1 *3283:D1 0.000220354
2 *3244:B1 0
3 *3224:X 0.000208611
4 *650:10 0.000428965
5 *3283:D1 *3283:A1 0.000136951
6 *3283:D1 *3283:A2 2.14757e-05
7 *3205:D *3283:D1 0
8 *3283:B1 *3283:D1 2.89016e-05
9 *638:12 *650:10 0
10 *638:25 *650:10 0.000188586
11 *638:57 *3283:D1 0
12 *638:57 *650:10 0
13 *649:42 *3283:D1 9.99989e-05
14 *649:42 *650:10 8.15939e-05
*RES
1 *3224:X *650:10 17.5143 
2 *650:10 *3244:B1 13.8 
3 *650:10 *3283:D1 18.1214 
*END

*D_NET *651 0.000489818
*CONN
*I *3226:A I *D sky130_fd_sc_hd__and4_1
*I *3225:X O *D sky130_fd_sc_hd__and4bb_1
*CAP
1 *3226:A 0.00022748
2 *3225:X 0.00022748
3 *3226:A *3180:B 4.0342e-06
4 *3226:A *652:10 2.47724e-05
5 *3225:C *3226:A 6.05161e-06
*RES
1 *3225:X *3226:A 22.0107 
*END

*D_NET *652 0.00265732
*CONN
*I *3230:A I *D sky130_fd_sc_hd__or3_1
*I *3233:A3 I *D sky130_fd_sc_hd__o31ai_4
*I *3228:A I *D sky130_fd_sc_hd__nor2_1
*I *3226:X O *D sky130_fd_sc_hd__and4_1
*CAP
1 *3230:A 0.00018948
2 *3233:A3 3.82418e-05
3 *3228:A 0
4 *3226:X 0.000337616
5 *652:23 0.000375164
6 *652:10 0.000485058
7 *3230:A *3230:B 0.00030669
8 *3230:A *3230:C 0.00010351
9 *3230:A *3233:A1 2.27416e-05
10 *3230:A *3233:B1 9.30603e-06
11 *3230:A *3239:A1 0
12 *3230:A *654:10 2.22043e-05
13 *3230:A *661:14 0
14 *3233:A3 *3230:C 0
15 *3233:A3 *3233:A2 0
16 *652:10 *3228:B 5.80706e-06
17 *652:10 *661:14 3.84478e-05
18 *652:23 *3228:B 4.58096e-05
19 *652:23 *3230:B 0.000227539
20 *652:23 *3233:A1 6.4443e-05
21 *652:23 *3233:A2 5.52302e-05
22 *652:23 *653:10 7.6644e-05
23 *652:23 *661:14 2.74584e-05
24 *3225:C *652:10 7.02611e-05
25 *3226:A *652:10 2.47724e-05
26 *3227:C *652:10 2.34204e-05
27 *610:8 *652:23 0
28 *617:10 *652:10 0
29 *617:10 *652:23 0
30 *617:20 *652:10 8.43535e-06
31 *623:25 *652:10 9.90431e-05
*RES
1 *3226:X *652:10 18.8536 
2 *652:10 *3228:A 13.8 
3 *652:10 *652:23 8.92857 
4 *652:23 *3233:A3 10.0321 
5 *652:23 *3230:A 23.2107 
*END

*D_NET *653 0.0023441
*CONN
*I *3228:B I *D sky130_fd_sc_hd__nor2_1
*I *3230:B I *D sky130_fd_sc_hd__or3_1
*I *3233:A2 I *D sky130_fd_sc_hd__o31ai_4
*I *3227:X O *D sky130_fd_sc_hd__and3_1
*CAP
1 *3228:B 0.000135107
2 *3230:B 0.000426206
3 *3233:A2 7.93304e-05
4 *3227:X 0
5 *653:10 0.000556688
6 *653:4 0.00018626
7 *3228:B *654:10 2.89016e-05
8 *3228:B *661:14 8.07951e-05
9 *3230:B *3230:C 1.21289e-05
10 *3230:B *659:6 5.71472e-05
11 *3233:A2 *3233:A1 4.22908e-05
12 *3185:A *3228:B 2.15245e-05
13 *3230:A *3230:B 0.00030669
14 *3233:A3 *3233:A2 0
15 *610:8 *653:10 0
16 *652:10 *3228:B 5.80706e-06
17 *652:23 *3228:B 4.58096e-05
18 *652:23 *3230:B 0.000227539
19 *652:23 *3233:A2 5.52302e-05
20 *652:23 *653:10 7.6644e-05
*RES
1 *3227:X *653:4 9.3 
2 *653:4 *653:10 10.0357 
3 *653:10 *3233:A2 11.4071 
4 *653:10 *3230:B 15.5857 
5 *653:4 *3228:B 20.6929 
*END

*D_NET *654 0.0023507
*CONN
*I *3237:A I *D sky130_fd_sc_hd__nand2_2
*I *3238:A2 I *D sky130_fd_sc_hd__a31o_1
*I *3228:Y O *D sky130_fd_sc_hd__nor2_1
*CAP
1 *3237:A 0.000189988
2 *3238:A2 0
3 *3228:Y 0.000529454
4 *654:10 0.000719442
5 *3237:A *3237:B 5.52302e-05
6 *3237:A *3240:A2 0
7 *3237:A *662:44 0.000187019
8 *3237:A *665:10 7.77751e-05
9 *654:10 *3233:B1 0
10 *654:10 *3239:A1 6.8646e-06
11 *654:10 *656:10 3.0285e-05
12 *654:10 *659:10 0.00015134
13 *654:10 *662:38 0
14 *654:10 *662:44 1.02504e-05
15 *654:10 *665:10 0
16 *654:10 *1050:18 9.90367e-05
17 *3185:A *654:10 0.000242907
18 *3228:B *654:10 2.89016e-05
19 *3230:A *654:10 2.22043e-05
*RES
1 *3228:Y *654:10 24.7643 
2 *654:10 *3238:A2 13.8 
3 *654:10 *3237:A 18.1393 
*END

*D_NET *655 0.00127605
*CONN
*I *3230:C I *D sky130_fd_sc_hd__or3_1
*I *3233:A1 I *D sky130_fd_sc_hd__o31ai_4
*I *3229:Y O *D sky130_fd_sc_hd__nand2_1
*CAP
1 *3230:C 0.000185794
2 *3233:A1 0.000157987
3 *3229:Y 0.000112322
4 *655:12 0.000456102
5 *3230:C *656:10 3.18676e-05
6 *3230:C *659:6 3.18676e-05
7 *655:12 *3675:A 0
8 *655:12 *661:14 3.57163e-05
9 *3230:A *3230:C 0.00010351
10 *3230:A *3233:A1 2.27416e-05
11 *3230:B *3230:C 1.21289e-05
12 *3233:A2 *3233:A1 4.22908e-05
13 *3233:A3 *3230:C 0
14 *608:6 *655:12 1.92789e-05
15 *652:23 *3233:A1 6.4443e-05
*RES
1 *3229:Y *655:12 20.175 
2 *655:12 *3233:A1 12.3179 
3 *655:12 *3230:C 13.2643 
*END

*D_NET *656 0.00190297
*CONN
*I *3239:A1 I *D sky130_fd_sc_hd__o21a_1
*I *3240:A1 I *D sky130_fd_sc_hd__a21o_1
*I *3230:X O *D sky130_fd_sc_hd__or3_1
*CAP
1 *3239:A1 0.000153049
2 *3240:A1 0.000101584
3 *3230:X 0.000217253
4 *656:10 0.000471886
5 *3239:A1 *3233:B1 2.24646e-05
6 *3239:A1 *3239:A2 7.83659e-05
7 *3239:A1 *3239:B1 0.000125724
8 *3239:A1 *3240:A2 5.33334e-05
9 *3239:A1 *3675:A 5.47391e-05
10 *3239:A1 *658:14 0.000154746
11 *3240:A1 *3240:B1 9.60875e-05
12 *3240:A1 *3243:A2_N 5.33005e-05
13 *3240:A1 *658:14 4.08637e-05
14 *656:10 *3233:B1 0.000100823
15 *656:10 *3243:A1_N 3.18676e-05
16 *656:10 *659:6 2.89967e-05
17 *3230:A *3239:A1 0
18 *3230:C *656:10 3.18676e-05
19 *608:17 *3240:A1 4.88637e-05
20 *654:10 *3239:A1 6.8646e-06
21 *654:10 *656:10 3.0285e-05
*RES
1 *3230:X *656:10 17.3179 
2 *656:10 *3240:A1 15.9786 
3 *656:10 *3239:A1 18.2643 
*END

*D_NET *657 0.000558778
*CONN
*I *3232:B1 I *D sky130_fd_sc_hd__a31o_1
*I *3231:X O *D sky130_fd_sc_hd__o21a_1
*CAP
1 *3232:B1 0.000111074
2 *3231:X 0.000111074
3 *3176:B *3232:B1 1.64329e-05
4 *3177:A *3232:B1 3.88512e-05
5 *3177:B *3232:B1 0
6 *3231:A1 *3232:B1 0.000100831
7 *3231:A2 *3232:B1 0
8 *3232:A1 *3232:B1 5.71472e-05
9 *3677:A *3232:B1 2.24079e-05
10 *551:23 *3232:B1 0.00010096
*RES
1 *3231:X *3232:B1 30.725 
*END

*D_NET *658 0.00445527
*CONN
*I *3233:B1 I *D sky130_fd_sc_hd__o31ai_4
*I *3240:B1 I *D sky130_fd_sc_hd__a21o_1
*I *3232:X O *D sky130_fd_sc_hd__a31o_1
*CAP
1 *3233:B1 0.000134316
2 *3240:B1 2.46213e-05
3 *3232:X 0.000881636
4 *658:14 0.00104057
5 *3233:B1 *3675:A 0.000141328
6 *3233:B1 *661:14 0
7 *658:14 *3239:B1 0.00010326
8 *658:14 *3240:A2 7.31062e-05
9 *658:14 *3243:A2_N 2.28598e-05
10 *658:14 *662:44 0.000171375
11 *3176:B *658:14 5.71472e-05
12 *3177:A *658:14 2.95641e-05
13 *3177:B *658:14 0.000185643
14 *3230:A *3233:B1 9.30603e-06
15 *3239:A1 *3233:B1 2.24646e-05
16 *3239:A1 *658:14 0.000154746
17 *3240:A1 *3240:B1 9.60875e-05
18 *3240:A1 *658:14 4.08637e-05
19 *603:10 *658:14 0.000975294
20 *608:17 *3240:B1 9.60875e-05
21 *608:17 *658:14 9.41642e-05
22 *654:10 *3233:B1 0
23 *656:10 *3233:B1 0.000100823
*RES
1 *3232:X *658:14 39.2821 
2 *658:14 *3240:B1 10.2464 
3 *658:14 *3233:B1 21.0857 
*END

*D_NET *659 0.0044778
*CONN
*I *3243:A1_N I *D sky130_fd_sc_hd__o2bb2a_1
*I *3674:A I *D sky130_fd_sc_hd__buf_6
*I *3265:A1 I *D sky130_fd_sc_hd__a21o_1
*I *3760:A I *D sky130_fd_sc_hd__dlygate4sd1_1
*I *3659:A I *D sky130_fd_sc_hd__clkbuf_1
*I *3233:Y O *D sky130_fd_sc_hd__o31ai_4
*CAP
1 *3243:A1_N 0.000115104
2 *3674:A 0
3 *3265:A1 7.89537e-05
4 *3760:A 0
5 *3659:A 0.000401926
6 *3233:Y 8.42378e-05
7 *659:29 9.29892e-05
8 *659:16 0.000863245
9 *659:10 0.000509169
10 *659:6 0.000261228
11 *3243:A1_N *669:14 2.36977e-05
12 *3265:A1 *3265:A2 0.000150392
13 *3265:A1 *3265:B1 0.00014285
14 *3659:A *3281:B 0
15 *3659:A *705:8 0
16 *3659:A *705:12 0
17 *3659:A *992:10 0
18 *3659:A *1050:18 0.000197984
19 *659:10 *662:16 4.81157e-05
20 *659:10 *662:38 3.15739e-05
21 *659:16 *3236:A 0
22 *659:16 *3277:B 0.000199083
23 *659:16 *3288:B 0.000129868
24 *659:16 *662:16 0.000103285
25 *659:16 *691:8 6.42242e-05
26 *659:16 *705:8 0
27 *659:16 *1050:18 0.00059451
28 *659:29 *3265:A2 2.89114e-05
29 *659:29 *3265:B1 5.52302e-05
30 *3230:B *659:6 5.71472e-05
31 *3230:C *659:6 3.18676e-05
32 *3281:A *3659:A 0
33 *3286:B1 *3659:A 0
34 *654:10 *659:10 0.00015134
35 *656:10 *3243:A1_N 3.18676e-05
36 *656:10 *659:6 2.89967e-05
*RES
1 *3233:Y *659:6 11.0679 
2 *659:6 *659:10 6.75 
3 *659:10 *659:16 12.9286 
4 *659:16 *3659:A 21.2107 
5 *659:16 *659:29 5.03571 
6 *659:29 *3760:A 9.3 
7 *659:29 *3265:A1 11.9071 
8 *659:10 *3674:A 13.8 
9 *659:6 *3243:A1_N 11.5366 
*END

*D_NET *660 0.000687405
*CONN
*I *3235:B I *D sky130_fd_sc_hd__xnor2_2
*I *3234:X O *D sky130_fd_sc_hd__a21bo_1
*CAP
1 *3235:B 6.64071e-05
2 *3234:X 6.64071e-05
3 *3235:B *3234:B1_N 2.44318e-05
4 *3235:B *661:10 6.87574e-05
5 *3234:A1 *3235:B 5.52302e-05
6 *556:33 *3235:B 0.000315158
7 *559:10 *3235:B 9.10134e-05
*RES
1 *3234:X *3235:B 22.0107 
*END

*D_NET *661 0.0101693
*CONN
*I *3239:A2 I *D sky130_fd_sc_hd__o21a_1
*I *3675:A I *D sky130_fd_sc_hd__clkbuf_4
*I *3266:A2 I *D sky130_fd_sc_hd__a211o_1
*I *3265:A2 I *D sky130_fd_sc_hd__a21o_1
*I *3235:Y O *D sky130_fd_sc_hd__xnor2_2
*CAP
1 *3239:A2 4.41581e-05
2 *3675:A 0.000909772
3 *3266:A2 0
4 *3265:A2 0.000829947
5 *3235:Y 0.000869564
6 *661:38 0.0011989
7 *661:14 0.00172223
8 *661:10 0.00200681
9 *3239:A2 *3240:A2 0
10 *3265:A2 *3264:B 1.92905e-05
11 *3265:A2 *3265:B1 3.98431e-05
12 *3265:A2 *3266:A1 0.000127446
13 *3265:A2 *3266:B1 3.57844e-05
14 *3265:A2 *3269:B1 3.34295e-05
15 *3265:A2 *690:23 0.000184359
16 *3675:A *3240:A2 0
17 *3675:A *3294:A 2.83284e-06
18 *3675:A *665:10 6.27272e-06
19 *661:10 *3234:B1_N 4.8035e-05
20 *661:14 *3266:A1 1.02504e-05
21 *661:14 *3271:A2 0
22 *661:14 *690:27 0
23 *3182:A *661:10 0.00020578
24 *3225:A_N *661:14 0
25 *3227:C *661:14 0
26 *3228:B *661:14 8.07951e-05
27 *3229:A *661:14 5.58941e-05
28 *3230:A *661:14 0
29 *3233:B1 *3675:A 0.000141328
30 *3233:B1 *661:14 0
31 *3234:A1 *661:10 0.000183726
32 *3235:B *661:10 6.87574e-05
33 *3239:A1 *3239:A2 7.83659e-05
34 *3239:A1 *3675:A 5.47391e-05
35 *3265:A1 *3265:A2 0.000150392
36 *3271:A1 *661:14 0
37 *3281:A *3265:A2 0
38 *559:10 *661:10 0.000278832
39 *559:25 *661:10 0.000255062
40 *603:10 *661:14 2.24646e-05
41 *603:23 *661:38 0.000313241
42 *608:6 *661:10 1.24368e-05
43 *608:6 *661:38 1.38323e-05
44 *622:14 *661:14 0
45 *623:25 *661:14 0
46 *631:25 *3265:A2 2.49484e-05
47 *631:36 *3265:A2 0
48 *631:36 *661:14 0
49 *633:12 *3265:A2 9.22103e-06
50 *652:10 *661:14 3.84478e-05
51 *652:23 *661:14 2.74584e-05
52 *655:12 *3675:A 0
53 *655:12 *661:14 3.57163e-05
54 *659:29 *3265:A2 2.89114e-05
*RES
1 *3235:Y *661:10 27.1214 
2 *661:10 *661:14 20.1071 
3 *661:14 *3265:A2 26.3357 
4 *661:14 *3266:A2 13.8 
5 *661:10 *661:38 7.91071 
6 *661:38 *3675:A 25.9106 
7 *661:38 *3239:A2 14.8357 
*END

*D_NET *662 0.0043937
*CONN
*I *3238:A3 I *D sky130_fd_sc_hd__a31o_1
*I *3237:B I *D sky130_fd_sc_hd__nand2_2
*I *3240:A2 I *D sky130_fd_sc_hd__a21o_1
*I *3271:B1 I *D sky130_fd_sc_hd__o211a_1
*I *3270:B1 I *D sky130_fd_sc_hd__o21ai_1
*I *3236:Y O *D sky130_fd_sc_hd__nand2_1
*CAP
1 *3238:A3 0
2 *3237:B 4.47763e-05
3 *3240:A2 0.000398984
4 *3271:B1 2.1506e-05
5 *3270:B1 2.49711e-05
6 *3236:Y 0.000109261
7 *662:44 0.000531187
8 *662:38 0.000357872
9 *662:16 0.000264303
10 *662:8 0.000597531
11 *3237:B *665:10 1.21258e-05
12 *3240:A2 *3239:B1 0
13 *3270:B1 *3272:B 0.00014285
14 *3271:B1 *3272:B 0
15 *662:8 *1051:30 3.69047e-06
16 *662:16 *3236:A 6.95299e-05
17 *662:16 *3272:B 0.000255972
18 *662:16 *669:14 0
19 *662:38 *3243:A2_N 0.000305891
20 *662:38 *3294:A 0
21 *662:38 *665:10 0
22 *662:44 *3239:B1 2.72545e-05
23 *3185:A *662:8 3.30309e-05
24 *3229:A *3240:A2 1.87955e-05
25 *3237:A *3237:B 5.52302e-05
26 *3237:A *3240:A2 0
27 *3237:A *662:44 0.000187019
28 *3239:A1 *3240:A2 5.33334e-05
29 *3239:A2 *3240:A2 0
30 *3241:A *662:38 0.00014285
31 *3271:A1 *3270:B1 2.89016e-05
32 *3271:A1 *3271:B1 4.1896e-06
33 *3271:A1 *662:16 5.03772e-05
34 *3272:A *3270:B1 1.21289e-05
35 *3272:A *3271:B1 5.7661e-06
36 *3272:A *662:16 5.91452e-05
37 *3675:A *3240:A2 0
38 *603:10 *3240:A2 3.0285e-05
39 *608:17 *662:38 5.00917e-05
40 *617:20 *3270:B1 5.71472e-05
41 *617:20 *3271:B1 0
42 *654:10 *662:38 0
43 *654:10 *662:44 1.02504e-05
44 *658:14 *3240:A2 7.31062e-05
45 *658:14 *662:44 0.000171375
46 *659:10 *662:16 4.81157e-05
47 *659:10 *662:38 3.15739e-05
48 *659:16 *662:16 0.000103285
*RES
1 *3236:Y *662:8 15.1571 
2 *662:8 *662:16 11.0893 
3 *662:16 *3270:B1 10.6571 
4 *662:16 *3271:B1 9.72857 
5 *662:8 *662:38 10.875 
6 *662:38 *662:44 11.8571 
7 *662:44 *3240:A2 25.3 
8 *662:44 *3237:B 10.2464 
9 *662:38 *3238:A3 9.3 
*END

*D_NET *663 0.000749613
*CONN
*I *3241:B I *D sky130_fd_sc_hd__xor2_4
*I *3237:Y O *D sky130_fd_sc_hd__nand2_2
*CAP
1 *3241:B 0.000323708
2 *3237:Y 0.000323708
3 *3241:B *665:10 0.000102197
4 *3291:A *3241:B 0
*RES
1 *3237:Y *3241:B 33.5643 
*END

*D_NET *664 0.000358496
*CONN
*I *3239:B1 I *D sky130_fd_sc_hd__o21a_1
*I *3238:X O *D sky130_fd_sc_hd__a31o_1
*CAP
1 *3239:B1 5.11287e-05
2 *3238:X 5.11287e-05
3 *3239:A1 *3239:B1 0.000125724
4 *3240:A2 *3239:B1 0
5 *658:14 *3239:B1 0.00010326
6 *662:44 *3239:B1 2.72545e-05
*RES
1 *3238:X *3239:B1 29.5464 
*END

*D_NET *665 0.0023644
*CONN
*I *3243:B2 I *D sky130_fd_sc_hd__o2bb2a_1
*I *3294:A I *D sky130_fd_sc_hd__xnor2_2
*I *3239:X O *D sky130_fd_sc_hd__o21a_1
*CAP
1 *3243:B2 0
2 *3294:A 0.000354474
3 *3239:X 0.000569077
4 *665:10 0.000923551
5 *3294:A *669:14 0.000125724
6 *3294:A *1051:16 0.000158497
7 *665:10 *3243:A2_N 0
8 *3185:A *3294:A 3.18676e-05
9 *3237:A *665:10 7.77751e-05
10 *3237:B *665:10 1.21258e-05
11 *3241:B *665:10 0.000102197
12 *3675:A *3294:A 2.83284e-06
13 *3675:A *665:10 6.27272e-06
14 *654:10 *665:10 0
15 *662:38 *3294:A 0
16 *662:38 *665:10 0
*RES
1 *3239:X *665:10 22.1036 
2 *665:10 *3294:A 21.0143 
3 *665:10 *3243:B2 13.8 
*END

*D_NET *666 0.00107734
*CONN
*I *3243:A2_N I *D sky130_fd_sc_hd__o2bb2a_1
*I *3240:X O *D sky130_fd_sc_hd__a21o_1
*CAP
1 *3243:A2_N 0.000331638
2 *3240:X 0.000331638
3 *3240:A1 *3243:A2_N 5.33005e-05
4 *3241:A *3243:A2_N 1.98839e-05
5 *608:17 *3243:A2_N 1.21289e-05
6 *658:14 *3243:A2_N 2.28598e-05
7 *662:38 *3243:A2_N 0.000305891
8 *665:10 *3243:A2_N 0
*RES
1 *3240:X *3243:A2_N 32.4571 
*END

*D_NET *667 0.00198534
*CONN
*I *3293:A1 I *D sky130_fd_sc_hd__o21a_1
*I *3331:A I *D sky130_fd_sc_hd__xnor2_2
*I *3291:B I *D sky130_fd_sc_hd__nor2_1
*I *3242:A I *D sky130_fd_sc_hd__inv_2
*I *3241:X O *D sky130_fd_sc_hd__xor2_4
*CAP
1 *3293:A1 0
2 *3331:A 0.000139861
3 *3291:B 0
4 *3242:A 0.000108016
5 *3241:X 8.456e-05
6 *667:32 0.000605409
7 *667:10 0.00014045
8 *667:8 0.000582542
9 *3331:A *716:12 0
10 *3331:A *720:16 3.13843e-05
11 *3331:A *742:10 0.000141015
12 *3331:A *742:12 9.25014e-06
13 *3331:A *990:78 1.0945e-05
14 *667:32 *3292:A1 0
15 *667:32 *3294:B 0
16 *667:32 *720:16 7.38844e-05
17 *3291:A *667:8 5.80217e-05
*RES
1 *3241:X *667:8 10.9464 
2 *667:8 *667:10 0.535714 
3 *667:10 *3242:A 11.5143 
4 *667:10 *3291:B 9.3 
5 *667:8 *667:32 12.7857 
6 *667:32 *3331:A 16.8893 
7 *667:32 *3293:A1 13.8 
*END

*D_NET *668 0.000428481
*CONN
*I *3243:B1 I *D sky130_fd_sc_hd__o2bb2a_1
*I *3242:Y O *D sky130_fd_sc_hd__inv_2
*CAP
1 *3243:B1 0.000175353
2 *3242:Y 0.000175353
3 *3243:B1 *1051:16 7.77751e-05
*RES
1 *3242:Y *3243:B1 22.0107 
*END

*D_NET *669 0.00303573
*CONN
*I *3316:A I *D sky130_fd_sc_hd__nor2_1
*I *3292:B1_N I *D sky130_fd_sc_hd__a21bo_4
*I *3243:X O *D sky130_fd_sc_hd__o2bb2a_1
*CAP
1 *3316:A 0.000547281
2 *3292:B1_N 0
3 *3243:X 0.00049956
4 *669:14 0.00104684
5 *3316:A *3316:B 0.000229456
6 *3316:A *716:12 7.77751e-05
7 *3316:A *716:21 0.000137505
8 *3316:A *718:10 0.000126629
9 *669:14 *1051:30 0.000175512
10 *3243:A1_N *669:14 2.36977e-05
11 *3294:A *669:14 0.000125724
12 *611:8 *669:14 4.57538e-05
13 *662:16 *669:14 0
*RES
1 *3243:X *669:14 26.7286 
2 *669:14 *3292:B1_N 9.3 
3 *669:14 *3316:A 19.7286 
*END

*D_NET *670 0.00200017
*CONN
*I *3284:B I *D sky130_fd_sc_hd__xnor2_4
*I *3286:A2 I *D sky130_fd_sc_hd__a22o_4
*I *3246:B1 I *D sky130_fd_sc_hd__a32o_1
*I *3244:Y O *D sky130_fd_sc_hd__a21oi_4
*CAP
1 *3284:B 7.14218e-05
2 *3286:A2 6.80865e-05
3 *3246:B1 0.000156933
4 *3244:Y 0.000163293
5 *670:10 0.00022502
6 *670:8 0.000234714
7 *3246:B1 *3246:A2 1.19309e-05
8 *3246:B1 *3246:B2 7.15441e-05
9 *3246:B1 *1050:39 0.000174805
10 *3246:B1 *1051:57 3.34295e-05
11 *3246:B1 *1051:68 0
12 *3284:B *1051:57 9.90431e-05
13 *3284:B *1051:68 5.52238e-05
14 *3286:A2 *992:10 0
15 *3286:A2 *1050:24 5.39552e-05
16 *3286:A2 *1051:57 0.000148911
17 *3284:A *3284:B 0.000271345
18 *3284:A *670:8 6.25848e-05
19 *3286:A1 *3286:A2 5.80706e-06
20 *629:23 *670:8 4.0342e-06
21 *631:10 *3286:A2 5.41794e-05
22 *638:25 *3246:B1 3.39051e-05
*RES
1 *3244:Y *670:8 12.2107 
2 *670:8 *670:10 4.5 
3 *670:10 *3246:B1 17.3268 
4 *670:10 *3286:A2 16.05 
5 *670:8 *3284:B 11.8893 
*END

*D_NET *671 0.00109875
*CONN
*I *3246:B2 I *D sky130_fd_sc_hd__a32o_1
*I *3245:X O *D sky130_fd_sc_hd__or2_1
*CAP
1 *3246:B2 0.000251817
2 *3245:X 0.000251817
3 *3246:B2 *3246:A2 0.000234668
4 *3246:B2 *672:20 2.95726e-05
5 *3245:A *3246:B2 0.000191227
6 *3246:B1 *3246:B2 7.15441e-05
7 *638:25 *3246:B2 6.81065e-05
*RES
1 *3245:X *3246:B2 25.4929 
*END

*D_NET *672 0.00422573
*CONN
*I *3262:B1 I *D sky130_fd_sc_hd__a21o_1
*I *3247:A I *D sky130_fd_sc_hd__inv_2
*I *3246:X O *D sky130_fd_sc_hd__a32o_1
*CAP
1 *3262:B1 8.62992e-06
2 *3247:A 0.000562887
3 *3246:X 0.00088411
4 *672:20 0.00145563
5 *3247:A *3324:A2 1.97695e-05
6 *3247:A *3658:A 2.78822e-05
7 *3247:A *673:6 9.41642e-05
8 *3247:A *688:10 0.000173097
9 *3247:A *688:19 4.7091e-05
10 *3247:A *710:76 0.000147154
11 *3247:A *739:8 1.90936e-05
12 *3247:A *747:12 2.06112e-05
13 *3247:A *757:14 0.000148531
14 *3262:B1 *686:31 9.0483e-06
15 *672:20 *3303:A 0.000116029
16 *672:20 *3303:C 1.60482e-05
17 *672:20 *3304:A1 1.98839e-05
18 *672:20 *3304:A2 9.60939e-05
19 *672:20 *686:31 0.000114978
20 *672:20 *688:10 2.27416e-05
21 *672:20 *706:16 5.33005e-05
22 *672:20 *728:27 5.52238e-05
23 *3245:A *672:20 8.41603e-05
24 *3246:B2 *672:20 2.95726e-05
*RES
1 *3246:X *672:20 23.8893 
2 *672:20 *3247:A 32.2614 
3 *672:20 *3262:B1 9.50982 
*END

*D_NET *673 0.000986951
*CONN
*I *3324:B1 I *D sky130_fd_sc_hd__a21oi_1
*I *3295:A I *D sky130_fd_sc_hd__and3_1
*I *3247:Y O *D sky130_fd_sc_hd__inv_2
*CAP
1 *3324:B1 0
2 *3295:A 8.35573e-05
3 *3247:Y 8.10143e-05
4 *673:6 0.000164572
5 *3295:A *739:8 0.000269521
6 *3295:A *990:78 0.000265363
7 *673:6 *710:76 2.87584e-05
8 *3247:A *673:6 9.41642e-05
*RES
1 *3247:Y *673:6 10.6571 
2 *673:6 *3295:A 21.7643 
3 *673:6 *3324:B1 9.3 
*END

*D_NET *674 0.00196655
*CONN
*I *3249:B I *D sky130_fd_sc_hd__xor2_1
*I *3255:B I *D sky130_fd_sc_hd__or3_1
*I *3254:A I *D sky130_fd_sc_hd__or2_1
*I *3248:Y O *D sky130_fd_sc_hd__a21oi_1
*CAP
1 *3249:B 2.04426e-05
2 *3255:B 0.000165489
3 *3254:A 0
4 *3248:Y 3.94779e-05
5 *674:16 0.000481645
6 *674:8 0.000376077
7 *3249:B *678:10 5.33005e-05
8 *3255:B *3501:B 0
9 *3255:B *680:8 8.00806e-05
10 *3255:B *731:19 9.56968e-05
11 *674:8 *1051:93 0.000125731
12 *674:16 *3253:C 1.95435e-05
13 *674:16 *3254:B 5.62995e-05
14 *674:16 *1051:93 0.000146474
15 *674:16 *1051:99 1.32552e-05
16 *3249:A *3249:B 2.59355e-05
17 *3253:A *674:8 0.000117196
18 *3253:A *674:16 0.000149904
*RES
1 *3248:Y *674:8 15.4429 
2 *674:8 *674:16 9.875 
3 *674:16 *3254:A 9.3 
4 *674:16 *3255:B 21.9071 
5 *674:8 *3249:B 14.3357 
*END

*D_NET *675 0.00217787
*CONN
*I *3258:A1 I *D sky130_fd_sc_hd__a31o_1
*I *3256:A I *D sky130_fd_sc_hd__and2_1
*I *3335:B1 I *D sky130_fd_sc_hd__a21oi_1
*I *3249:X O *D sky130_fd_sc_hd__xor2_1
*CAP
1 *3258:A1 0
2 *3256:A 0
3 *3335:B1 9.60659e-05
4 *3249:X 0.000224577
5 *675:14 0.000175784
6 *675:10 0.000304295
7 *3335:B1 *3335:A1 0.000140933
8 *3335:B1 *681:6 1.55885e-05
9 *3335:B1 *681:8 1.04232e-05
10 *3335:B1 *682:8 5.52238e-05
11 *675:10 *3328:B 0
12 *675:10 *3328:C 3.32631e-05
13 *675:10 *3334:A 1.02504e-05
14 *675:10 *678:10 0.000441731
15 *675:10 *678:14 0.00013966
16 *675:10 *683:6 0.000127256
17 *675:10 *683:14 6.07232e-05
18 *675:10 *811:8 2.6949e-05
19 *675:14 *3334:A 0.000227021
20 *675:14 *3386:C 1.19309e-05
21 *675:14 *683:14 4.46186e-06
22 *675:14 *811:8 7.17333e-05
23 *3255:A *3335:B1 0
*RES
1 *3249:X *675:10 20.5857 
2 *675:10 *675:14 7.35714 
3 *675:14 *3335:B1 11.4964 
4 *675:14 *3256:A 9.3 
5 *675:10 *3258:A1 13.8 
*END

*D_NET *676 0.000476101
*CONN
*I *3252:B I *D sky130_fd_sc_hd__xnor2_2
*I *3250:Y O *D sky130_fd_sc_hd__a21oi_1
*CAP
1 *3252:B 0.000121801
2 *3250:Y 0.000121801
3 *3252:B *1051:105 4.79842e-05
4 *3251:C1 *3252:B 6.75007e-05
5 *3252:A *3252:B 9.41642e-05
6 *645:17 *3252:B 2.28499e-05
*RES
1 *3250:Y *3252:B 30.6 
*END

*D_NET *677 0.000265682
*CONN
*I *3257:B I *D sky130_fd_sc_hd__xnor2_2
*I *3251:X O *D sky130_fd_sc_hd__a211o_1
*CAP
1 *3257:B 6.70515e-05
2 *3251:X 6.70515e-05
3 *3257:B *1051:105 0.000127446
4 *3257:A *3257:B 4.1331e-06
*RES
1 *3251:X *3257:B 29.2429 
*END

*D_NET *678 0.00322702
*CONN
*I *3328:A I *D sky130_fd_sc_hd__and3_1
*I *3258:A2 I *D sky130_fd_sc_hd__a31o_1
*I *3334:A I *D sky130_fd_sc_hd__xor2_2
*I *3252:Y O *D sky130_fd_sc_hd__xnor2_2
*CAP
1 *3328:A 2.00083e-05
2 *3258:A2 0
3 *3334:A 0.000370313
4 *3252:Y 0.00047724
5 *678:14 0.000461681
6 *678:10 0.000588616
7 *3328:A *3328:C 5.52302e-05
8 *3334:A *3258:A3 0.000153054
9 *3334:A *3328:B 0
10 *3334:A *3386:C 0
11 *3334:A *3408:A1 0
12 *3334:A *680:8 0
13 *3334:A *731:19 0
14 *3334:A *761:12 0.000128919
15 *3334:A *830:20 1.92789e-05
16 *678:10 *3328:C 5.74499e-06
17 *678:10 *683:6 4.72487e-05
18 *678:14 *3328:B 0
19 *3249:A *678:10 2.77258e-05
20 *3249:B *678:10 5.33005e-05
21 *675:10 *3334:A 1.02504e-05
22 *675:10 *678:10 0.000441731
23 *675:10 *678:14 0.00013966
24 *675:14 *3334:A 0.000227021
*RES
1 *3252:Y *678:10 18.2821 
2 *678:10 *678:14 6.44643 
3 *678:14 *3334:A 21.8714 
4 *678:14 *3258:A2 13.8 
5 *678:10 *3328:A 9.83571 
*END

*D_NET *679 0.00111977
*CONN
*I *3254:B I *D sky130_fd_sc_hd__or2_1
*I *3255:C I *D sky130_fd_sc_hd__or3_1
*I *3253:X O *D sky130_fd_sc_hd__and3_1
*CAP
1 *3254:B 7.94963e-05
2 *3255:C 0.000169717
3 *3253:X 0
4 *679:4 0.000249213
5 *3254:B *1051:99 3.37729e-05
6 *3255:C *3501:B 5.26184e-05
7 *3255:C *811:23 0.000312222
8 *3255:C *821:12 0
9 *3255:A *3255:C 0.000166426
10 *674:16 *3254:B 5.62995e-05
*RES
1 *3253:X *679:4 9.3 
2 *679:4 *3255:C 23.2464 
3 *679:4 *3254:B 11.2821 
*END

*D_NET *680 0.00295663
*CONN
*I *3337:B I *D sky130_fd_sc_hd__and3_1
*I *3338:B1 I *D sky130_fd_sc_hd__a21oi_1
*I *3254:X O *D sky130_fd_sc_hd__or2_1
*CAP
1 *3337:B 0.000519053
2 *3338:B1 0.000157565
3 *3254:X 0.000404852
4 *680:8 0.00108147
5 *3337:B *3333:B 7.32272e-05
6 *3337:B *761:12 3.28967e-05
7 *3337:B *1049:36 3.52028e-05
8 *3338:B1 *3336:B 0
9 *3338:B1 *759:10 0
10 *3338:B1 *764:8 2.89016e-05
11 *3338:B1 *826:32 7.15099e-05
12 *680:8 *3334:B 0
13 *680:8 *3408:A1 6.28601e-05
14 *680:8 *3501:B 0.000112006
15 *680:8 *731:19 7.44918e-05
16 *680:8 *759:10 0
17 *680:8 *826:32 0.00022251
18 *3255:B *680:8 8.00806e-05
19 *3334:A *680:8 0
*RES
1 *3254:X *680:8 23.6393 
2 *680:8 *3338:B1 16.2821 
3 *680:8 *3337:B 29.3 
*END

*D_NET *681 0.000992058
*CONN
*I *3258:A3 I *D sky130_fd_sc_hd__a31o_1
*I *3335:A1 I *D sky130_fd_sc_hd__a21oi_1
*I *3256:B I *D sky130_fd_sc_hd__and2_1
*I *3255:X O *D sky130_fd_sc_hd__or3_1
*CAP
1 *3258:A3 7.74708e-05
2 *3335:A1 9.68172e-05
3 *3256:B 0
4 *3255:X 8.72442e-05
5 *681:8 0.000132659
6 *681:6 0.000200557
7 *3258:A3 *3328:B 5.29648e-05
8 *3258:A3 *761:12 4.46186e-06
9 *3335:A1 *682:8 1.98839e-05
10 *3334:A *3258:A3 0.000153054
11 *3335:B1 *3335:A1 0.000140933
12 *3335:B1 *681:6 1.55885e-05
13 *3335:B1 *681:8 1.04232e-05
*RES
1 *3255:X *681:6 10.6571 
2 *681:6 *681:8 0.732143 
3 *681:8 *3256:B 9.3 
4 *681:8 *3335:A1 11.4786 
5 *681:6 *3258:A3 20.7821 
*END

*D_NET *682 0.00227782
*CONN
*I *3328:B I *D sky130_fd_sc_hd__and3_1
*I *3333:A I *D sky130_fd_sc_hd__and2_1
*I *3256:X O *D sky130_fd_sc_hd__and2_1
*CAP
1 *3328:B 0.000335472
2 *3333:A 0.00026359
3 *3256:X 7.53404e-05
4 *682:8 0.000674402
5 *3328:B *3328:C 2.4862e-06
6 *3328:B *3329:B1 5.79855e-05
7 *3328:B *3329:B2 6.32633e-05
8 *3328:B *3338:A2 0
9 *3328:B *761:12 9.40095e-05
10 *3328:B *811:8 0
11 *3328:B *990:14 0
12 *3333:A *3338:A2 0
13 *3333:A *761:12 0.000503621
14 *3333:A *1049:34 7.95746e-05
15 *3258:A3 *3328:B 5.29648e-05
16 *3334:A *3328:B 0
17 *3335:A1 *682:8 1.98839e-05
18 *3335:B1 *682:8 5.52238e-05
19 *675:10 *3328:B 0
20 *678:14 *3328:B 0
*RES
1 *3256:X *682:8 14.7464 
2 *682:8 *3333:A 20.3 
3 *682:8 *3328:B 20.8357 
*END

*D_NET *683 0.00453744
*CONN
*I *3328:C I *D sky130_fd_sc_hd__and3_1
*I *3329:A1 I *D sky130_fd_sc_hd__o22ai_4
*I *3258:B1 I *D sky130_fd_sc_hd__a31o_1
*I *3257:Y O *D sky130_fd_sc_hd__xnor2_2
*CAP
1 *3328:C 0.000210682
2 *3329:A1 0.000389789
3 *3258:B1 0
4 *3257:Y 0.000861111
5 *683:14 0.000466457
6 *683:6 0.00114846
7 *3329:A1 *3329:A2 7.91024e-05
8 *3329:A1 *684:10 0.000223564
9 *683:14 *811:8 0.000128146
10 *3249:A *683:6 0.000554834
11 *3328:A *3328:C 5.52302e-05
12 *3328:B *3328:C 2.4862e-06
13 *645:17 *683:6 0.000138881
14 *675:10 *3328:C 3.32631e-05
15 *675:10 *683:6 0.000127256
16 *675:10 *683:14 6.07232e-05
17 *675:14 *683:14 4.46186e-06
18 *678:10 *3328:C 5.74499e-06
19 *678:10 *683:6 4.72487e-05
*RES
1 *3257:Y *683:6 20.925 
2 *683:6 *683:14 11.1786 
3 *683:14 *3258:B1 9.3 
4 *683:14 *3329:A1 16.0321 
5 *683:6 *3328:C 11.9607 
*END

*D_NET *684 0.00331961
*CONN
*I *3261:A I *D sky130_fd_sc_hd__nand2_1
*I *3262:A1 I *D sky130_fd_sc_hd__a21o_1
*I *3326:A I *D sky130_fd_sc_hd__nand2_2
*I *3258:X O *D sky130_fd_sc_hd__a31o_1
*CAP
1 *3261:A 0.000135759
2 *3262:A1 0
3 *3326:A 0
4 *3258:X 0.000259238
5 *684:23 0.00039363
6 *684:10 0.000517109
7 *3261:A *3261:B 4.38128e-05
8 *3261:A *686:31 6.56534e-05
9 *3261:A *687:6 1.40415e-05
10 *684:10 *3329:B1 0.00030418
11 *684:10 *990:12 0.000344917
12 *684:23 *3327:A 0.000176234
13 *684:23 *3327:B 7.80929e-05
14 *684:23 *3329:B1 1.31516e-05
15 *684:23 *686:31 0.000289976
16 *684:23 *757:14 2.05938e-05
17 *684:23 *990:10 0.000429405
18 *684:23 *990:12 1.02504e-05
19 *3329:A1 *684:10 0.000223564
*RES
1 *3258:X *684:10 20.3536 
2 *684:10 *3326:A 13.8 
3 *684:10 *684:23 12.3571 
4 *684:23 *3262:A1 9.3 
5 *684:23 *3261:A 11.925 
*END

*D_NET *685 0.000561168
*CONN
*I *3260:B I *D sky130_fd_sc_hd__xnor2_2
*I *3259:X O *D sky130_fd_sc_hd__a22o_1
*CAP
1 *3260:B 0.00024906
2 *3259:X 0.00024906
3 *3260:B *3259:B2 3.80953e-06
4 *3260:B *1050:39 0
5 *3223:A1 *3260:B 0
6 *3259:A1 *3260:B 1.32552e-05
7 *3259:A2 *3260:B 4.01768e-05
8 *3260:A *3260:B 5.80706e-06
9 *644:10 *3260:B 0
*RES
1 *3259:X *3260:B 31.3143 
*END

*D_NET *686 0.00362284
*CONN
*I *3261:B I *D sky130_fd_sc_hd__nand2_1
*I *3262:A2 I *D sky130_fd_sc_hd__a21o_1
*I *3327:A I *D sky130_fd_sc_hd__xnor2_2
*I *3260:Y O *D sky130_fd_sc_hd__xnor2_2
*CAP
1 *3261:B 1.74066e-05
2 *3262:A2 0
3 *3327:A 0.000100518
4 *3260:Y 0.000646969
5 *686:31 0.000185855
6 *686:10 0.000915935
7 *3327:A *3305:B 0
8 *3327:A *3327:B 1.02504e-05
9 *3327:A *727:12 7.57773e-05
10 *686:10 *3306:D1 4.14279e-05
11 *686:10 *3395:A 5.62995e-05
12 *686:10 *727:12 9.90367e-05
13 *686:10 *732:6 0.000618899
14 *686:31 *3303:C 0
15 *686:31 *3305:B 0
16 *686:31 *3658:A 0.000154762
17 *686:31 *757:14 0
18 *3261:A *3261:B 4.38128e-05
19 *3261:A *686:31 6.56534e-05
20 *3262:B1 *686:31 9.0483e-06
21 *672:20 *686:31 0.000114978
22 *684:23 *3327:A 0.000176234
23 *684:23 *686:31 0.000289976
*RES
1 *3260:Y *686:10 25.8536 
2 *686:10 *3327:A 16.5857 
3 *686:10 *686:31 9.78571 
4 *686:31 *3262:A2 9.3 
5 *686:31 *3261:B 9.83571 
*END

*D_NET *687 0.00100523
*CONN
*I *3295:B I *D sky130_fd_sc_hd__and3_1
*I *3324:A1 I *D sky130_fd_sc_hd__a21oi_1
*I *3261:Y O *D sky130_fd_sc_hd__nand2_1
*CAP
1 *3295:B 0.000171734
2 *3324:A1 5.2159e-05
3 *3261:Y 0.000123507
4 *687:6 0.0003474
5 *3324:A1 *739:8 0.000148196
6 *3324:A1 *747:12 0.000148196
7 *3261:A *687:6 1.40415e-05
*RES
1 *3261:Y *687:6 10.6571 
2 *687:6 *3324:A1 20.2464 
3 *687:6 *3295:B 11.0679 
*END

*D_NET *688 0.00261402
*CONN
*I *3290:A1 I *D sky130_fd_sc_hd__a41o_1
*I *3302:A1 I *D sky130_fd_sc_hd__a22oi_2
*I *3298:A I *D sky130_fd_sc_hd__or2_1
*I *3262:X O *D sky130_fd_sc_hd__a21o_1
*CAP
1 *3290:A1 0.000317191
2 *3302:A1 2.63024e-05
3 *3298:A 0
4 *3262:X 0.000113264
5 *688:19 0.000492929
6 *688:10 0.0002627
7 *3290:A1 *3290:A2 9.5794e-05
8 *3290:A1 *3290:B1 5.52302e-05
9 *3290:A1 *3307:B 7.2754e-05
10 *3290:A1 *3658:A 0.000236926
11 *3290:A1 *716:12 1.02504e-05
12 *3290:A1 *757:12 2.23093e-06
13 *3290:A1 *757:14 0.000138051
14 *3302:A1 *3285:B 5.03772e-05
15 *688:10 *3658:A 9.24395e-05
16 *688:19 *3307:B 4.02462e-05
17 *688:19 *3658:A 0.00018216
18 *688:19 *757:14 8.51257e-05
19 *3247:A *688:10 0.000173097
20 *3247:A *688:19 4.7091e-05
21 *3285:A *3302:A1 9.71197e-05
22 *672:20 *688:10 2.27416e-05
*RES
1 *3262:X *688:10 16.5857 
2 *688:10 *3298:A 13.8 
3 *688:10 *688:19 4.67857 
4 *688:19 *3302:A1 14.7464 
5 *688:19 *3290:A1 22.1571 
*END

*D_NET *689 0.00106142
*CONN
*I *3264:B I *D sky130_fd_sc_hd__nor2_1
*I *3269:B1 I *D sky130_fd_sc_hd__a21oi_1
*I *3263:Y O *D sky130_fd_sc_hd__a21oi_1
*CAP
1 *3264:B 6.67831e-05
2 *3269:B1 0.00011672
3 *3263:Y 0.000116391
4 *689:6 0.000299894
5 *3269:B1 *3281:B 0
6 *3263:B1 *689:6 3.18676e-05
7 *3265:A2 *3264:B 1.92905e-05
8 *3265:A2 *3269:B1 3.34295e-05
9 *3281:A *3269:B1 0
10 *631:25 *3269:B1 0.000196269
11 *631:25 *689:6 7.03295e-05
12 *633:12 *3264:B 0.000102013
13 *633:12 *689:6 8.43535e-06
*RES
1 *3263:Y *689:6 11.4786 
2 *689:6 *3269:B1 20.8536 
3 *689:6 *3264:B 10.9786 
*END

*D_NET *690 0.00367045
*CONN
*I *3265:B1 I *D sky130_fd_sc_hd__a21o_1
*I *3271:A2 I *D sky130_fd_sc_hd__o211a_1
*I *3270:A2 I *D sky130_fd_sc_hd__o21ai_1
*I *3266:B1 I *D sky130_fd_sc_hd__a211o_1
*I *3264:Y O *D sky130_fd_sc_hd__nor2_1
*CAP
1 *3265:B1 0.000143972
2 *3271:A2 0.000115323
3 *3270:A2 0.000147749
4 *3266:B1 0.00013295
5 *3264:Y 0
6 *690:27 0.000581934
7 *690:23 0.000565277
8 *690:4 0.000235394
9 *3266:B1 *3266:A1 0.000125731
10 *3266:B1 *3278:A 5.52302e-05
11 *3270:A2 *3272:B 0.000186662
12 *3271:A2 *1050:18 3.92854e-05
13 *690:23 *3266:A1 4.21613e-05
14 *690:27 *1050:18 0.000368457
15 *3265:A1 *3265:B1 0.00014285
16 *3265:A2 *3265:B1 3.98431e-05
17 *3265:A2 *3266:B1 3.57844e-05
18 *3265:A2 *690:23 0.000184359
19 *3281:A *690:23 0.000173328
20 *3281:A *690:27 2.8266e-06
21 *617:20 *3270:A2 1.95646e-05
22 *622:14 *690:27 0.000221307
23 *633:12 *690:23 5.52302e-05
24 *659:29 *3265:B1 5.52302e-05
25 *661:14 *3271:A2 0
26 *661:14 *690:27 0
*RES
1 *3264:Y *690:4 9.3 
2 *690:4 *3266:B1 21.3893 
3 *690:4 *690:23 3.96429 
4 *690:23 *690:27 13.4286 
5 *690:27 *3270:A2 15.9786 
6 *690:27 *3271:A2 15.3714 
7 *690:23 *3265:B1 12.3 
*END

*D_NET *691 0.00123106
*CONN
*I *3277:B I *D sky130_fd_sc_hd__nand2_1
*I *3279:B I *D sky130_fd_sc_hd__xnor2_2
*I *3265:X O *D sky130_fd_sc_hd__a21o_1
*CAP
1 *3277:B 0.000215529
2 *3279:B 4.31276e-05
3 *3265:X 6.54774e-05
4 *691:8 0.000324134
5 *3277:B *3236:A 0
6 *3277:B *694:10 0.00018077
7 *3279:B *3278:A 9.71197e-05
8 *691:8 *3236:A 0
9 *691:8 *705:8 4.15914e-05
10 *659:16 *3277:B 0.000199083
11 *659:16 *691:8 6.42242e-05
*RES
1 *3265:X *691:8 15.4429 
2 *691:8 *3279:B 14.7464 
3 *691:8 *3277:B 18.425 
*END

*D_NET *692 0.0026537
*CONN
*I *3278:A I *D sky130_fd_sc_hd__and2_1
*I *3275:B I *D sky130_fd_sc_hd__xnor2_1
*I *3267:A2 I *D sky130_fd_sc_hd__o21bai_1
*I *3266:X O *D sky130_fd_sc_hd__a211o_1
*CAP
1 *3278:A 0.000620358
2 *3275:B 0
3 *3267:A2 9.01551e-05
4 *3266:X 2.37855e-05
5 *692:8 0.000340722
6 *692:6 0.00089471
7 *3226:C *3267:A2 0.000199698
8 *3266:B1 *3278:A 5.52302e-05
9 *3266:C1 *3278:A 0.000129595
10 *3267:A1 *3267:A2 0.000103285
11 *3279:B *3278:A 9.71197e-05
12 *619:6 *3267:A2 5.71472e-05
13 *619:6 *692:8 4.18895e-05
*RES
1 *3266:X *692:6 9.72857 
2 *692:6 *692:8 4.23214 
3 *692:8 *3267:A2 21.3893 
4 *692:8 *3275:B 9.3 
5 *692:6 *3278:A 19.2107 
*END

*D_NET *693 0.000587982
*CONN
*I *3268:B I *D sky130_fd_sc_hd__xor2_2
*I *3267:Y O *D sky130_fd_sc_hd__o21bai_1
*CAP
1 *3268:B 0.000156242
2 *3267:Y 0.000156242
3 *3268:A *3268:B 0.000258064
4 *622:8 *3268:B 1.74352e-05
*RES
1 *3267:Y *3268:B 12.5589 
*END

*D_NET *694 0.00775384
*CONN
*I *3289:A2 I *D sky130_fd_sc_hd__a41o_1
*I *3273:A I *D sky130_fd_sc_hd__and2_1
*I *3308:A I *D sky130_fd_sc_hd__and3_1
*I *3309:B1 I *D sky130_fd_sc_hd__a21oi_1
*I *3319:A1 I *D sky130_fd_sc_hd__a31o_1
*I *3274:B I *D sky130_fd_sc_hd__and3_1
*I *3268:X O *D sky130_fd_sc_hd__xor2_2
*CAP
1 *3289:A2 0
2 *3273:A 0.000430919
3 *3308:A 1.1624e-05
4 *3309:B1 0.000162257
5 *3319:A1 0
6 *3274:B 0
7 *3268:X 0.000569631
8 *694:44 0.000341983
9 *694:42 0.00066231
10 *694:31 0.000459869
11 *694:16 0.00061889
12 *694:10 0.000791941
13 *3273:A *3318:A2 0.000114845
14 *3273:A *699:8 7.17235e-05
15 *3273:A *733:34 7.44945e-07
16 *3273:A *748:12 0.000184745
17 *3308:A *3307:B 5.52238e-05
18 *3308:A *3308:C 5.52238e-05
19 *3309:B1 *3309:A2 0.000179062
20 *3309:B1 *3312:A_N 6.92434e-05
21 *3309:B1 *3312:B 2.91794e-05
22 *3309:B1 *733:12 1.76135e-05
23 *3309:B1 *735:12 0.000150618
24 *694:10 *3278:B 0.000247544
25 *694:10 *714:8 0.000167691
26 *694:10 *714:18 8.25098e-05
27 *694:16 *3289:A1 6.16936e-05
28 *694:16 *698:20 0.000183155
29 *694:16 *698:26 1.24368e-05
30 *694:16 *701:20 0
31 *694:16 *714:18 8.00806e-05
32 *694:31 *3290:A3 5.41794e-05
33 *694:31 *3318:A2 5.52302e-05
34 *694:31 *3318:B1 5.49544e-05
35 *694:31 *3319:A3 4.72818e-05
36 *694:31 *3322:A1 1.02821e-05
37 *694:31 *698:26 0.000871255
38 *694:31 *714:18 0.000103702
39 *694:31 *757:14 5.59013e-05
40 *694:42 *3273:B 5.52238e-05
41 *694:42 *3319:A3 1.66264e-05
42 *694:42 *698:26 2.58472e-05
43 *694:44 *3312:A_N 3.69697e-05
44 *694:44 *733:12 3.34687e-05
45 *694:44 *733:34 8.19102e-05
46 *694:44 *748:12 0
47 *3274:A *694:10 2.39876e-05
48 *3277:B *694:10 0.00018077
49 *611:14 *694:10 8.24334e-05
50 *622:8 *694:10 0.000151061
*RES
1 *3268:X *694:10 26.9429 
2 *694:10 *694:16 8.82143 
3 *694:16 *3274:B 9.3 
4 *694:16 *694:31 18.1964 
5 *694:31 *3319:A1 9.3 
6 *694:31 *694:42 5.875 
7 *694:42 *694:44 3.16071 
8 *694:44 *3309:B1 18.4786 
9 *694:44 *3308:A 14.3357 
10 *694:42 *3273:A 20.4071 
11 *694:10 *3289:A2 13.8 
*END

*D_NET *695 0.00112032
*CONN
*I *3280:B I *D sky130_fd_sc_hd__xnor2_1
*I *3281:B I *D sky130_fd_sc_hd__xnor2_1
*I *3269:Y O *D sky130_fd_sc_hd__a21oi_1
*CAP
1 *3280:B 0
2 *3281:B 0.000137043
3 *3269:Y 7.10946e-05
4 *695:8 0.000208137
5 *695:8 *1051:30 0.000192306
6 *3269:B1 *3281:B 0
7 *3280:A *695:8 0.000316184
8 *3281:A *3281:B 0.000195555
9 *3659:A *3281:B 0
10 *631:10 *3281:B 0
11 *631:25 *3281:B 0
*RES
1 *3269:Y *695:8 12.7286 
2 *695:8 *3281:B 21.1571 
3 *695:8 *3280:B 9.3 
*END

*D_NET *696 0.00102259
*CONN
*I *3272:B I *D sky130_fd_sc_hd__xnor2_1
*I *3270:Y O *D sky130_fd_sc_hd__o21ai_1
*CAP
1 *3272:B 0.000199709
2 *3270:Y 0.000199709
3 *3270:A2 *3272:B 0.000186662
4 *3270:B1 *3272:B 0.00014285
5 *3271:B1 *3272:B 0
6 *3272:A *3272:B 1.32552e-05
7 *617:20 *3272:B 2.44318e-05
8 *662:16 *3272:B 0.000255972
*RES
1 *3270:Y *3272:B 23.6714 
*END

*D_NET *697 0.000834583
*CONN
*I *3288:B I *D sky130_fd_sc_hd__xnor2_1
*I *3271:X O *D sky130_fd_sc_hd__o211a_1
*CAP
1 *3288:B 0.000352357
2 *3271:X 0.000352357
3 *3288:B *3236:A 0
4 *659:16 *3288:B 0.000129868
*RES
1 *3271:X *3288:B 33.475 
*END

*D_NET *698 0.0051418
*CONN
*I *3289:A3 I *D sky130_fd_sc_hd__a41o_1
*I *3274:C I *D sky130_fd_sc_hd__and3_1
*I *3273:B I *D sky130_fd_sc_hd__and2_1
*I *3319:B1 I *D sky130_fd_sc_hd__a31o_1
*I *3272:Y O *D sky130_fd_sc_hd__xnor2_1
*CAP
1 *3289:A3 0
2 *3274:C 2.5018e-05
3 *3273:B 0.000409565
4 *3319:B1 0
5 *3272:Y 0.00034985
6 *698:26 0.000865535
7 *698:20 0.000596869
8 *698:12 0.000465732
9 *3273:B *748:12 0
10 *3274:C *714:18 2.99667e-05
11 *698:12 *3278:B 0.000149633
12 *698:12 *701:20 4.38265e-05
13 *698:12 *704:10 0.000137983
14 *698:12 *1051:30 0.00024744
15 *698:20 *701:20 1.00375e-05
16 *698:20 *714:18 3.8274e-05
17 *698:26 *714:18 9.3015e-05
18 *3274:A *698:12 3.43988e-06
19 *3274:A *698:20 0.000239528
20 *611:8 *698:12 8.89385e-05
21 *611:14 *698:12 0.000199225
22 *694:16 *698:20 0.000183155
23 *694:16 *698:26 1.24368e-05
24 *694:31 *698:26 0.000871255
25 *694:42 *3273:B 5.52238e-05
26 *694:42 *698:26 2.58472e-05
*RES
1 *3272:Y *698:12 27.7821 
2 *698:12 *698:20 12.8214 
3 *698:20 *698:26 9.91071 
4 *698:26 *3319:B1 9.3 
5 *698:26 *3273:B 25.0857 
6 *698:20 *3274:C 9.925 
7 *698:12 *3289:A3 9.3 
*END

*D_NET *699 0.000792059
*CONN
*I *3317:A1 I *D sky130_fd_sc_hd__a21bo_1
*I *3320:A I *D sky130_fd_sc_hd__nand3_1
*I *3273:X O *D sky130_fd_sc_hd__and2_1
*CAP
1 *3317:A1 0
2 *3320:A 0.000179077
3 *3273:X 0.000103961
4 *699:8 0.000283038
5 *3320:A *3317:B1_N 5.52238e-05
6 *3320:A *3320:C 0
7 *699:8 *748:12 9.90367e-05
8 *3273:A *699:8 7.17235e-05
*RES
1 *3273:X *699:8 11.9071 
2 *699:8 *3320:A 21.3893 
3 *699:8 *3317:A1 9.3 
*END

*D_NET *700 0.00057342
*CONN
*I *3290:A2 I *D sky130_fd_sc_hd__a41o_1
*I *3274:X O *D sky130_fd_sc_hd__and3_1
*CAP
1 *3290:A2 0.000175232
2 *3274:X 0.000175232
3 *3290:A2 *3290:B1 4.87953e-05
4 *3290:A2 *3658:A 7.83659e-05
5 *3290:A1 *3290:A2 9.5794e-05
*RES
1 *3274:X *3290:A2 30.4036 
*END

*D_NET *701 0.00361115
*CONN
*I *3276:A I *D sky130_fd_sc_hd__inv_2
*I *3287:B1 I *D sky130_fd_sc_hd__a2111o_1
*I *3275:Y O *D sky130_fd_sc_hd__xnor2_1
*CAP
1 *3276:A 2.3671e-05
2 *3287:B1 0.000130135
3 *3275:Y 0.00131968
4 *701:20 0.00147349
5 *3276:A *706:8 5.52302e-05
6 *3287:B1 *3236:A 2.31704e-05
7 *3287:B1 *3302:B1 0.000140933
8 *3287:B1 *3302:B2 9.25014e-06
9 *3287:B1 *706:16 7.15687e-05
10 *701:20 *3236:A 0
11 *701:20 *3289:A1 0
12 *701:20 *1051:30 9.23271e-05
13 *3267:A1 *701:20 0
14 *3274:A *701:20 6.72944e-05
15 *3285:A *3287:B1 0.000140933
16 *631:36 *701:20 9.60337e-06
17 *694:16 *701:20 0
18 *698:12 *701:20 4.38265e-05
19 *698:20 *701:20 1.00375e-05
*RES
1 *3275:Y *701:20 28.1367 
2 *701:20 *3287:B1 17.4071 
3 *701:20 *3276:A 14.3357 
*END

*D_NET *702 0.00119988
*CONN
*I *3311:B1 I *D sky130_fd_sc_hd__a41o_1
*I *3282:A I *D sky130_fd_sc_hd__and3_1
*I *3276:Y O *D sky130_fd_sc_hd__inv_2
*CAP
1 *3311:B1 0
2 *3282:A 7.00678e-05
3 *3276:Y 0.000216762
4 *702:14 0.00028683
5 *3282:A *3282:C 0.000139913
6 *3282:A *3311:A3 2.58821e-05
7 *3282:A *706:34 3.99614e-06
8 *3282:A *737:14 5.52302e-05
9 *702:14 *3282:C 3.30237e-05
10 *702:14 *3289:A1 5.58941e-05
11 *702:14 *3311:A1 5.41794e-05
12 *702:14 *3311:A3 0.000234065
13 *702:14 *706:8 2.51343e-06
14 *702:14 *706:34 2.15245e-05
*RES
1 *3276:Y *702:14 22.1571 
2 *702:14 *3282:A 11.3893 
3 *702:14 *3311:B1 9.3 
*END

*D_NET *703 0.00137566
*CONN
*I *3278:B I *D sky130_fd_sc_hd__and2_1
*I *3277:Y O *D sky130_fd_sc_hd__nand2_1
*CAP
1 *3278:B 0.000414424
2 *3277:Y 0.000414424
3 *3278:B *1051:30 0.000149633
4 *694:10 *3278:B 0.000247544
5 *698:12 *3278:B 0.000149633
*RES
1 *3277:Y *3278:B 34.1893 
*END

*D_NET *704 0.00219269
*CONN
*I *3282:B I *D sky130_fd_sc_hd__and3_1
*I *3311:A1 I *D sky130_fd_sc_hd__a41o_1
*I *3278:X O *D sky130_fd_sc_hd__and2_1
*CAP
1 *3282:B 0.00019063
2 *3311:A1 2.87857e-05
3 *3278:X 0.000365205
4 *704:10 0.00058462
5 *3282:B *3311:A3 0.000266479
6 *3311:A1 *3289:A1 1.41029e-05
7 *3311:A1 *3658:A 7.83587e-05
8 *704:10 *3289:A1 0.000139851
9 *704:10 *3289:B1 4.87953e-05
10 *704:10 *3658:A 0.000283698
11 *698:12 *704:10 0.000137983
12 *702:14 *3311:A1 5.41794e-05
*RES
1 *3278:X *704:10 20.9786 
2 *704:10 *3311:A1 14.8357 
3 *704:10 *3282:B 16.3893 
*END

*D_NET *705 0.00316631
*CONN
*I *3287:C1 I *D sky130_fd_sc_hd__a2111o_1
*I *3306:D1 I *D sky130_fd_sc_hd__a2111o_1
*I *3395:A I *D sky130_fd_sc_hd__xnor2_2
*I *3279:Y O *D sky130_fd_sc_hd__xnor2_2
*CAP
1 *3287:C1 0.000139509
2 *3306:D1 8.50368e-05
3 *3395:A 4.03476e-05
4 *3279:Y 0.000326691
5 *705:12 0.000619439
6 *705:8 0.000960255
7 *3287:C1 *3287:D1 0.000177821
8 *3306:D1 *732:6 0.000144773
9 *705:8 *3236:A 0.000247686
10 *705:8 *3287:A2 7.90803e-05
11 *705:12 *3287:A2 7.83587e-05
12 *705:12 *3300:B1 8.15939e-05
13 *705:12 *3303:B 0
14 *705:12 *706:16 0
15 *705:12 *712:23 4.63958e-05
16 *705:12 *729:8 0
17 *705:12 *992:10 0
18 *705:12 *992:16 0
19 *3659:A *705:8 0
20 *3659:A *705:12 0
21 *659:16 *705:8 0
22 *686:10 *3306:D1 4.14279e-05
23 *686:10 *3395:A 5.62995e-05
24 *691:8 *705:8 4.15914e-05
*RES
1 *3279:Y *705:8 21.2107 
2 *705:8 *705:12 13.4286 
3 *705:12 *3395:A 10.2464 
4 *705:12 *3306:D1 11.4786 
5 *705:8 *3287:C1 15.5679 
*END

*D_NET *706 0.0041532
*CONN
*I *3282:C I *D sky130_fd_sc_hd__and3_1
*I *3311:A2 I *D sky130_fd_sc_hd__a41o_1
*I *3304:B1 I *D sky130_fd_sc_hd__a21oi_1
*I *3303:A I *D sky130_fd_sc_hd__and3_1
*I *3280:Y O *D sky130_fd_sc_hd__xnor2_1
*CAP
1 *3282:C 0.000264065
2 *3311:A2 0
3 *3304:B1 0
4 *3303:A 9.82476e-05
5 *3280:Y 0.000372575
6 *706:34 0.00038279
7 *706:16 0.000481139
8 *706:8 0.000874191
9 *3282:C *3307:B 6.04072e-05
10 *3282:C *3311:A3 7.49387e-06
11 *3282:C *737:14 1.54142e-05
12 *3303:A *3303:C 0.000127518
13 *706:8 *1050:18 7.08482e-05
14 *706:8 *1051:30 9.1084e-05
15 *706:16 *3285:B 2.04825e-05
16 *706:16 *3299:C 0
17 *706:16 *3300:B1 0
18 *706:16 *3302:B2 4.29471e-05
19 *706:16 *3303:B 0
20 *706:16 *3303:C 2.28598e-05
21 *706:16 *3311:A4 0.000107568
22 *706:16 *710:10 0.000118349
23 *706:16 *710:31 4.75812e-05
24 *706:16 *725:10 0.000337651
25 *706:16 *728:27 0
26 *706:16 *729:8 1.41029e-05
27 *706:16 *730:8 5.59013e-05
28 *706:34 *3311:A3 4.2884e-05
29 *3276:A *706:8 5.52302e-05
30 *3282:A *3282:C 0.000139913
31 *3282:A *706:34 3.99614e-06
32 *3287:B1 *706:16 7.15687e-05
33 *672:20 *3303:A 0.000116029
34 *672:20 *706:16 5.33005e-05
35 *702:14 *3282:C 3.30237e-05
36 *702:14 *706:8 2.51343e-06
37 *702:14 *706:34 2.15245e-05
38 *705:12 *706:16 0
*RES
1 *3280:Y *706:8 15.6036 
2 *706:8 *706:16 19.0714 
3 *706:16 *3303:A 11.9071 
4 *706:16 *3304:B1 9.3 
5 *706:8 *706:34 2.19643 
6 *706:34 *3311:A2 9.3 
7 *706:34 *3282:C 12.7821 
*END

*D_NET *707 0.0008656
*CONN
*I *3287:D1 I *D sky130_fd_sc_hd__a2111o_1
*I *3281:Y O *D sky130_fd_sc_hd__xnor2_1
*CAP
1 *3287:D1 0.000208017
2 *3281:Y 0.000208017
3 *3287:D1 *3287:A2 2.59355e-05
4 *3287:D1 *3302:B1 0.000139907
5 *3285:A *3287:D1 0.000105902
6 *3287:C1 *3287:D1 0.000177821
*RES
1 *3281:Y *3287:D1 23.2429 
*END

*D_NET *708 0.00241435
*CONN
*I *3290:A3 I *D sky130_fd_sc_hd__a41o_1
*I *3307:A I *D sky130_fd_sc_hd__nand2_1
*I *3282:X O *D sky130_fd_sc_hd__and3_1
*CAP
1 *3290:A3 0.000110557
2 *3307:A 0.000318214
3 *3282:X 0
4 *708:4 0.000428771
5 *3290:A3 *3290:A4 0.000174618
6 *3290:A3 *744:8 8.00806e-05
7 *3290:A3 *757:14 0.000105028
8 *3307:A *3307:B 0.00029812
9 *3307:A *3308:B 5.82076e-05
10 *3307:A *3311:A3 0.000231635
11 *3307:A *3672:A 6.57914e-05
12 *3307:A *733:6 8.46829e-05
13 *3307:A *733:10 0.000181803
14 *3307:A *1048:27 0.000222666
15 *694:31 *3290:A3 5.41794e-05
*RES
1 *3282:X *708:4 9.3 
2 *708:4 *3307:A 18.2286 
3 *708:4 *3290:A3 21.7643 
*END

*D_NET *709 0.000363859
*CONN
*I *3286:B2 I *D sky130_fd_sc_hd__a22o_4
*I *3283:X O *D sky130_fd_sc_hd__a2111o_1
*CAP
1 *3286:B2 0.000155827
2 *3283:X 0.000155827
3 *3286:B2 *1051:57 5.22045e-05
*RES
1 *3283:X *3286:B2 21.1893 
*END

*D_NET *710 0.00637282
*CONN
*I *3296:A I *D sky130_fd_sc_hd__xnor2_2
*I *3297:A I *D sky130_fd_sc_hd__xor2_1
*I *3298:B I *D sky130_fd_sc_hd__or2_1
*I *3302:B2 I *D sky130_fd_sc_hd__a22oi_2
*I *3285:B I *D sky130_fd_sc_hd__nor2_1
*I *3287:A2 I *D sky130_fd_sc_hd__a2111o_1
*I *3284:Y O *D sky130_fd_sc_hd__xnor2_4
*CAP
1 *3296:A 0
2 *3297:A 7.66254e-05
3 *3298:B 0
4 *3302:B2 4.75417e-05
5 *3285:B 0.000231635
6 *3287:A2 0.000245839
7 *3284:Y 0
8 *710:76 0.000476995
9 *710:61 0.000646111
10 *710:31 0.000361846
11 *710:10 0.000503668
12 *710:4 0.000420901
13 *3285:B *3290:A4 1.15281e-05
14 *3285:B *3302:A2 0.000131824
15 *3285:B *3302:B1 0.000180777
16 *3285:B *3307:B 0.000266486
17 *3285:B *3315:A1 0
18 *3285:B *728:6 5.52238e-05
19 *3285:B *728:19 0.000140933
20 *3287:A2 *3236:A 9.60875e-05
21 *3287:A2 *3299:A 3.65069e-05
22 *3287:A2 *712:23 0.000146474
23 *3297:A *3296:B 0.000177948
24 *3297:A *3325:A 3.34295e-05
25 *3297:A *741:14 0
26 *3297:A *748:12 8.58946e-05
27 *3302:B2 *3302:B1 9.60939e-05
28 *710:10 *3236:A 9.69119e-06
29 *710:10 *3300:B1 9.90367e-05
30 *710:10 *712:23 0
31 *710:31 *3236:A 3.08907e-05
32 *710:61 *3299:C 5.52238e-05
33 *710:61 *3300:A2 5.7661e-06
34 *710:61 *3300:B1 0.000125547
35 *710:61 *3303:B 4.51726e-05
36 *710:61 *724:6 8.46829e-05
37 *710:61 *1048:46 0.000101218
38 *710:76 *3324:A2 4.52233e-05
39 *710:76 *1048:46 0.000429449
40 *3247:A *710:76 0.000147154
41 *3285:A *3285:B 7.28814e-05
42 *3285:A *3287:A2 5.33005e-05
43 *3285:A *3302:B2 9.60939e-05
44 *3287:B1 *3302:B2 9.25014e-06
45 *3287:D1 *3287:A2 2.59355e-05
46 *3302:A1 *3285:B 5.03772e-05
47 *673:6 *710:76 2.87584e-05
48 *705:8 *3287:A2 7.90803e-05
49 *705:12 *3287:A2 7.83587e-05
50 *706:16 *3285:B 2.04825e-05
51 *706:16 *3302:B2 4.29471e-05
52 *706:16 *710:10 0.000118349
53 *706:16 *710:31 4.75812e-05
*RES
1 *3284:Y *710:4 9.3 
2 *710:4 *710:10 8.30357 
3 *710:10 *3287:A2 27.4607 
4 *710:10 *710:31 2.02679 
5 *710:31 *3285:B 20.6839 
6 *710:31 *3302:B2 15.3268 
7 *710:4 *710:61 5.19643 
8 *710:61 *3298:B 9.3 
9 *710:61 *710:76 8.625 
10 *710:76 *3297:A 21.1571 
11 *710:76 *3296:A 9.3 
*END

*D_NET *711 0.00199679
*CONN
*I *3290:A4 I *D sky130_fd_sc_hd__a41o_1
*I *3302:A2 I *D sky130_fd_sc_hd__a22oi_2
*I *3285:Y O *D sky130_fd_sc_hd__nor2_1
*CAP
1 *3290:A4 0.000362522
2 *3302:A2 7.8008e-05
3 *3285:Y 0
4 *711:4 0.00044053
5 *3290:A4 *3318:B1 0
6 *3290:A4 *737:14 4.87953e-05
7 *3290:A4 *744:8 0.000265392
8 *3290:A4 *746:12 1.02504e-05
9 *3290:A4 *747:12 0.000379106
10 *3290:A4 *757:14 1.91512e-05
11 *3302:A2 *3302:B1 0
12 *3302:A2 *3315:A1 0
13 *3285:A *3302:A2 7.50614e-05
14 *3285:B *3290:A4 1.15281e-05
15 *3285:B *3302:A2 0.000131824
16 *3290:A3 *3290:A4 0.000174618
*RES
1 *3285:Y *711:4 9.3 
2 *711:4 *3302:A2 11.7107 
3 *711:4 *3290:A4 27.2286 
*END

*D_NET *712 0.00341728
*CONN
*I *3299:A I *D sky130_fd_sc_hd__nand3_1
*I *3287:A1 I *D sky130_fd_sc_hd__a2111o_1
*I *3302:B1 I *D sky130_fd_sc_hd__a22oi_2
*I *3300:B1 I *D sky130_fd_sc_hd__a21o_1
*I *3286:X O *D sky130_fd_sc_hd__a22o_4
*CAP
1 *3299:A 0.000208089
2 *3287:A1 0
3 *3302:B1 0.000160286
4 *3300:B1 0.000232176
5 *3286:X 0.000161874
6 *712:23 0.000280858
7 *712:8 0.000352748
8 *712:6 0.000369962
9 *3299:A *3236:A 1.92905e-05
10 *3299:A *3299:B 1.04232e-05
11 *3300:B1 *3303:B 0.00016345
12 *712:6 *3236:A 6.09804e-05
13 *712:6 *992:10 5.76121e-05
14 *712:23 *3236:A 0.000168224
15 *3285:A *3302:B1 7.80417e-05
16 *3285:B *3302:B1 0.000180777
17 *3287:A2 *3299:A 3.65069e-05
18 *3287:A2 *712:23 0.000146474
19 *3287:B1 *3302:B1 0.000140933
20 *3287:D1 *3302:B1 0.000139907
21 *3302:A2 *3302:B1 0
22 *3302:B2 *3302:B1 9.60939e-05
23 *705:12 *3300:B1 8.15939e-05
24 *705:12 *712:23 4.63958e-05
25 *706:16 *3300:B1 0
26 *710:10 *3300:B1 9.90367e-05
27 *710:10 *712:23 0
28 *710:61 *3300:B1 0.000125547
*RES
1 *3286:X *712:6 12.3 
2 *712:6 *712:8 4.5 
3 *712:8 *3300:B1 19.5679 
4 *712:8 *712:23 7.66071 
5 *712:23 *3302:B1 13.9786 
6 *712:23 *3287:A1 9.3 
7 *712:6 *3299:A 12.7286 
*END

*D_NET *713 0.00148624
*CONN
*I *3289:A1 I *D sky130_fd_sc_hd__a41o_1
*I *3287:X O *D sky130_fd_sc_hd__a2111o_1
*CAP
1 *3289:A1 0.000398311
2 *3287:X 0.000398311
3 *3289:A1 *3311:A4 6.42338e-05
4 *3289:A1 *3658:A 4.43792e-05
5 *3289:A1 *714:18 0.000125731
6 *3285:A *3289:A1 0.000183726
7 *3311:A1 *3289:A1 1.41029e-05
8 *694:16 *3289:A1 6.16936e-05
9 *701:20 *3289:A1 0
10 *702:14 *3289:A1 5.58941e-05
11 *704:10 *3289:A1 0.000139851
*RES
1 *3287:X *3289:A1 35.8679 
*END

*D_NET *714 0.00310195
*CONN
*I *3289:B1 I *D sky130_fd_sc_hd__a41o_1
*I *3322:A1 I *D sky130_fd_sc_hd__a221o_1
*I *3318:A1 I *D sky130_fd_sc_hd__a21o_1
*I *3288:Y O *D sky130_fd_sc_hd__xnor2_1
*CAP
1 *3289:B1 4.97538e-05
2 *3322:A1 0.000236211
3 *3318:A1 0
4 *3288:Y 0.000187711
5 *714:18 0.000744426
6 *714:8 0.00074568
7 *3322:A1 *3318:A2 2.59355e-05
8 *3322:A1 *3319:A3 0
9 *3322:A1 *3321:A 5.33005e-05
10 *3322:A1 *745:10 7.6644e-05
11 *3322:A1 *748:12 1.3701e-05
12 *3322:A1 *990:78 7.83659e-05
13 *714:8 *3658:A 0
14 *714:8 *718:10 0
15 *714:18 *3318:B1 5.49544e-05
16 *714:18 *3658:A 0
17 *3274:A *714:18 5.52238e-05
18 *3274:C *714:18 2.99667e-05
19 *3289:A1 *714:18 0.000125731
20 *611:14 *714:8 0
21 *694:10 *714:8 0.000167691
22 *694:10 *714:18 8.25098e-05
23 *694:16 *714:18 8.00806e-05
24 *694:31 *3322:A1 1.02821e-05
25 *694:31 *714:18 0.000103702
26 *698:20 *714:18 3.8274e-05
27 *698:26 *714:18 9.3015e-05
28 *704:10 *3289:B1 4.87953e-05
*RES
1 *3288:Y *714:8 17.8714 
2 *714:8 *714:18 13.6964 
3 *714:18 *3318:A1 9.3 
4 *714:18 *3322:A1 22.0857 
5 *714:8 *3289:B1 14.7464 
*END

*D_NET *715 0.000238886
*CONN
*I *3290:B1 I *D sky130_fd_sc_hd__a41o_1
*I *3289:X O *D sky130_fd_sc_hd__a41o_1
*CAP
1 *3290:B1 6.74304e-05
2 *3289:X 6.74304e-05
3 *3290:A1 *3290:B1 5.52302e-05
4 *3290:A2 *3290:B1 4.87953e-05
*RES
1 *3289:X *3290:B1 19.9571 
*END

*D_NET *716 0.00221749
*CONN
*I *3316:B I *D sky130_fd_sc_hd__nor2_1
*I *3293:A2 I *D sky130_fd_sc_hd__o21a_1
*I *3292:A2 I *D sky130_fd_sc_hd__a21bo_4
*I *3290:X O *D sky130_fd_sc_hd__a41o_1
*CAP
1 *3316:B 4.74065e-05
2 *3293:A2 0
3 *3292:A2 0
4 *3290:X 0.00027803
5 *716:21 0.000162876
6 *716:12 0.0003935
7 *3316:B *742:10 3.30352e-05
8 *3316:B *990:78 6.57914e-05
9 *716:12 *3658:A 0.000202835
10 *716:12 *718:10 0.000370533
11 *716:12 *720:16 0
12 *716:12 *757:12 0.000112402
13 *716:12 *990:78 0
14 *716:21 *990:78 9.60939e-05
15 *3290:A1 *716:12 1.02504e-05
16 *3316:A *3316:B 0.000229456
17 *3316:A *716:12 7.77751e-05
18 *3316:A *716:21 0.000137505
19 *3331:A *716:12 0
*RES
1 *3290:X *716:12 26.7643 
2 *716:12 *3292:A2 9.3 
3 *716:12 *716:21 3.01786 
4 *716:21 *3293:A2 9.3 
5 *716:21 *3316:B 11.4786 
*END

*D_NET *717 0.000467928
*CONN
*I *3292:A1 I *D sky130_fd_sc_hd__a21bo_4
*I *3291:Y O *D sky130_fd_sc_hd__nor2_1
*CAP
1 *3292:A1 0.000209972
2 *3291:Y 0.000209972
3 *3292:A1 *3294:B 4.79842e-05
4 *3292:A1 *720:16 0
5 *3292:A1 *990:78 0
6 *667:32 *3292:A1 0
*RES
1 *3291:Y *3292:A1 31.6714 
*END

*D_NET *718 0.00633964
*CONN
*I *3317:B1_N I *D sky130_fd_sc_hd__a21bo_1
*I *3320:B I *D sky130_fd_sc_hd__nand3_1
*I *3673:A I *D sky130_fd_sc_hd__buf_8
*I *3658:A I *D sky130_fd_sc_hd__clkbuf_1
*I *3292:X O *D sky130_fd_sc_hd__a21bo_4
*CAP
1 *3317:B1_N 0.000322466
2 *3320:B 0
3 *3673:A 0
4 *3658:A 0.000776134
5 *3292:X 0.000268492
6 *718:32 0.000628268
7 *718:23 0.000512868
8 *718:10 0.00125169
9 *3658:A *3311:A4 0
10 *3658:A *726:12 0
11 *3658:A *728:27 0.00027556
12 *3658:A *757:14 0
13 *718:23 *1049:14 0.000188586
14 *718:32 *746:12 7.28183e-05
15 *718:32 *1049:14 0.000108564
16 *3247:A *3658:A 2.78822e-05
17 *3289:A1 *3658:A 4.43792e-05
18 *3290:A1 *3658:A 0.000236926
19 *3290:A2 *3658:A 7.83659e-05
20 *3311:A1 *3658:A 7.83587e-05
21 *3316:A *718:10 0.000126629
22 *3320:A *3317:B1_N 5.52238e-05
23 *611:8 *718:10 0
24 *611:14 *718:10 0
25 *686:31 *3658:A 0.000154762
26 *688:10 *3658:A 9.24395e-05
27 *688:19 *3658:A 0.00018216
28 *704:10 *3658:A 0.000283698
29 *714:8 *3658:A 0
30 *714:8 *718:10 0
31 *714:18 *3658:A 0
32 *716:12 *3658:A 0.000202835
33 *716:12 *718:10 0.000370533
*RES
1 *3292:X *718:10 20.6571 
2 *718:10 *3658:A 33.3536 
3 *718:10 *718:23 8.32143 
4 *718:23 *3673:A 9.3 
5 *718:23 *718:32 5.48214 
6 *718:32 *3320:B 9.3 
7 *718:32 *3317:B1_N 23.7464 
*END

*D_NET *719 0.000273608
*CONN
*I *3294:B I *D sky130_fd_sc_hd__xnor2_2
*I *3293:X O *D sky130_fd_sc_hd__o21a_1
*CAP
1 *3294:B 9.88573e-05
2 *3293:X 9.88573e-05
3 *3294:B *720:16 2.79092e-05
4 *3292:A1 *3294:B 4.79842e-05
5 *667:32 *3294:B 0
*RES
1 *3293:X *3294:B 29.7786 
*END

*D_NET *720 0.0134149
*CONN
*I *3343:B1 I *D sky130_fd_sc_hd__a31oi_4
*I *3657:B1 I *D sky130_fd_sc_hd__a31oi_1
*I *3294:Y O *D sky130_fd_sc_hd__xnor2_2
*CAP
1 *3343:B1 0.000554477
2 *3657:B1 0.000569972
3 *3294:Y 0.00460448
4 *720:16 0.00572893
5 *3343:B1 *3405:A2 4.87854e-05
6 *3343:B1 *753:18 2.11419e-05
7 *3343:B1 *774:8 1.94945e-05
8 *3343:B1 *828:12 0
9 *3343:B1 *832:16 1.2012e-05
10 *3657:B1 *3346:A2 8.88838e-05
11 *3657:B1 *3405:A1 0.000112563
12 *3657:B1 *772:8 0
13 *3657:B1 *832:16 0
14 *720:16 *3400:B 0.000115473
15 *720:16 *739:16 0.000119987
16 *720:16 *742:12 0.000101444
17 *720:16 *744:8 0.000357613
18 *720:16 *747:12 0.000228828
19 *720:16 *757:14 0.000312458
20 *720:16 *990:78 5.59013e-05
21 *720:16 *1049:34 0.000229234
22 *3292:A1 *720:16 0
23 *3294:B *720:16 2.79092e-05
24 *3331:A *720:16 3.13843e-05
25 *667:32 *720:16 7.38844e-05
26 *716:12 *720:16 0
*RES
1 *3294:Y *720:16 31.8371 
2 *720:16 *3657:B1 22.9524 
3 *720:16 *3343:B1 22.9352 
*END

*D_NET *721 0.00114818
*CONN
*I *3297:B I *D sky130_fd_sc_hd__xor2_1
*I *3296:B I *D sky130_fd_sc_hd__xnor2_2
*I *3325:A I *D sky130_fd_sc_hd__or2_2
*I *3295:X O *D sky130_fd_sc_hd__and3_1
*CAP
1 *3297:B 0
2 *3296:B 5.30827e-05
3 *3325:A 0.000167017
4 *3295:X 0.000143091
5 *721:10 0.0002201
6 *721:8 0.000143091
7 *3296:B *741:14 6.30023e-05
8 *3325:A *732:6 7.77751e-05
9 *3325:A *741:14 6.35892e-05
10 *3325:A *748:12 0
11 *721:8 *3295:C 6.05161e-06
12 *3297:A *3296:B 0.000177948
13 *3297:A *3325:A 3.34295e-05
*RES
1 *3295:X *721:8 11.4964 
2 *721:8 *721:10 4.5 
3 *721:10 *3325:A 17.4071 
4 *721:10 *3296:B 16.05 
5 *721:8 *3297:B 9.3 
*END

*D_NET *722 0.00388732
*CONN
*I *3323:A I *D sky130_fd_sc_hd__or4_4
*I *3382:A I *D sky130_fd_sc_hd__xnor2_2
*I *3296:Y O *D sky130_fd_sc_hd__xnor2_2
*CAP
1 *3323:A 0
2 *3382:A 0.000312697
3 *3296:Y 0.000313695
4 *722:10 0.000626392
5 *3382:A *3382:B 0.000129868
6 *3382:A *749:16 0.000419744
7 *3382:A *778:10 0.000967214
8 *3382:A *806:16 2.00751e-05
9 *722:10 *3380:A 0.00014535
10 *722:10 *3389:A2 0
11 *722:10 *723:8 0.000112106
12 *722:10 *736:14 0.000612198
13 *722:10 *748:12 6.39262e-05
14 *722:10 *778:10 0.00014209
15 *722:10 *806:16 2.19684e-05
*RES
1 *3296:Y *722:10 24.5857 
2 *722:10 *3382:A 26.0679 
3 *722:10 *3323:A 13.8 
*END

*D_NET *723 0.00202073
*CONN
*I *3389:A1 I *D sky130_fd_sc_hd__a21o_1
*I *3380:A I *D sky130_fd_sc_hd__nand2_1
*I *3297:X O *D sky130_fd_sc_hd__xor2_1
*CAP
1 *3389:A1 0
2 *3380:A 0.00032519
3 *3297:X 4.98154e-05
4 *723:8 0.000375005
5 *3380:A *3323:D 0.000173097
6 *3380:A *748:12 0.000229443
7 *3380:A *753:10 9.8804e-05
8 *3380:A *778:10 0.000317616
9 *723:8 *748:12 0.000194299
10 *722:10 *3380:A 0.00014535
11 *722:10 *723:8 0.000112106
*RES
1 *3297:X *723:8 16.3536 
2 *723:8 *3380:A 23.4071 
3 *723:8 *3389:A1 13.8 
*END

*D_NET *724 0.000637121
*CONN
*I *3300:A1 I *D sky130_fd_sc_hd__a21o_1
*I *3299:C I *D sky130_fd_sc_hd__nand3_1
*I *3298:X O *D sky130_fd_sc_hd__or2_1
*CAP
1 *3300:A1 0
2 *3299:C 9.06691e-05
3 *3298:X 6.83434e-05
4 *724:6 0.000159013
5 *3299:C *3304:A1 7.83587e-05
6 *3299:C *728:27 0.000100831
7 *706:16 *3299:C 0
8 *710:61 *3299:C 5.52238e-05
9 *710:61 *724:6 8.46829e-05
*RES
1 *3298:X *724:6 10.2464 
2 *724:6 *3299:C 20.175 
3 *724:6 *3300:A1 9.3 
*END

*D_NET *725 0.00148882
*CONN
*I *3306:A1 I *D sky130_fd_sc_hd__a2111o_1
*I *3301:A I *D sky130_fd_sc_hd__nand2_1
*I *3299:Y O *D sky130_fd_sc_hd__nand3_1
*CAP
1 *3306:A1 0
2 *3301:A 0.000128648
3 *3299:Y 0.000173963
4 *725:10 0.00030261
5 *3301:A *3301:B 5.52302e-05
6 *3301:A *732:6 7.32955e-05
7 *725:10 *3304:A1 9.55563e-05
8 *725:10 *726:12 0.000265378
9 *725:10 *730:8 5.64858e-05
10 *706:16 *725:10 0.000337651
*RES
1 *3299:Y *725:10 24.1929 
2 *725:10 *3301:A 11.925 
3 *725:10 *3306:A1 9.3 
*END

*D_NET *726 0.00105337
*CONN
*I *3301:B I *D sky130_fd_sc_hd__nand2_1
*I *3306:A2 I *D sky130_fd_sc_hd__a2111o_1
*I *3300:X O *D sky130_fd_sc_hd__a21o_1
*CAP
1 *3301:B 8.95055e-06
2 *3306:A2 0
3 *3300:X 0.000204419
4 *726:12 0.00021337
5 *3301:B *732:6 5.71472e-05
6 *726:12 *3303:B 5.33005e-05
7 *726:12 *3304:A1 0.000171368
8 *726:12 *3305:B 4.1331e-06
9 *726:12 *730:8 2.00751e-05
10 *3301:A *3301:B 5.52302e-05
11 *3658:A *726:12 0
12 *725:10 *726:12 0.000265378
*RES
1 *3300:X *726:12 22.9071 
2 *726:12 *3306:A2 9.3 
3 *726:12 *3301:B 9.83571 
*END

*D_NET *727 0.00155679
*CONN
*I *3384:B1 I *D sky130_fd_sc_hd__a21oi_1
*I *3383:A I *D sky130_fd_sc_hd__and3_1
*I *3301:Y O *D sky130_fd_sc_hd__nand2_1
*CAP
1 *3384:B1 0.000275506
2 *3383:A 0
3 *3301:Y 0.000239873
4 *727:12 0.000515379
5 *3384:B1 *3383:C 2.67201e-05
6 *3384:B1 *3384:A1 1.74352e-05
7 *3384:B1 *3384:A2 6.90465e-05
8 *3384:B1 *3385:B 1.89513e-05
9 *3384:B1 *806:16 5.46298e-05
10 *3384:B1 *809:8 1.21026e-05
11 *727:12 *3305:B 0
12 *727:12 *3327:B 0.000142082
13 *727:12 *3329:B1 1.02504e-05
14 *727:12 *731:19 0
15 *3327:A *727:12 7.57773e-05
16 *686:10 *727:12 9.90367e-05
*RES
1 *3301:Y *727:12 23.0143 
2 *727:12 *3383:A 9.3 
3 *727:12 *3384:B1 13.5679 
*END

*D_NET *728 0.00625203
*CONN
*I *3307:B I *D sky130_fd_sc_hd__nand2_1
*I *3303:C I *D sky130_fd_sc_hd__and3_1
*I *3304:A2 I *D sky130_fd_sc_hd__a21oi_1
*I *3311:A4 I *D sky130_fd_sc_hd__a41o_1
*I *3302:Y O *D sky130_fd_sc_hd__a22oi_2
*CAP
1 *3307:B 0.000836288
2 *3303:C 0.000282181
3 *3304:A2 2.07783e-05
4 *3311:A4 0.000160545
5 *3302:Y 3.7533e-05
6 *728:27 0.000580243
7 *728:19 0.00120153
8 *728:6 0.000286033
9 *3303:C *3304:A1 9.60939e-05
10 *3304:A2 *3304:A1 5.33005e-05
11 *3307:B *3308:C 6.02348e-05
12 *3307:B *3311:A3 5.36e-05
13 *3307:B *3672:A 0.000225193
14 *3307:B *733:6 1.56e-05
15 *3307:B *737:14 0.000137983
16 *3307:B *757:14 0.000216304
17 *728:27 *3304:A1 0.000133262
18 *3282:C *3307:B 6.04072e-05
19 *3285:B *3307:B 0.000266486
20 *3285:B *728:6 5.52238e-05
21 *3285:B *728:19 0.000140933
22 *3289:A1 *3311:A4 6.42338e-05
23 *3290:A1 *3307:B 7.2754e-05
24 *3299:C *728:27 0.000100831
25 *3303:A *3303:C 0.000127518
26 *3307:A *3307:B 0.00029812
27 *3308:A *3307:B 5.52238e-05
28 *3658:A *3311:A4 0
29 *3658:A *728:27 0.00027556
30 *672:20 *3303:C 1.60482e-05
31 *672:20 *3304:A2 9.60939e-05
32 *672:20 *728:27 5.52238e-05
33 *686:31 *3303:C 0
34 *688:19 *3307:B 4.02462e-05
35 *706:16 *3303:C 2.28598e-05
36 *706:16 *3311:A4 0.000107568
37 *706:16 *728:27 0
*RES
1 *3302:Y *728:6 9.83571 
2 *728:6 *3311:A4 21.4607 
3 *728:6 *728:19 1.35714 
4 *728:19 *728:27 16.3393 
5 *728:27 *3304:A2 10.2464 
6 *728:27 *3303:C 13.3268 
7 *728:19 *3307:B 34.8536 
*END

*D_NET *729 0.00157379
*CONN
*I *3306:C1 I *D sky130_fd_sc_hd__a2111o_1
*I *3305:A I *D sky130_fd_sc_hd__nor2_1
*I *3394:B1 I *D sky130_fd_sc_hd__a21o_1
*I *3303:X O *D sky130_fd_sc_hd__and3_1
*CAP
1 *3306:C1 0
2 *3305:A 1.11927e-05
3 *3394:B1 0.000120754
4 *3303:X 0.000117784
5 *729:14 0.000315129
6 *729:8 0.000300966
7 *3394:B1 *3394:A1 3.48705e-05
8 *3394:B1 *3394:A2 9.90431e-05
9 *729:8 *3303:B 5.80706e-06
10 *729:8 *3305:B 1.02504e-05
11 *729:8 *730:8 0.000211913
12 *729:14 *3305:B 0.000298951
13 *729:14 *3394:A1 1.74352e-05
14 *729:14 *731:19 1.55885e-05
15 *705:12 *729:8 0
16 *706:16 *729:8 1.41029e-05
*RES
1 *3303:X *729:8 16.9607 
2 *729:8 *729:14 8.82143 
3 *729:14 *3394:B1 11.9071 
4 *729:14 *3305:A 9.72857 
5 *729:8 *3306:C1 13.8 
*END

*D_NET *730 0.00120932
*CONN
*I *3306:B1 I *D sky130_fd_sc_hd__a2111o_1
*I *3305:B I *D sky130_fd_sc_hd__nor2_1
*I *3304:Y O *D sky130_fd_sc_hd__a21oi_1
*CAP
1 *3306:B1 0
2 *3305:B 0.000186277
3 *3304:Y 8.6501e-05
4 *730:8 0.000272778
5 *3305:B *731:19 6.05161e-06
6 *3327:A *3305:B 0
7 *686:31 *3305:B 0
8 *706:16 *730:8 5.59013e-05
9 *725:10 *730:8 5.64858e-05
10 *726:12 *3305:B 4.1331e-06
11 *726:12 *730:8 2.00751e-05
12 *727:12 *3305:B 0
13 *729:8 *3305:B 1.02504e-05
14 *729:8 *730:8 0.000211913
15 *729:14 *3305:B 0.000298951
*RES
1 *3304:Y *730:8 16.6571 
2 *730:8 *3305:B 18.0143 
3 *730:8 *3306:B1 13.8 
*END

*D_NET *731 0.00287666
*CONN
*I *3386:A I *D sky130_fd_sc_hd__and3_1
*I *3501:A I *D sky130_fd_sc_hd__xor2_1
*I *3394:A1 I *D sky130_fd_sc_hd__a21o_1
*I *3305:Y O *D sky130_fd_sc_hd__nor2_1
*CAP
1 *3386:A 0
2 *3501:A 0.00010015
3 *3394:A1 0.000121885
4 *3305:Y 0
5 *731:19 0.000646883
6 *731:4 0.000668618
7 *3394:A1 *3394:A2 3.18676e-05
8 *3501:A *3386:C 6.05485e-05
9 *3501:A *808:24 4.72818e-05
10 *3501:A *812:10 7.61932e-05
11 *3501:A *826:32 0.000227539
12 *731:19 *3386:C 0.000151333
13 *731:19 *3394:A2 0
14 *731:19 *3501:B 0
15 *731:19 *811:8 0.000500229
16 *3255:B *731:19 9.56968e-05
17 *3305:B *731:19 6.05161e-06
18 *3334:A *731:19 0
19 *3394:B1 *3394:A1 3.48705e-05
20 *680:8 *731:19 7.44918e-05
21 *727:12 *731:19 0
22 *729:14 *3394:A1 1.74352e-05
23 *729:14 *731:19 1.55885e-05
*RES
1 *3305:Y *731:4 9.3 
2 *731:4 *3394:A1 11.0679 
3 *731:4 *731:19 20.5893 
4 *731:19 *3501:A 12.7286 
5 *731:19 *3386:A 9.3 
*END

*D_NET *732 0.00380544
*CONN
*I *3389:B1 I *D sky130_fd_sc_hd__a21o_1
*I *3352:A1 I *D sky130_fd_sc_hd__a21o_1
*I *3323:C I *D sky130_fd_sc_hd__or4_4
*I *3306:X O *D sky130_fd_sc_hd__a2111o_1
*CAP
1 *3389:B1 5.45372e-05
2 *3352:A1 0
3 *3323:C 0.000183453
4 *3306:X 0.000643885
5 *732:10 0.000264339
6 *732:6 0.000779308
7 *3323:C *3323:B 0.000117552
8 *3323:C *3323:D 2.39876e-05
9 *3323:C *3398:A1 8.5896e-05
10 *3323:C *753:10 0.000196269
11 *3323:C *815:14 4.98055e-06
12 *3323:C *815:22 5.58941e-05
13 *732:6 *751:14 2.59355e-05
14 *732:6 *815:14 5.33433e-05
15 *732:6 *990:6 1.58163e-05
16 *732:6 *990:78 0.000163804
17 *732:10 *3323:D 5.80706e-06
18 *732:10 *3398:A1 1.31516e-05
19 *732:10 *741:14 0
20 *732:10 *748:12 0.000103993
21 *732:10 *815:14 4.16021e-05
22 *3301:A *732:6 7.32955e-05
23 *3301:B *732:6 5.71472e-05
24 *3306:D1 *732:6 0.000144773
25 *3325:A *732:6 7.77751e-05
26 *686:10 *732:6 0.000618899
*RES
1 *3306:X *732:6 24.2107 
2 *732:6 *732:10 7.05357 
3 *732:10 *3323:C 18.1125 
4 *732:10 *3352:A1 13.8 
5 *732:6 *3389:B1 10.2643 
*END

*D_NET *733 0.00409059
*CONN
*I *3312:A_N I *D sky130_fd_sc_hd__nand2b_1
*I *3320:C I *D sky130_fd_sc_hd__nand3_1
*I *3317:A2 I *D sky130_fd_sc_hd__a21bo_1
*I *3319:A3 I *D sky130_fd_sc_hd__a31o_1
*I *3308:C I *D sky130_fd_sc_hd__and3_1
*I *3309:A2 I *D sky130_fd_sc_hd__a21oi_1
*I *3307:Y O *D sky130_fd_sc_hd__nand2_1
*CAP
1 *3312:A_N 0.000115453
2 *3320:C 0.000145766
3 *3317:A2 6.26775e-05
4 *3319:A3 7.59991e-05
5 *3308:C 0.000108873
6 *3309:A2 0.000169129
7 *3307:Y 7.28672e-05
8 *733:47 0.000290362
9 *733:34 0.000298511
10 *733:12 0.000334853
11 *733:10 0.000249856
12 *733:6 0.000240732
13 *3309:A2 *3312:B 7.43578e-06
14 *3309:A2 *741:14 0.000268521
15 *3309:A2 *1003:47 2.89114e-05
16 *3309:A2 *1048:31 3.48235e-05
17 *3312:A_N *3312:B 1.02504e-05
18 *3312:A_N *734:10 7.83659e-05
19 *3312:A_N *735:12 1.02504e-05
20 *3312:A_N *748:12 6.5752e-05
21 *3317:A2 *3322:A2 5.33005e-05
22 *3317:A2 *748:12 4.72917e-05
23 *3320:C *990:78 0
24 *3320:C *1049:14 2.06655e-06
25 *733:10 *3308:B 0.000139913
26 *733:12 *1048:31 5.08481e-05
27 *733:34 *3318:A2 1.90936e-05
28 *733:34 *1048:31 1.08359e-05
29 *733:34 *1049:14 9.71259e-06
30 *733:34 *1049:18 0
31 *733:47 *3318:A2 0.00014784
32 *733:47 *1049:14 5.98338e-05
33 *3273:A *733:34 7.44945e-07
34 *3307:A *733:6 8.46829e-05
35 *3307:A *733:10 0.000181803
36 *3307:B *3308:C 6.02348e-05
37 *3307:B *733:6 1.56e-05
38 *3308:A *3308:C 5.52238e-05
39 *3309:B1 *3309:A2 0.000179062
40 *3309:B1 *3312:A_N 6.92434e-05
41 *3309:B1 *733:12 1.76135e-05
42 *3320:A *3320:C 0
43 *3322:A1 *3319:A3 0
44 *694:31 *3319:A3 4.72818e-05
45 *694:42 *3319:A3 1.66264e-05
46 *694:44 *3312:A_N 3.69697e-05
47 *694:44 *733:12 3.34687e-05
48 *694:44 *733:34 8.19102e-05
*RES
1 *3307:Y *733:6 10.6571 
2 *733:6 *733:10 6.26786 
3 *733:10 *733:12 1.33929 
4 *733:12 *3309:A2 18.7107 
5 *733:12 *3308:C 15.2509 
6 *733:10 *733:34 2.55357 
7 *733:34 *3319:A3 15.175 
8 *733:34 *733:47 2.25 
9 *733:47 *3317:A2 15.1571 
10 *733:47 *3320:C 16.3536 
11 *733:6 *3312:A_N 21.1571 
*END

*D_NET *734 0.00125042
*CONN
*I *3310:A I *D sky130_fd_sc_hd__or2_1
*I *3315:B1 I *D sky130_fd_sc_hd__a211o_1
*I *3308:X O *D sky130_fd_sc_hd__and3_1
*CAP
1 *3310:A 0.000217541
2 *3315:B1 0.000133165
3 *3308:X 2.89912e-05
4 *734:10 0.000379697
5 *3310:A *3310:B 0.000172309
6 *3310:A *736:14 5.39629e-06
7 *3315:B1 *3310:B 0.000133754
8 *3315:B1 *3315:A1 1.97695e-05
9 *3315:B1 *738:8 3.06878e-06
10 *734:10 *748:12 7.83659e-05
11 *3312:A_N *734:10 7.83659e-05
*RES
1 *3308:X *734:10 19.3357 
2 *734:10 *3315:B1 11.3893 
3 *734:10 *3310:A 12.3179 
*END

*D_NET *735 0.000998334
*CONN
*I *3310:B I *D sky130_fd_sc_hd__or2_1
*I *3315:C1 I *D sky130_fd_sc_hd__a211o_1
*I *3309:Y O *D sky130_fd_sc_hd__a21oi_1
*CAP
1 *3310:B 0.000102296
2 *3315:C1 0
3 *3309:Y 0.000102468
4 *735:12 0.000204764
5 *3310:B *3312:B 1.28809e-05
6 *3310:B *738:8 2.96932e-05
7 *735:12 *3312:B 7.93005e-05
8 *3309:B1 *735:12 0.000150618
9 *3310:A *3310:B 0.000172309
10 *3312:A_N *735:12 1.02504e-05
11 *3315:B1 *3310:B 0.000133754
*RES
1 *3309:Y *735:12 20.7821 
2 *735:12 *3315:C1 9.3 
3 *735:12 *3310:B 12.3179 
*END

*D_NET *736 0.0062503
*CONN
*I *3314:A_N I *D sky130_fd_sc_hd__and2b_1
*I *3402:B2 I *D sky130_fd_sc_hd__a2bb2o_1
*I *3401:A I *D sky130_fd_sc_hd__nand3_1
*I *3310:X O *D sky130_fd_sc_hd__or2_1
*CAP
1 *3314:A_N 0
2 *3402:B2 0.000123243
3 *3401:A 0.000205155
4 *3310:X 0.000902492
5 *736:18 0.000556898
6 *736:14 0.00113099
7 *3401:A *3399:B 0.000138881
8 *3401:A *3400:A 3.30425e-05
9 *3401:A *3400:B 0.000343203
10 *3401:A *3401:B 2.286e-05
11 *3401:A *3401:C 3.99614e-06
12 *3401:A *747:12 5.49544e-05
13 *3401:A *808:14 1.02821e-05
14 *3401:A *826:16 0.00033285
15 *3401:A *828:12 0.00029513
16 *3401:A *1049:34 2.82057e-05
17 *3402:B2 *3390:B 5.33005e-05
18 *3402:B2 *3393:B 1.39726e-05
19 *3402:B2 *3402:A1_N 4.27437e-05
20 *3402:B2 *3402:A2_N 5.33005e-05
21 *736:14 *3314:B 4.53889e-05
22 *736:14 *3352:A2 5.52302e-05
23 *736:14 *3389:A2 9.37018e-05
24 *736:14 *748:12 0
25 *736:14 *753:10 0.000345257
26 *736:18 *3400:B 0.00036496
27 *736:18 *751:14 9.42015e-05
28 *736:18 *1049:34 0.000288468
29 *3310:A *736:14 5.39629e-06
30 *722:10 *736:14 0.000612198
*RES
1 *3310:X *736:14 37.0857 
2 *736:14 *736:18 11.6071 
3 *736:18 *3401:A 22.0143 
4 *736:18 *3402:B2 15.9786 
5 *736:14 *3314:A_N 9.3 
*END

*D_NET *737 0.00191368
*CONN
*I *3315:A1 I *D sky130_fd_sc_hd__a211o_1
*I *3313:A I *D sky130_fd_sc_hd__nand2_1
*I *3311:X O *D sky130_fd_sc_hd__a41o_1
*CAP
1 *3315:A1 0.000215624
2 *3313:A 0
3 *3311:X 0.000232542
4 *737:14 0.000448166
5 *3315:A1 *3313:B 0.000222666
6 *3315:A1 *738:8 1.86816e-05
7 *3315:A1 *741:14 9.60875e-05
8 *737:14 *3311:A3 0.000145457
9 *737:14 *744:8 0.000171375
10 *737:14 *757:14 8.58864e-05
11 *3282:A *737:14 5.52302e-05
12 *3282:C *737:14 1.54142e-05
13 *3285:B *3315:A1 0
14 *3290:A4 *737:14 4.87953e-05
15 *3302:A2 *3315:A1 0
16 *3307:B *737:14 0.000137983
17 *3315:B1 *3315:A1 1.97695e-05
*RES
1 *3311:X *737:14 24.4964 
2 *737:14 *3313:A 9.3 
3 *737:14 *3315:A1 13.5679 
*END

*D_NET *738 0.00112322
*CONN
*I *3315:A2 I *D sky130_fd_sc_hd__a211o_1
*I *3313:B I *D sky130_fd_sc_hd__nand2_1
*I *3312:Y O *D sky130_fd_sc_hd__nand2b_1
*CAP
1 *3315:A2 0
2 *3313:B 9.86412e-05
3 *3312:Y 0.000324002
4 *738:8 0.000422643
5 *738:8 *3312:B 3.82227e-06
6 *3310:B *738:8 2.96932e-05
7 *3315:A1 *3313:B 0.000222666
8 *3315:A1 *738:8 1.86816e-05
9 *3315:B1 *738:8 3.06878e-06
*RES
1 *3312:Y *738:8 13.3357 
2 *738:8 *3313:B 11.4786 
3 *738:8 *3315:A2 9.3 
*END

*D_NET *739 0.00471827
*CONN
*I *3314:B I *D sky130_fd_sc_hd__and2b_1
*I *3392:B1 I *D sky130_fd_sc_hd__a21o_1
*I *3391:A I *D sky130_fd_sc_hd__nand3_1
*I *3313:Y O *D sky130_fd_sc_hd__nand2_1
*CAP
1 *3314:B 0.000188165
2 *3392:B1 0.000199067
3 *3391:A 0
4 *3313:Y 0.000322426
5 *739:16 0.000553332
6 *739:8 0.000864856
7 *3314:B *753:10 4.3049e-05
8 *3392:B1 *3393:A 1.24368e-05
9 *3392:B1 *3402:B1 8.17274e-05
10 *3392:B1 *753:10 0.000177941
11 *3392:B1 *778:10 9.56968e-05
12 *739:8 *747:12 0.000362242
13 *739:8 *990:78 0.000316916
14 *739:8 *1049:34 0.000109491
15 *739:16 *3393:A 6.36478e-05
16 *739:16 *747:12 0.000254189
17 *739:16 *819:14 0.000224583
18 *739:16 *1049:34 0.000246319
19 *3247:A *739:8 1.90936e-05
20 *3295:A *739:8 0.000269521
21 *3324:A1 *739:8 0.000148196
22 *720:16 *739:16 0.000119987
23 *736:14 *3314:B 4.53889e-05
*RES
1 *3313:Y *739:8 24.8536 
2 *739:8 *739:16 14.2321 
3 *739:16 *3391:A 9.3 
4 *739:16 *3392:B1 22.7286 
5 *739:8 *3314:B 16.8 
*END

*D_NET *740 0.000632711
*CONN
*I *3398:A1 I *D sky130_fd_sc_hd__a21boi_2
*I *3352:A2 I *D sky130_fd_sc_hd__a21o_1
*I *3314:X O *D sky130_fd_sc_hd__and2b_1
*CAP
1 *3398:A1 9.45257e-05
2 *3352:A2 4.60565e-05
3 *3314:X 0
4 *740:4 0.000140582
5 *3398:A1 *815:14 0.000197269
6 *3323:C *3398:A1 8.5896e-05
7 *732:10 *3398:A1 1.31516e-05
8 *736:14 *3352:A2 5.52302e-05
*RES
1 *3314:X *740:4 9.3 
2 *740:4 *3352:A2 10.2643 
3 *740:4 *3398:A1 20.8536 
*END

*D_NET *741 0.00508231
*CONN
*I *3323:B I *D sky130_fd_sc_hd__or4_4
*I *3402:A1_N I *D sky130_fd_sc_hd__a2bb2o_1
*I *3315:X O *D sky130_fd_sc_hd__a211o_1
*CAP
1 *3323:B 0.000148504
2 *3402:A1_N 0.000268301
3 *3315:X 0.000611888
4 *741:14 0.00102869
5 *3323:B *3323:D 2.89114e-05
6 *3323:B *781:92 9.71197e-05
7 *3323:B *806:16 6.06437e-05
8 *3323:B *815:14 9.90367e-05
9 *3402:A1_N *3393:B 0.000180955
10 *3402:A1_N *3402:A2_N 5.33005e-05
11 *3402:A1_N *751:14 0.00016223
12 *3402:A1_N *781:79 0.00012401
13 *3402:A1_N *781:92 0.000111292
14 *3402:A1_N *815:22 6.8646e-06
15 *741:14 *3295:C 0.000198705
16 *741:14 *3312:B 0
17 *741:14 *3325:B 6.30292e-05
18 *741:14 *748:12 0
19 *741:14 *751:14 0.000351573
20 *741:14 *815:14 0.000337637
21 *741:14 *815:22 7.80714e-06
22 *741:14 *1048:31 0.000485292
23 *741:14 *1049:34 5.01876e-06
24 *3296:B *741:14 6.30023e-05
25 *3297:A *741:14 0
26 *3309:A2 *741:14 0.000268521
27 *3315:A1 *741:14 9.60875e-05
28 *3323:C *3323:B 0.000117552
29 *3325:A *741:14 6.35892e-05
30 *3402:B2 *3402:A1_N 4.27437e-05
31 *732:10 *741:14 0
*RES
1 *3315:X *741:14 31.3179 
2 *741:14 *3402:A1_N 20.3179 
3 *741:14 *3323:B 17.2107 
*END

*D_NET *742 0.00221463
*CONN
*I *3331:B I *D sky130_fd_sc_hd__xnor2_2
*I *3322:C1 I *D sky130_fd_sc_hd__a221o_1
*I *3318:B1 I *D sky130_fd_sc_hd__a21o_1
*I *3316:Y O *D sky130_fd_sc_hd__nor2_1
*CAP
1 *3331:B 0
2 *3322:C1 0
3 *3318:B1 0.000148397
4 *3316:Y 0.000145057
5 *742:12 0.000322573
6 *742:10 0.000319233
7 *3318:B1 *746:12 4.1331e-06
8 *3318:B1 *747:12 6.42338e-05
9 *3318:B1 *990:78 0.000172375
10 *742:10 *990:78 0.000206341
11 *742:12 *746:12 4.8476e-05
12 *742:12 *757:12 0
13 *742:12 *990:78 0.000389154
14 *3290:A4 *3318:B1 0
15 *3316:B *742:10 3.30352e-05
16 *3331:A *742:10 0.000141015
17 *3331:A *742:12 9.25014e-06
18 *694:31 *3318:B1 5.49544e-05
19 *714:18 *3318:B1 5.49544e-05
20 *720:16 *742:12 0.000101444
*RES
1 *3316:Y *742:10 17.1036 
2 *742:10 *742:12 4.98214 
3 *742:12 *3318:B1 17.1214 
4 *742:12 *3322:C1 13.8 
5 *742:10 *3331:B 13.8 
*END

*D_NET *743 0.00145602
*CONN
*I *3318:A2 I *D sky130_fd_sc_hd__a21o_1
*I *3322:A2 I *D sky130_fd_sc_hd__a221o_1
*I *3317:X O *D sky130_fd_sc_hd__a21bo_1
*CAP
1 *3318:A2 0.000419551
2 *3322:A2 5.64986e-05
3 *3317:X 0
4 *743:4 0.000476049
5 *3318:A2 *748:12 0
6 *3318:A2 *990:78 2.09897e-05
7 *3318:A2 *1049:14 4.75956e-06
8 *3318:A2 *1049:18 8.6229e-06
9 *3322:A2 *748:12 5.33005e-05
10 *3273:A *3318:A2 0.000114845
11 *3317:A2 *3322:A2 5.33005e-05
12 *3322:A1 *3318:A2 2.59355e-05
13 *694:31 *3318:A2 5.52302e-05
14 *733:34 *3318:A2 1.90936e-05
15 *733:47 *3318:A2 0.00014784
*RES
1 *3317:X *743:4 9.3 
2 *743:4 *3322:A2 10.4518 
3 *743:4 *3318:A2 28.5101 
*END

*D_NET *744 0.00514548
*CONN
*I *3401:B I *D sky130_fd_sc_hd__nand3_1
*I *3404:A I *D sky130_fd_sc_hd__xor2_1
*I *3318:X O *D sky130_fd_sc_hd__a21o_1
*CAP
1 *3401:B 6.18855e-05
2 *3404:A 0.000132783
3 *3318:X 0.000838251
4 *744:8 0.00103292
5 *3401:B *826:16 1.55885e-05
6 *3404:A *3404:B 0.000127446
7 *3404:A *755:8 0.000141356
8 *3404:A *808:14 1.17968e-05
9 *3404:A *826:16 7.90803e-05
10 *3404:A *828:12 0
11 *744:8 *3324:A2 9.99668e-05
12 *744:8 *747:12 0.000966001
13 *744:8 *755:8 0.000156186
14 *744:8 *757:14 0.000575648
15 *744:8 *826:16 9.25014e-06
16 *3290:A3 *744:8 8.00806e-05
17 *3290:A4 *744:8 0.000265392
18 *3401:A *3401:B 2.286e-05
19 *720:16 *744:8 0.000357613
20 *737:14 *744:8 0.000171375
*RES
1 *3318:X *744:8 41.55 
2 *744:8 *3404:A 17.2643 
3 *744:8 *3401:B 14.7643 
*END

*D_NET *745 0.000643098
*CONN
*I *3322:B1 I *D sky130_fd_sc_hd__a221o_1
*I *3321:A I *D sky130_fd_sc_hd__nand2_1
*I *3319:X O *D sky130_fd_sc_hd__a31o_1
*CAP
1 *3322:B1 0
2 *3321:A 0.000125531
3 *3319:X 4.14114e-05
4 *745:10 0.000166943
5 *3321:A *3322:B2 6.6648e-05
6 *745:10 *990:78 1.17968e-05
7 *745:10 *1049:14 0.000100823
8 *3322:A1 *3321:A 5.33005e-05
9 *3322:A1 *745:10 7.6644e-05
*RES
1 *3319:X *745:10 19.6393 
2 *745:10 *3321:A 11.4964 
3 *745:10 *3322:B1 9.3 
*END

*D_NET *746 0.00154554
*CONN
*I *3322:B2 I *D sky130_fd_sc_hd__a221o_1
*I *3321:B I *D sky130_fd_sc_hd__nand2_1
*I *3320:Y O *D sky130_fd_sc_hd__nand3_1
*CAP
1 *3322:B2 0.000144127
2 *3321:B 0
3 *3320:Y 0.000470961
4 *746:12 0.000615087
5 *746:12 *757:12 0
6 *746:12 *757:14 0
7 *746:12 *1049:14 0.000113043
8 *3290:A4 *746:12 1.02504e-05
9 *3318:B1 *746:12 4.1331e-06
10 *3321:A *3322:B2 6.6648e-05
11 *718:32 *746:12 7.28183e-05
12 *742:12 *746:12 4.8476e-05
*RES
1 *3320:Y *746:12 24.8893 
2 *746:12 *3321:B 9.3 
3 *746:12 *3322:B2 12.0545 
*END

*D_NET *747 0.00547234
*CONN
*I *3399:A I *D sky130_fd_sc_hd__nand2_1
*I *3400:A I *D sky130_fd_sc_hd__xor2_2
*I *3321:Y O *D sky130_fd_sc_hd__nand2_1
*CAP
1 *3399:A 0
2 *3400:A 0.000198271
3 *3321:Y 0.00103637
4 *747:12 0.00123464
5 *3400:A *3399:B 9.23592e-05
6 *3400:A *3401:C 0
7 *3400:A *3404:B 5.68722e-05
8 *3400:A *776:18 0
9 *3400:A *826:16 1.20135e-05
10 *747:12 *3324:A2 9.82592e-05
11 *747:12 *3404:B 9.77264e-06
12 *747:12 *808:14 6.05161e-06
13 *747:12 *826:16 5.58941e-05
14 *747:12 *990:78 0.000131977
15 *747:12 *1048:27 2.84494e-05
16 *747:12 *1049:34 0
17 *3247:A *747:12 2.06112e-05
18 *3290:A4 *747:12 0.000379106
19 *3318:B1 *747:12 6.42338e-05
20 *3324:A1 *747:12 0.000148196
21 *3401:A *3400:A 3.30425e-05
22 *3401:A *747:12 5.49544e-05
23 *720:16 *747:12 0.000228828
24 *739:8 *747:12 0.000362242
25 *739:16 *747:12 0.000254189
26 *744:8 *747:12 0.000966001
*RES
1 *3321:Y *747:12 49.6214 
2 *747:12 *3400:A 13.4607 
3 *747:12 *3399:A 9.3 
*END

*D_NET *748 0.00394906
*CONN
*I *3352:B1 I *D sky130_fd_sc_hd__a21o_1
*I *3323:D I *D sky130_fd_sc_hd__or4_4
*I *3322:X O *D sky130_fd_sc_hd__a221o_1
*CAP
1 *3352:B1 0
2 *3323:D 7.92227e-05
3 *3322:X 0.000944187
4 *748:12 0.00102341
5 *3323:D *753:10 0.00012401
6 *3323:D *806:16 5.33005e-05
7 *748:12 *3312:B 0.00027338
8 *3273:A *748:12 0.000184745
9 *3273:B *748:12 0
10 *3297:A *748:12 8.58946e-05
11 *3312:A_N *748:12 6.5752e-05
12 *3317:A2 *748:12 4.72917e-05
13 *3318:A2 *748:12 0
14 *3322:A1 *748:12 1.3701e-05
15 *3322:A2 *748:12 5.33005e-05
16 *3323:B *3323:D 2.89114e-05
17 *3323:C *3323:D 2.39876e-05
18 *3325:A *748:12 0
19 *3380:A *3323:D 0.000173097
20 *3380:A *748:12 0.000229443
21 *694:44 *748:12 0
22 *699:8 *748:12 9.90367e-05
23 *722:10 *748:12 6.39262e-05
24 *723:8 *748:12 0.000194299
25 *732:10 *3323:D 5.80706e-06
26 *732:10 *748:12 0.000103993
27 *734:10 *748:12 7.83659e-05
28 *736:14 *748:12 0
29 *741:14 *748:12 0
*RES
1 *3322:X *748:12 36.0679 
2 *748:12 *3323:D 16.5857 
3 *748:12 *3352:B1 13.8 
*END

*D_NET *749 0.00392198
*CONN
*I *3351:A I *D sky130_fd_sc_hd__nor3_2
*I *3342:B I *D sky130_fd_sc_hd__nor4_4
*I *3323:X O *D sky130_fd_sc_hd__or4_4
*CAP
1 *3351:A 0
2 *3342:B 0.000359541
3 *3323:X 0.000510831
4 *749:16 0.000870373
5 *3342:B *3342:C 0.000170955
6 *3342:B *777:8 1.33343e-05
7 *749:16 *3354:A1 0.00020455
8 *749:16 *3382:B 0.000129868
9 *749:16 *3389:A2 3.32442e-05
10 *749:16 *3392:A1 0.000216771
11 *749:16 *3746:A 7.79781e-06
12 *749:16 *776:31 7.71417e-05
13 *749:16 *778:10 2.204e-05
14 *749:16 *781:51 0.000603951
15 *749:16 *781:62 0.000189448
16 *749:16 *806:16 9.23894e-05
17 *3382:A *749:16 0.000419744
*RES
1 *3323:X *749:16 36.0143 
2 *749:16 *3342:B 15.2107 
3 *749:16 *3351:A 9.3 
*END

*D_NET *750 0.00106196
*CONN
*I *3325:B I *D sky130_fd_sc_hd__or2_2
*I *3324:Y O *D sky130_fd_sc_hd__a21oi_1
*CAP
1 *3325:B 0.000196276
2 *3324:Y 0.000196276
3 *3325:B *3295:C 0.000176226
4 *3325:B *1048:46 0.000135028
5 *3325:B *1049:34 0.000295123
6 *741:14 *3325:B 6.30292e-05
*RES
1 *3324:Y *3325:B 32.725 
*END

*D_NET *751 0.0107249
*CONN
*I *3349:A I *D sky130_fd_sc_hd__nor3b_1
*I *3342:A I *D sky130_fd_sc_hd__nor4_4
*I *3348:B1 I *D sky130_fd_sc_hd__a2111oi_2
*I *3377:A I *D sky130_fd_sc_hd__xor2_1
*I *3379:A1 I *D sky130_fd_sc_hd__a41o_1
*I *3325:X O *D sky130_fd_sc_hd__or2_2
*CAP
1 *3349:A 2.55143e-05
2 *3342:A 0
3 *3348:B1 0
4 *3377:A 0.000239218
5 *3379:A1 0.000855467
6 *3325:X 0.000765339
7 *751:36 0.00127959
8 *751:26 0.000510501
9 *751:16 0.000470479
10 *751:14 0.000935734
11 *3349:A *3349:C_N 5.52302e-05
12 *3349:A *3350:B 9.90431e-05
13 *3377:A *3347:B 0.000103285
14 *3377:A *3357:B 0
15 *3377:A *772:8 1.76039e-05
16 *3377:A *780:18 2.6949e-05
17 *3377:A *780:20 4.75521e-05
18 *3377:A *780:26 6.44924e-05
19 *3377:A *780:32 0
20 *3377:A *979:10 0
21 *3379:A1 *3366:A2 0.000565238
22 *3379:A1 *3366:A3 2.83916e-05
23 *3379:A1 *3367:B1 0
24 *3379:A1 *3371:A2 8.3722e-05
25 *3379:A1 *3376:A2_N 2.88517e-05
26 *3379:A1 *3379:A3 0.00014183
27 *3379:A1 *3379:A4 0.000187892
28 *3379:A1 *3379:B1 5.52238e-05
29 *3379:A1 *3405:A1 3.34295e-05
30 *3379:A1 *3460:A 1.97381e-05
31 *3379:A1 *3541:A2 0
32 *3379:A1 *771:26 2.60984e-05
33 *3379:A1 *772:8 4.03318e-05
34 *3379:A1 *781:12 0.000225616
35 *3379:A1 *792:6 5.52302e-05
36 *3379:A1 *800:14 0.000180777
37 *3379:A1 *801:6 6.87574e-05
38 *3379:A1 *802:10 0.000166426
39 *3379:A1 *979:8 0.000102545
40 *751:14 *3390:B 3.90513e-05
41 *751:14 *3393:B 0.000127446
42 *751:14 *3400:B 0.000717247
43 *751:14 *3402:A2_N 0.000150618
44 *751:14 *753:10 0
45 *751:14 *776:18 0
46 *751:14 *781:79 4.038e-06
47 *751:14 *828:12 0.000125476
48 *751:14 *1049:34 0
49 *751:16 *753:12 0
50 *751:16 *753:18 0
51 *751:16 *828:12 0
52 *751:16 *1046:8 5.0725e-05
53 *751:26 *3348:D1 5.33005e-05
54 *751:26 *3355:B 1.74352e-05
55 *751:26 *3657:A1 0.0003895
56 *751:26 *753:18 0.000241966
57 *751:26 *768:8 0.000125316
58 *751:26 *1046:8 9.15186e-06
59 *751:36 *3348:D1 5.52238e-05
60 *751:36 *3371:A2 4.70078e-05
61 *751:36 *3657:A1 7.97875e-05
62 *751:36 *3657:A2 6.05161e-06
63 *751:36 *780:16 6.46086e-05
64 *751:36 *780:18 9.91086e-05
65 *751:36 *781:12 0.000181796
66 *3402:A1_N *751:14 0.00016223
67 *732:6 *751:14 2.59355e-05
68 *736:18 *751:14 9.42015e-05
69 *741:14 *751:14 0.000351573
*RES
1 *3325:X *751:14 33.6393 
2 *751:14 *751:16 2.85714 
3 *751:16 *751:26 13.625 
4 *751:26 *751:36 13.9643 
5 *751:36 *3379:A1 47.5857 
6 *751:36 *3377:A 23.8893 
7 *751:26 *3348:B1 9.3 
8 *751:16 *3342:A 13.8 
9 *751:14 *3349:A 14.7464 
*END

*D_NET *752 0.00134093
*CONN
*I *3327:B I *D sky130_fd_sc_hd__xnor2_2
*I *3329:B1 I *D sky130_fd_sc_hd__o22ai_4
*I *3326:Y O *D sky130_fd_sc_hd__nand2_2
*CAP
1 *3327:B 4.395e-05
2 *3329:B1 0.000237833
3 *3326:Y 0
4 *752:6 0.000281783
5 *3329:B1 *3329:B2 0.000123288
6 *3329:B1 *811:8 0
7 *3329:B1 *990:12 3.22738e-05
8 *3329:B1 *990:14 5.80706e-06
9 *3327:A *3327:B 1.02504e-05
10 *3328:B *3329:B1 5.79855e-05
11 *684:10 *3329:B1 0.00030418
12 *684:23 *3327:B 7.80929e-05
13 *684:23 *3329:B1 1.31516e-05
14 *727:12 *3327:B 0.000142082
15 *727:12 *3329:B1 1.02504e-05
*RES
1 *3326:Y *752:6 13.8 
2 *752:6 *3329:B1 20.05 
3 *752:6 *3327:B 15.7464 
*END

*D_NET *753 0.00754842
*CONN
*I *3349:B I *D sky130_fd_sc_hd__nor3b_1
*I *3342:C I *D sky130_fd_sc_hd__nor4_4
*I *3348:C1 I *D sky130_fd_sc_hd__a2111oi_2
*I *3370:A I *D sky130_fd_sc_hd__xnor2_1
*I *3369:C1 I *D sky130_fd_sc_hd__a211o_1
*I *3327:Y O *D sky130_fd_sc_hd__xnor2_2
*CAP
1 *3349:B 4.40688e-05
2 *3342:C 0.000251755
3 *3348:C1 0
4 *3370:A 6.09155e-05
5 *3369:C1 0.000189512
6 *3327:Y 0.00100797
7 *753:20 0.000525982
8 *753:18 0.000555742
9 *753:12 0.000617518
10 *753:10 0.00113762
11 *3342:C *3748:A 3.18676e-05
12 *3349:B *3350:B 5.33334e-05
13 *3369:C1 *3369:B1 0.000134748
14 *3370:A *3368:A1 0
15 *3370:A *3370:B 3.69047e-06
16 *753:10 *3351:C 5.66157e-05
17 *753:10 *3390:B 0
18 *753:10 *3747:A 7.48356e-05
19 *753:10 *776:18 0.000168226
20 *753:10 *778:10 0.000219188
21 *753:10 *781:79 5.75896e-05
22 *753:10 *815:22 0.000142949
23 *753:10 *815:26 0.000175519
24 *753:12 *3351:C 0.000176234
25 *753:18 *3351:C 9.25014e-06
26 *753:18 *3657:A1 0
27 *753:18 *3747:A 7.33494e-06
28 *753:18 *774:8 0.000353877
29 *753:18 *781:51 3.01126e-05
30 *753:20 *3353:B 0
31 *753:20 *3657:A1 0
32 *753:20 *769:20 0
33 *753:20 *780:18 0
34 *753:20 *781:12 3.2534e-05
35 *753:20 *781:51 1.00375e-05
36 *3314:B *753:10 4.3049e-05
37 *3323:C *753:10 0.000196269
38 *3323:D *753:10 0.00012401
39 *3342:B *3342:C 0.000170955
40 *3343:B1 *753:18 2.11419e-05
41 *3380:A *753:10 9.8804e-05
42 *3392:B1 *753:10 0.000177941
43 *736:14 *753:10 0.000345257
44 *751:14 *753:10 0
45 *751:16 *753:12 0
46 *751:16 *753:18 0
47 *751:26 *753:18 0.000241966
*RES
1 *3327:Y *753:10 35.7821 
2 *753:10 *753:12 2.25 
3 *753:12 *753:18 8.375 
4 *753:18 *753:20 4.375 
5 *753:20 *3369:C1 17.4964 
6 *753:20 *3370:A 14.7643 
7 *753:18 *3348:C1 13.8 
8 *753:12 *3342:C 18.8714 
9 *753:10 *3349:B 14.7464 
*END

*D_NET *754 0.000395703
*CONN
*I *3329:B2 I *D sky130_fd_sc_hd__o22ai_4
*I *3328:X O *D sky130_fd_sc_hd__and3_1
*CAP
1 *3329:B2 0.000104576
2 *3328:X 0.000104576
3 *3328:B *3329:B2 6.32633e-05
4 *3329:B1 *3329:B2 0.000123288
*RES
1 *3328:X *3329:B2 29.7786 
*END

*D_NET *755 0.00624421
*CONN
*I *3349:C_N I *D sky130_fd_sc_hd__nor3b_1
*I *3341:A I *D sky130_fd_sc_hd__nor4_1
*I *3347:A I *D sky130_fd_sc_hd__nor2_1
*I *3372:A I *D sky130_fd_sc_hd__xor2_2
*I *3329:Y O *D sky130_fd_sc_hd__o22ai_4
*CAP
1 *3349:C_N 0.000316555
2 *3341:A 0
3 *3347:A 0.000148126
4 *3372:A 5.42215e-05
5 *3329:Y 0.000224475
6 *755:14 0.000453261
7 *755:10 0.000431225
8 *755:8 0.000721343
9 *3347:A *3347:B 9.90367e-05
10 *3347:A *3368:A1 0.000215166
11 *3347:A *773:6 3.18676e-05
12 *3347:A *796:16 0.000123591
13 *3349:C_N *3350:B 3.82641e-05
14 *3349:C_N *3748:A 0.00018372
15 *3349:C_N *776:18 1.74352e-05
16 *3372:A *796:16 3.14048e-05
17 *755:8 *757:14 0.000740172
18 *755:8 *760:10 0.000176234
19 *755:8 *828:12 0
20 *755:10 *3341:C 0.000126439
21 *755:10 *756:16 3.57844e-05
22 *755:10 *756:18 1.17968e-05
23 *755:10 *757:14 0.00038802
24 *755:10 *760:10 0.000186373
25 *755:10 *760:12 0.000405738
26 *755:10 *760:14 1.02504e-05
27 *755:14 *756:18 7.73662e-05
28 *755:14 *756:24 0.000251163
29 *755:14 *760:14 0.000138939
30 *755:14 *760:22 0.000168939
31 *755:14 *979:8 1.50087e-05
32 *755:14 *979:10 6.95205e-05
33 *3349:A *3349:C_N 5.52302e-05
34 *3404:A *755:8 0.000141356
35 *744:8 *755:8 0.000156186
*RES
1 *3329:Y *755:8 23.3357 
2 *755:8 *755:10 7.71429 
3 *755:10 *755:14 11.6071 
4 *755:14 *3372:A 10.2464 
5 *755:14 *3347:A 14.3714 
6 *755:10 *3341:A 13.8 
7 *755:8 *3349:C_N 19.675 
*END

*D_NET *756 0.00550281
*CONN
*I *3341:B I *D sky130_fd_sc_hd__nor4_1
*I *3345:B I *D sky130_fd_sc_hd__or2_1
*I *3344:B I *D sky130_fd_sc_hd__nor2_1
*I *3363:A I *D sky130_fd_sc_hd__xor2_2
*I *3330:Y O *D sky130_fd_sc_hd__xnor2_2
*CAP
1 *3341:B 2.52056e-05
2 *3345:B 0
3 *3344:B 0
4 *3363:A 0.000606658
5 *3330:Y 0.000518328
6 *756:24 0.00101915
7 *756:18 0.000488971
8 *756:16 0.00062001
9 *3341:B *767:10 5.52302e-05
10 *3363:A *3356:A1 0.000232399
11 *3363:A *3360:B1 0.000200406
12 *3363:A *3361:A2 1.31516e-05
13 *3363:A *3362:A 1.12394e-05
14 *3363:A *3363:B 7.47493e-05
15 *3363:A *780:42 0.000129254
16 *756:16 *3330:B 0.000169383
17 *756:16 *3339:B 1.21289e-05
18 *756:16 *3341:C 5.8061e-05
19 *756:16 *3366:B2 0
20 *756:16 *765:10 0.00016524
21 *756:18 *765:10 8.14342e-05
22 *756:24 *3357:B 0
23 *756:24 *3361:A2 1.76039e-05
24 *756:24 *3372:B 9.80745e-05
25 *756:24 *765:10 0.000245362
26 *756:24 *979:10 0
27 *3337:A *756:16 2.44318e-05
28 *3344:A *3363:A 5.80706e-06
29 *3344:A *756:24 2.26327e-05
30 *3356:B1 *3363:A 2.89016e-05
31 *147:104 *3363:A 0
32 *147:124 *3363:A 0
33 *148:73 *756:16 0
34 *244:19 *756:16 0.000202891
35 *755:10 *756:16 3.57844e-05
36 *755:10 *756:18 1.17968e-05
37 *755:14 *756:18 7.73662e-05
38 *755:14 *756:24 0.000251163
*RES
1 *3330:Y *756:16 25.0679 
2 *756:16 *756:18 2.25 
3 *756:18 *756:24 10.5 
4 *756:24 *3363:A 26.1036 
5 *756:24 *3344:B 13.8 
6 *756:18 *3345:B 13.8 
7 *756:16 *3341:B 14.3357 
*END

*D_NET *757 0.00969184
*CONN
*I *3354:B1_N I *D sky130_fd_sc_hd__o21bai_4
*I *3405:B1 I *D sky130_fd_sc_hd__o21ai_1
*I *3341:C I *D sky130_fd_sc_hd__nor4_1
*I *3331:Y O *D sky130_fd_sc_hd__xnor2_2
*CAP
1 *3354:B1_N 0.000164268
2 *3405:B1 0
3 *3341:C 9.53286e-05
4 *3331:Y 0.000340554
5 *757:29 0.000369345
6 *757:14 0.00173157
7 *757:12 0.00177172
8 *3341:C *3366:B2 0
9 *3341:C *767:10 2.89114e-05
10 *3354:B1_N *3343:A2 0.000162125
11 *3354:B1_N *3405:A2 0.000214198
12 *3354:B1_N *3657:A2 3.34295e-05
13 *3354:B1_N *3657:A3 6.9253e-05
14 *3354:B1_N *780:10 5.58941e-05
15 *3354:B1_N *780:16 1.02504e-05
16 *757:14 *3330:B 0
17 *757:14 *3338:A2 0.000194896
18 *757:14 *3366:B2 0
19 *757:14 *819:14 0.000682105
20 *757:14 *990:10 0.000237789
21 *757:14 *990:12 0.00014534
22 *757:14 *1049:36 0
23 *757:29 *3405:A1 9.87672e-05
24 *757:29 *3405:A2 9.60939e-05
25 *3247:A *757:14 0.000148531
26 *3290:A1 *757:12 2.23093e-06
27 *3290:A1 *757:14 0.000138051
28 *3290:A3 *757:14 0.000105028
29 *3290:A4 *757:14 1.91512e-05
30 *3307:B *757:14 0.000216304
31 *3658:A *757:14 0
32 *684:23 *757:14 2.05938e-05
33 *686:31 *757:14 0
34 *688:19 *757:14 8.51257e-05
35 *694:31 *757:14 5.59013e-05
36 *716:12 *757:12 0.000112402
37 *720:16 *757:14 0.000312458
38 *737:14 *757:14 8.58864e-05
39 *742:12 *757:12 0
40 *744:8 *757:14 0.000575648
41 *746:12 *757:12 0
42 *746:12 *757:14 0
43 *755:8 *757:14 0.000740172
44 *755:10 *3341:C 0.000126439
45 *755:10 *757:14 0.00038802
46 *756:16 *3341:C 5.8061e-05
*RES
1 *3331:Y *757:12 19.7018 
2 *757:12 *757:14 41.7768 
3 *757:14 *3341:C 15.9786 
4 *757:14 *757:29 7.91071 
5 *757:29 *3405:B1 9.3 
6 *757:29 *3354:B1_N 23.0321 
*END

*D_NET *758 0.00538484
*CONN
*I *3341:D I *D sky130_fd_sc_hd__nor4_1
*I *3332:X O *D sky130_fd_sc_hd__or3b_1
*CAP
1 *3341:D 0
2 *3332:X 0.0019913
3 *758:16 0.0019913
4 *758:16 *1112:DIODE 0.000181335
5 *758:16 *3387:A 2.88018e-06
6 *758:16 *3455:B 4.43256e-05
7 *758:16 *3456:A1 3.80385e-05
8 *758:16 *3456:A2 9.90367e-05
9 *758:16 *3456:B1 9.90367e-05
10 *758:16 *3457:B1 2.28598e-05
11 *758:16 *3535:A1 9.45735e-05
12 *758:16 *3535:B1 5.33005e-05
13 *758:16 *3537:A 3.65069e-05
14 *758:16 *767:10 3.69047e-06
15 *758:16 *939:16 6.42095e-05
16 *758:16 *997:30 0.000358971
17 *758:16 *1059:12 6.53427e-05
18 *758:16 *1059:14 1.52978e-05
19 *3455:A *758:16 5.33005e-05
20 *369:169 *758:16 0.000169529
*RES
1 *3332:X *758:16 46.2821 
2 *758:16 *3341:D 9.3 
*END

*D_NET *759 0.000915672
*CONN
*I *3334:B I *D sky130_fd_sc_hd__xor2_2
*I *3336:A I *D sky130_fd_sc_hd__or2_1
*I *3340:A I *D sky130_fd_sc_hd__nor4_1
*I *3333:X O *D sky130_fd_sc_hd__and2_1
*CAP
1 *3334:B 7.65059e-05
2 *3336:A 0
3 *3340:A 3.55984e-05
4 *3333:X 0
5 *759:10 0.000220373
6 *759:6 0.000261281
7 *3334:B *761:12 4.48113e-05
8 *3340:A *3340:C 7.32272e-05
9 *3340:A *766:6 4.72818e-05
10 *759:10 *3336:B 3.31876e-05
11 *759:10 *761:12 6.81756e-05
12 *759:10 *1049:36 0
13 *3337:A *3340:A 5.52302e-05
14 *3338:B1 *759:10 0
15 *680:8 *3334:B 0
16 *680:8 *759:10 0
*RES
1 *3333:X *759:6 13.8 
2 *759:6 *759:10 7.96429 
3 *759:10 *3340:A 10.6571 
4 *759:10 *3336:A 9.3 
5 *759:6 *3334:B 6.14286 
*END

*D_NET *760 0.00623866
*CONN
*I *3342:D I *D sky130_fd_sc_hd__nor4_4
*I *3348:D1 I *D sky130_fd_sc_hd__a2111oi_2
*I *3346:B1 I *D sky130_fd_sc_hd__a21oi_1
*I *3374:A I *D sky130_fd_sc_hd__nand3_1
*I *3375:B1 I *D sky130_fd_sc_hd__o2bb2a_1
*I *3376:A1_N I *D sky130_fd_sc_hd__a2bb2o_1
*I *3334:X O *D sky130_fd_sc_hd__xor2_2
*CAP
1 *3342:D 0
2 *3348:D1 0.000319733
3 *3346:B1 0
4 *3374:A 2.72966e-05
5 *3375:B1 0
6 *3376:A1_N 0.000169763
7 *3334:X 0.000330967
8 *760:47 0.000456571
9 *760:22 0.000295327
10 *760:14 0.000202867
11 *760:12 0.000334831
12 *760:10 0.000478953
13 *3348:D1 *3348:A1 8.46829e-05
14 *3348:D1 *3348:A2 0
15 *3348:D1 *3355:B 3.22765e-05
16 *3348:D1 *3657:A1 0.000126446
17 *3348:D1 *3657:A2 0.000101545
18 *3348:D1 *767:10 0.000139019
19 *3348:D1 *780:10 1.21258e-05
20 *3348:D1 *780:16 6.8646e-06
21 *3374:A *3366:A2 9.60875e-05
22 *3374:A *3374:B 5.52238e-05
23 *3374:A *771:8 1.98839e-05
24 *3376:A1_N *3375:A1_N 0.000107933
25 *3376:A1_N *3376:A2_N 5.52238e-05
26 *3376:A1_N *3376:B2 0.000131163
27 *3376:A1_N *781:12 1.5424e-05
28 *3376:A1_N *781:16 0.000129991
29 *3376:A1_N *797:6 3.14163e-05
30 *3376:A1_N *797:8 1.21258e-05
31 *3376:A1_N *801:6 0.000270326
32 *760:10 *3350:A 0
33 *760:10 *3748:A 0
34 *760:10 *828:12 0
35 *760:10 *830:20 9.80173e-05
36 *760:10 *1047:12 0
37 *760:10 *1049:34 3.82242e-05
38 *760:12 *3405:A1 0.000247786
39 *760:12 *832:16 0
40 *760:14 *3405:A1 0.000148911
41 *760:22 *3371:A2 5.30637e-06
42 *760:22 *3405:A1 5.57e-05
43 *760:22 *781:12 9.60875e-05
44 *760:22 *797:6 1.74903e-05
45 *760:22 *979:8 5.01213e-05
46 *760:47 *3346:A1 5.49489e-05
47 *760:47 *3348:A1 5.33005e-05
48 *760:47 *767:10 0.000133705
49 *751:26 *3348:D1 5.33005e-05
50 *751:36 *3348:D1 5.52238e-05
51 *755:8 *760:10 0.000176234
52 *755:10 *760:10 0.000186373
53 *755:10 *760:12 0.000405738
54 *755:10 *760:14 1.02504e-05
55 *755:14 *760:14 0.000138939
56 *755:14 *760:22 0.000168939
*RES
1 *3334:X *760:10 20.6571 
2 *760:10 *760:12 5.28571 
3 *760:12 *760:14 1.94643 
4 *760:14 *760:22 8.125 
5 *760:22 *3376:A1_N 14.7643 
6 *760:22 *3375:B1 9.3 
7 *760:14 *3374:A 14.7464 
8 *760:12 *760:47 7.08929 
9 *760:47 *3346:B1 9.3 
10 *760:47 *3348:D1 25.1393 
11 *760:10 *3342:D 13.8 
*END

*D_NET *761 0.00252887
*CONN
*I *3336:B I *D sky130_fd_sc_hd__or2_1
*I *3340:B I *D sky130_fd_sc_hd__nor4_1
*I *3335:Y O *D sky130_fd_sc_hd__a21oi_1
*CAP
1 *3336:B 7.89675e-05
2 *3340:B 6.59684e-05
3 *3335:Y 0.000502614
4 *761:12 0.00064755
5 *3340:B *3340:C 9.90367e-05
6 *761:12 *3340:C 0.000215102
7 *761:12 *1049:34 0
8 *761:12 *1049:36 0
9 *3258:A3 *761:12 4.46186e-06
10 *3328:B *761:12 9.40095e-05
11 *3333:A *761:12 0.000503621
12 *3334:A *761:12 0.000128919
13 *3334:B *761:12 4.48113e-05
14 *3337:A *3336:B 9.54798e-06
15 *3337:B *761:12 3.28967e-05
16 *3338:B1 *3336:B 0
17 *759:10 *3336:B 3.31876e-05
18 *759:10 *761:12 6.81756e-05
*RES
1 *3335:Y *761:12 30.0143 
2 *761:12 *3340:B 10.2464 
3 *761:12 *3336:B 19.6393 
*END

*D_NET *762 0.00127948
*CONN
*I *3366:B2 I *D sky130_fd_sc_hd__a32o_1
*I *3336:X O *D sky130_fd_sc_hd__or2_1
*CAP
1 *3366:B2 0.000363774
2 *3336:X 0.000363774
3 *3366:B2 *3330:B 6.42338e-05
4 *3366:B2 *3339:A 0.000143883
5 *3366:B2 *3340:C 5.33334e-05
6 *3366:B2 *3366:B1 4.46186e-06
7 *3366:B2 *3749:A 6.87146e-05
8 *3366:B2 *763:6 1.98839e-05
9 *3366:B2 *765:10 0.000111478
10 *3366:B2 *766:16 0
11 *3366:B2 *1049:36 1.85502e-05
12 *3337:A *3366:B2 5.71472e-05
13 *3341:C *3366:B2 0
14 *3345:A *3366:B2 1.02504e-05
15 *756:16 *3366:B2 0
16 *757:14 *3366:B2 0
*RES
1 *3336:X *3366:B2 36.0643 
*END

*D_NET *763 0.00151165
*CONN
*I *3339:A I *D sky130_fd_sc_hd__or2_1
*I *3340:C I *D sky130_fd_sc_hd__nor4_1
*I *3337:X O *D sky130_fd_sc_hd__and3_1
*CAP
1 *3339:A 0.000171384
2 *3340:C 0.000108876
3 *3337:X 8.04369e-05
4 *763:6 0.000360697
5 *3339:A *3330:B 5.52238e-05
6 *3339:A *766:16 3.34672e-05
7 *3339:A *1049:36 1.14483e-05
8 *3340:C *766:6 2.65105e-05
9 *763:6 *3749:A 2.95726e-05
10 *3337:A *3339:A 0
11 *3337:A *3340:C 2.95641e-05
12 *3340:A *3340:C 7.32272e-05
13 *3340:B *3340:C 9.90367e-05
14 *3366:B2 *3339:A 0.000143883
15 *3366:B2 *3340:C 5.33334e-05
16 *3366:B2 *763:6 1.98839e-05
17 *761:12 *3340:C 0.000215102
*RES
1 *3337:X *763:6 10.6571 
2 *763:6 *3340:C 13.1214 
3 *763:6 *3339:A 21.3893 
*END

*D_NET *764 0.00133421
*CONN
*I *3340:D I *D sky130_fd_sc_hd__nor4_1
*I *3339:B I *D sky130_fd_sc_hd__or2_1
*I *3338:Y O *D sky130_fd_sc_hd__a21oi_1
*CAP
1 *3340:D 0
2 *3339:B 0.000290786
3 *3338:Y 0.000119316
4 *764:8 0.000410103
5 *3339:B *3330:B 0.00014183
6 *3339:B *826:32 4.35248e-05
7 *3337:A *3339:B 5.52238e-05
8 *3338:B1 *764:8 2.89016e-05
9 *244:19 *3339:B 0.000232399
10 *756:16 *3339:B 1.21289e-05
*RES
1 *3338:Y *764:8 11.2821 
2 *764:8 *3339:B 24.175 
3 *764:8 *3340:D 9.3 
*END

*D_NET *765 0.00286254
*CONN
*I *3361:C1 I *D sky130_fd_sc_hd__a211o_1
*I *3362:A I *D sky130_fd_sc_hd__xnor2_1
*I *3339:X O *D sky130_fd_sc_hd__or2_1
*CAP
1 *3361:C1 0
2 *3362:A 0.000149753
3 *3339:X 0.000535567
4 *765:10 0.000685319
5 *765:10 *3372:B 0.000125717
6 *765:10 *800:14 0.000168939
7 *3344:A *3362:A 1.02504e-05
8 *3344:A *765:10 5.58941e-05
9 *3345:A *765:10 0.000282876
10 *3363:A *3362:A 1.12394e-05
11 *3366:B2 *765:10 0.000111478
12 *147:124 *3362:A 0.000210835
13 *147:124 *765:10 2.26327e-05
14 *756:16 *765:10 0.00016524
15 *756:18 *765:10 8.14342e-05
16 *756:24 *765:10 0.000245362
*RES
1 *3339:X *765:10 28.1214 
2 *765:10 *3362:A 17.3179 
3 *765:10 *3361:C1 13.8 
*END

*D_NET *766 0.00308358
*CONN
*I *3749:A I *D sky130_fd_sc_hd__buf_1
*I *3374:B I *D sky130_fd_sc_hd__nand3_1
*I *3366:A1 I *D sky130_fd_sc_hd__a32o_1
*I *3340:Y O *D sky130_fd_sc_hd__nor4_1
*CAP
1 *3749:A 0.000214186
2 *3374:B 0.00014184
3 *3366:A1 0
4 *3340:Y 0.000222209
5 *766:16 0.000529867
6 *766:6 0.000824422
7 *3374:B *3366:A2 0.000139686
8 *3374:B *3366:B1 2.39852e-05
9 *3374:B *771:8 0.000268403
10 *3749:A *3337:C 8.55713e-05
11 *766:16 *3366:A2 1.74352e-05
12 *3337:A *3749:A 9.90431e-05
13 *3337:A *766:6 9.71197e-05
14 *3337:A *766:16 6.19181e-05
15 *3339:A *766:16 3.34672e-05
16 *3340:A *766:6 4.72818e-05
17 *3340:C *766:6 2.65105e-05
18 *3345:A *3374:B 9.71197e-05
19 *3366:B2 *3749:A 6.87146e-05
20 *3366:B2 *766:16 0
21 *3374:A *3374:B 5.52238e-05
22 *763:6 *3749:A 2.95726e-05
*RES
1 *3340:Y *766:6 12.3 
2 *766:6 *766:16 15.8571 
3 *766:16 *3366:A1 9.3 
4 *766:16 *3374:B 13.5321 
5 *766:6 *3749:A 13.2821 
*END

*D_NET *767 0.00276974
*CONN
*I *3343:A2 I *D sky130_fd_sc_hd__a31oi_4
*I *3657:A2 I *D sky130_fd_sc_hd__a31oi_1
*I *3341:Y O *D sky130_fd_sc_hd__nor4_1
*CAP
1 *3343:A2 7.93959e-05
2 *3657:A2 0.000297584
3 *3341:Y 0.000356866
4 *767:10 0.000733845
5 *3343:A2 *3657:A1 0.00010122
6 *3343:A2 *3657:A3 6.88463e-06
7 *3343:A2 *1046:8 2.83284e-06
8 *3657:A2 *3348:A2 0.000221634
9 *3657:A2 *3657:A1 4.06898e-05
10 *3657:A2 *780:16 5.84267e-05
11 *767:10 *780:10 9.41642e-05
12 *767:10 *832:16 0.000112496
13 *3341:B *767:10 5.52302e-05
14 *3341:C *767:10 2.89114e-05
15 *3348:D1 *3657:A2 0.000101545
16 *3348:D1 *767:10 0.000139019
17 *3354:B1_N *3343:A2 0.000162125
18 *3354:B1_N *3657:A2 3.34295e-05
19 *751:36 *3657:A2 6.05161e-06
20 *758:16 *767:10 3.69047e-06
21 *760:47 *767:10 0.000133705
*RES
1 *3341:Y *767:10 21.3357 
2 *767:10 *3657:A2 18.7464 
3 *767:10 *3343:A2 16.3536 
*END

*D_NET *768 0.00231255
*CONN
*I *3343:A1 I *D sky130_fd_sc_hd__a31oi_4
*I *3657:A1 I *D sky130_fd_sc_hd__a31oi_1
*I *3342:Y O *D sky130_fd_sc_hd__nor4_4
*CAP
1 *3343:A1 5.36271e-05
2 *3657:A1 0.000460443
3 *3342:Y 6.76438e-05
4 *768:8 0.000581714
5 *3343:A1 *3405:A2 4.87953e-05
6 *3657:A1 *3348:A2 3.92998e-05
7 *3657:A1 *3355:B 0.000139907
8 *3657:A1 *3366:A2 3.99614e-06
9 *3657:A1 *3657:A3 5.41609e-05
10 *3657:A1 *780:16 0
11 *768:8 *1046:8 0
12 *3343:A2 *3657:A1 0.00010122
13 *3348:D1 *3657:A1 0.000126446
14 *3657:A2 *3657:A1 4.06898e-05
15 *751:26 *3657:A1 0.0003895
16 *751:26 *768:8 0.000125316
17 *751:36 *3657:A1 7.97875e-05
18 *753:18 *3657:A1 0
19 *753:20 *3657:A1 0
*RES
1 *3342:Y *768:8 15.4429 
2 *768:8 *3657:A1 24.9071 
3 *768:8 *3343:A1 14.7464 
*END

*D_NET *769 0.00710011
*CONN
*I *3355:A I *D sky130_fd_sc_hd__nand2_2
*I *3369:A1 I *D sky130_fd_sc_hd__a211o_1
*I *3360:A1 I *D sky130_fd_sc_hd__a21o_1
*I *3361:A1 I *D sky130_fd_sc_hd__a211o_1
*I *3356:A2 I *D sky130_fd_sc_hd__a21o_1
*I *3343:Y O *D sky130_fd_sc_hd__a31oi_4
*CAP
1 *3355:A 4.26984e-05
2 *3369:A1 0
3 *3360:A1 0
4 *3361:A1 0.000316805
5 *3356:A2 0.000344018
6 *3343:Y 0.000139321
7 *769:28 0.000660823
8 *769:26 0.000491003
9 *769:20 0.000981924
10 *769:10 0.00067294
11 *3356:A2 *3356:A1 4.42227e-05
12 *3356:A2 *3357:B 0.000415684
13 *3356:A2 *780:42 0.00010326
14 *3361:A1 *3357:B 0.000198698
15 *3361:A1 *3360:B1 8.27532e-05
16 *3361:A1 *3361:A2 0.000226497
17 *3361:A1 *3361:B1 0.000162625
18 *3361:A1 *780:42 2.31791e-05
19 *769:10 *3353:A 0.00034321
20 *769:10 *3353:B 0.000166983
21 *769:10 *3354:A1 0.000101545
22 *769:10 *3405:A2 3.55503e-05
23 *769:20 *3353:A 0.000227729
24 *769:20 *3353:B 0.0002253
25 *769:20 *3369:B1 0.000134748
26 *769:20 *3405:A2 1.72894e-05
27 *769:20 *780:18 2.8266e-06
28 *769:20 *780:20 4.94362e-05
29 *769:20 *780:26 8.5975e-05
30 *769:20 *781:12 8.85869e-05
31 *769:26 *3369:B1 5.80706e-06
32 *769:26 *780:26 4.46186e-06
33 *769:26 *780:32 0.000650911
34 *769:26 *780:36 5.33005e-05
35 *753:20 *769:20 0
*RES
1 *3343:Y *769:10 18.7107 
2 *769:10 *769:20 21.0714 
3 *769:20 *769:26 15.25 
4 *769:26 *769:28 4.5 
5 *769:28 *3356:A2 19.6929 
6 *769:28 *3361:A1 20.9071 
7 *769:26 *3360:A1 9.3 
8 *769:20 *3369:A1 13.8 
9 *769:10 *3355:A 14.3357 
*END

*D_NET *770 0.00102877
*CONN
*I *3360:B1 I *D sky130_fd_sc_hd__a21o_1
*I *3361:B1 I *D sky130_fd_sc_hd__a211o_1
*I *3344:Y O *D sky130_fd_sc_hd__nor2_1
*CAP
1 *3360:B1 8.23438e-05
2 *3361:B1 4.794e-05
3 *3344:Y 0
4 *770:4 0.000130284
5 *3360:B1 *3361:A2 0.000238941
6 *3360:B1 *780:42 1.02504e-05
7 *3361:B1 *3361:A2 7.32272e-05
8 *3361:A1 *3360:B1 8.27532e-05
9 *3361:A1 *3361:B1 0.000162625
10 *3363:A *3360:B1 0.000200406
*RES
1 *3344:Y *770:4 9.3 
2 *770:4 *3361:B1 11.0857 
3 *770:4 *3360:B1 21.8 
*END

*D_NET *771 0.00326747
*CONN
*I *3348:A2 I *D sky130_fd_sc_hd__a2111oi_2
*I *3346:A2 I *D sky130_fd_sc_hd__a21oi_1
*I *3374:C I *D sky130_fd_sc_hd__nand3_1
*I *3366:A2 I *D sky130_fd_sc_hd__a32o_1
*I *3345:X O *D sky130_fd_sc_hd__or2_1
*CAP
1 *3348:A2 0.000127133
2 *3346:A2 6.79507e-05
3 *3374:C 0
4 *3366:A2 0.000184977
5 *3345:X 0.000276413
6 *771:26 0.000254941
7 *771:8 0.000521247
8 *3346:A2 *3405:A1 3.19998e-05
9 *3346:A2 *772:8 2.83786e-05
10 *3346:A2 *1047:12 2.86991e-05
11 *3348:A2 *3657:A3 0.000137983
12 *3366:A2 *3366:B1 2.39852e-05
13 *3345:A *3366:A2 9.71197e-05
14 *3348:D1 *3348:A2 0
15 *3374:A *3366:A2 9.60875e-05
16 *3374:A *771:8 1.98839e-05
17 *3374:B *3366:A2 0.000139686
18 *3374:B *771:8 0.000268403
19 *3379:A1 *3366:A2 0.000565238
20 *3379:A1 *771:26 2.60984e-05
21 *3657:A1 *3348:A2 3.92998e-05
22 *3657:A1 *3366:A2 3.99614e-06
23 *3657:A2 *3348:A2 0.000221634
24 *3657:B1 *3346:A2 8.88838e-05
25 *766:16 *3366:A2 1.74352e-05
*RES
1 *3345:X *771:8 13.1393 
2 *771:8 *3366:A2 15.925 
3 *771:8 *3374:C 9.3 
4 *771:8 *771:26 0.946429 
5 *771:26 *3346:A2 20.2464 
6 *771:26 *3348:A2 12.7286 
*END

*D_NET *772 0.00131911
*CONN
*I *3371:B1 I *D sky130_fd_sc_hd__a21oi_2
*I *3347:B I *D sky130_fd_sc_hd__nor2_1
*I *3346:Y O *D sky130_fd_sc_hd__a21oi_1
*CAP
1 *3371:B1 0
2 *3347:B 0.000145317
3 *3346:Y 0.000235907
4 *772:8 0.000381223
5 *3347:B *796:16 5.03772e-05
6 *3347:B *979:8 0
7 *3347:B *979:10 0
8 *772:8 *3348:A1 7.17836e-05
9 *772:8 *3405:A1 0
10 *772:8 *3406:B 3.07555e-05
11 *772:8 *3657:A3 1.18451e-05
12 *772:8 *780:16 0
13 *772:8 *979:8 0
14 *772:8 *1047:12 0.000103267
15 *3346:A2 *772:8 2.83786e-05
16 *3347:A *3347:B 9.90367e-05
17 *3377:A *3347:B 0.000103285
18 *3377:A *772:8 1.76039e-05
19 *3379:A1 *772:8 4.03318e-05
20 *3657:B1 *772:8 0
*RES
1 *3346:Y *772:8 19.0857 
2 *772:8 *3347:B 17.3 
3 *772:8 *3371:B1 13.8 
*END

*D_NET *773 0.00101651
*CONN
*I *3369:B1 I *D sky130_fd_sc_hd__a211o_1
*I *3368:B1 I *D sky130_fd_sc_hd__a21oi_1
*I *3347:Y O *D sky130_fd_sc_hd__nor2_1
*CAP
1 *3369:B1 0.000121735
2 *3368:B1 0
3 *3347:Y 6.41587e-05
4 *773:6 0.000185893
5 *3369:B1 *3370:B 2.95726e-05
6 *3369:B1 *796:16 5.52302e-05
7 *773:6 *3368:A1 2.15245e-05
8 *773:6 *3370:B 3.69047e-06
9 *773:6 *796:16 0.000227532
10 *3347:A *773:6 3.18676e-05
11 *3369:C1 *3369:B1 0.000134748
12 *769:20 *3369:B1 0.000134748
13 *769:26 *3369:B1 5.80706e-06
*RES
1 *3347:Y *773:6 11.4786 
2 *773:6 *3368:B1 9.3 
3 *773:6 *3369:B1 22.4071 
*END

*D_NET *774 0.00248221
*CONN
*I *3747:A I *D sky130_fd_sc_hd__clkbuf_1
*I *3351:B I *D sky130_fd_sc_hd__nor3_2
*I *3348:Y O *D sky130_fd_sc_hd__a2111oi_2
*CAP
1 *3747:A 0.000288168
2 *3351:B 0
3 *3348:Y 0.000156373
4 *774:8 0.000444542
5 *3747:A *3351:C 0.000227729
6 *3747:A *778:10 0.000397134
7 *3747:A *808:14 5.71472e-05
8 *774:8 *778:10 0.000391583
9 *774:8 *781:51 6.39901e-05
10 *3343:B1 *774:8 1.94945e-05
11 *753:10 *3747:A 7.48356e-05
12 *753:18 *3747:A 7.33494e-06
13 *753:18 *774:8 0.000353877
*RES
1 *3348:Y *774:8 20.3 
2 *774:8 *3351:B 13.8 
3 *774:8 *3747:A 21.7821 
*END

*D_NET *775 0.0017348
*CONN
*I *3351:C I *D sky130_fd_sc_hd__nor3_2
*I *3350:B I *D sky130_fd_sc_hd__nor2_1
*I *3349:Y O *D sky130_fd_sc_hd__nor3b_1
*CAP
1 *3351:C 0.00010071
2 *3350:B 0.000145191
3 *3349:Y 0
4 *775:4 0.000245901
5 *3350:B *3748:A 0.00018372
6 *3350:B *776:18 0.000398815
7 *3349:A *3350:B 9.90431e-05
8 *3349:B *3350:B 5.33334e-05
9 *3349:C_N *3350:B 3.82641e-05
10 *3747:A *3351:C 0.000227729
11 *753:10 *3351:C 5.66157e-05
12 *753:12 *3351:C 0.000176234
13 *753:18 *3351:C 9.25014e-06
*RES
1 *3349:Y *775:4 9.3 
2 *775:4 *3350:B 14.3714 
3 *775:4 *3351:C 21.6929 
*END

*D_NET *776 0.00456677
*CONN
*I *3389:A2 I *D sky130_fd_sc_hd__a21o_1
*I *3380:B I *D sky130_fd_sc_hd__nand2_1
*I *3381:A I *D sky130_fd_sc_hd__nand2_1
*I *3350:Y O *D sky130_fd_sc_hd__nor2_1
*CAP
1 *3389:A2 0.000483187
2 *3380:B 0
3 *3381:A 0
4 *3350:Y 0.000662152
5 *776:31 0.00089357
6 *776:18 0.00107254
7 *3389:A2 *806:16 0.000177941
8 *776:18 *826:16 3.32631e-05
9 *776:31 *3381:B 5.33005e-05
10 *776:31 *3392:A1 0.000226021
11 *776:31 *781:62 0.000176234
12 *776:31 *826:16 0
13 *3349:C_N *776:18 1.74352e-05
14 *3350:B *776:18 0.000398815
15 *3400:A *776:18 0
16 *722:10 *3389:A2 0
17 *736:14 *3389:A2 9.37018e-05
18 *749:16 *3389:A2 3.32442e-05
19 *749:16 *776:31 7.71417e-05
20 *751:14 *776:18 0
21 *753:10 *776:18 0.000168226
*RES
1 *3350:Y *776:18 29.7464 
2 *776:18 *3381:A 9.3 
3 *776:18 *776:31 13.5 
4 *776:31 *3380:B 13.8 
5 *776:31 *3389:A2 23.6929 
*END

*D_NET *777 0.00231168
*CONN
*I *3746:A I *D sky130_fd_sc_hd__clkbuf_2
*I *3353:A I *D sky130_fd_sc_hd__nor2_1
*I *3351:Y O *D sky130_fd_sc_hd__nor3_2
*CAP
1 *3746:A 0.000264881
2 *3353:A 0.000358052
3 *3351:Y 0.000125631
4 *777:8 0.000748564
5 *3353:A *3354:A1 8.89289e-05
6 *3746:A *3354:A1 0.000133553
7 *3342:B *777:8 1.33343e-05
8 *749:16 *3746:A 7.79781e-06
9 *769:10 *3353:A 0.00034321
10 *769:20 *3353:A 0.000227729
*RES
1 *3351:Y *777:8 15.1571 
2 *777:8 *3353:A 23.0321 
3 *777:8 *3746:A 19.0321 
*END

*D_NET *778 0.00549746
*CONN
*I *3353:B I *D sky130_fd_sc_hd__nor2_1
*I *3354:A2 I *D sky130_fd_sc_hd__o21bai_4
*I *3352:X O *D sky130_fd_sc_hd__a21o_1
*CAP
1 *3353:B 0.000218733
2 *3354:A2 0
3 *3352:X 0.000531016
4 *778:10 0.000749749
5 *3353:B *3354:A1 3.69047e-06
6 *3353:B *3405:A2 0.000320738
7 *778:10 *781:51 0.000728686
8 *3380:A *778:10 0.000317616
9 *3382:A *778:10 0.000967214
10 *3392:B1 *778:10 9.56968e-05
11 *3747:A *778:10 0.000397134
12 *722:10 *778:10 0.00014209
13 *749:16 *778:10 2.204e-05
14 *753:10 *778:10 0.000219188
15 *753:20 *3353:B 0
16 *769:10 *3353:B 0.000166983
17 *769:20 *3353:B 0.0002253
18 *774:8 *778:10 0.000391583
*RES
1 *3352:X *778:10 42.1036 
2 *778:10 *3354:A2 9.3 
3 *778:10 *3353:B 24.6393 
*END

*D_NET *779 0.00275253
*CONN
*I *3405:A2 I *D sky130_fd_sc_hd__o21ai_1
*I *3353:Y O *D sky130_fd_sc_hd__nor2_1
*CAP
1 *3405:A2 0.000614459
2 *3353:Y 0.000614459
3 *3405:A2 *3354:A1 0.00010326
4 *3405:A2 *3406:B 0.000140933
5 *3405:A2 *781:12 0.00010326
6 *3405:A2 *781:51 0.000394712
7 *3343:A1 *3405:A2 4.87953e-05
8 *3343:B1 *3405:A2 4.87854e-05
9 *3353:B *3405:A2 0.000320738
10 *3354:B1_N *3405:A2 0.000214198
11 *757:29 *3405:A2 9.60939e-05
12 *769:10 *3405:A2 3.55503e-05
13 *769:20 *3405:A2 1.72894e-05
*RES
1 *3353:Y *3405:A2 41.85 
*END

*D_NET *780 0.00793957
*CONN
*I *3406:A I *D sky130_fd_sc_hd__nand2_1
*I *3355:B I *D sky130_fd_sc_hd__nand2_2
*I *3371:A2 I *D sky130_fd_sc_hd__a21oi_2
*I *3368:A2 I *D sky130_fd_sc_hd__a21oi_1
*I *3369:A2 I *D sky130_fd_sc_hd__a211o_1
*I *3360:A2 I *D sky130_fd_sc_hd__a21o_1
*I *3361:A2 I *D sky130_fd_sc_hd__a211o_1
*I *3357:C I *D sky130_fd_sc_hd__nand3_1
*I *3356:A1 I *D sky130_fd_sc_hd__a21o_1
*I *3354:Y O *D sky130_fd_sc_hd__o21bai_4
*CAP
1 *3406:A 0
2 *3355:B 0.000342327
3 *3371:A2 0.000255744
4 *3368:A2 0
5 *3369:A2 3.72704e-05
6 *3360:A2 0
7 *3361:A2 0.000288207
8 *3357:C 0
9 *3356:A1 8.18317e-05
10 *3354:Y 0.00010297
11 *780:42 0.000207391
12 *780:36 0.000475739
13 *780:32 0.000411642
14 *780:26 0.000563536
15 *780:20 0.000252939
16 *780:18 0.000436121
17 *780:16 0.000610428
18 *780:10 0.000267035
19 *3356:A1 *3357:B 4.88637e-05
20 *3361:A2 *3357:B 3.90513e-05
21 *3371:A2 *3375:A1_N 0
22 *3371:A2 *781:12 3.07455e-05
23 *3371:A2 *797:6 9.90367e-05
24 *780:10 *3657:A3 4.73656e-05
25 *780:16 *3348:A1 1.3142e-05
26 *780:16 *3657:A3 0.000170661
27 *780:32 *3357:B 0
28 *780:42 *3357:B 0.000194556
29 *3344:A *3361:A2 0.000137983
30 *3348:D1 *3355:B 3.22765e-05
31 *3348:D1 *780:10 1.21258e-05
32 *3348:D1 *780:16 6.8646e-06
33 *3354:B1_N *780:10 5.58941e-05
34 *3354:B1_N *780:16 1.02504e-05
35 *3356:A2 *3356:A1 4.42227e-05
36 *3356:A2 *780:42 0.00010326
37 *3360:B1 *3361:A2 0.000238941
38 *3360:B1 *780:42 1.02504e-05
39 *3361:A1 *3361:A2 0.000226497
40 *3361:A1 *780:42 2.31791e-05
41 *3361:B1 *3361:A2 7.32272e-05
42 *3363:A *3356:A1 0.000232399
43 *3363:A *3361:A2 1.31516e-05
44 *3363:A *780:42 0.000129254
45 *3377:A *780:18 2.6949e-05
46 *3377:A *780:20 4.75521e-05
47 *3377:A *780:26 6.44924e-05
48 *3377:A *780:32 0
49 *3379:A1 *3371:A2 8.3722e-05
50 *3657:A1 *3355:B 0.000139907
51 *3657:A1 *780:16 0
52 *3657:A2 *780:16 5.84267e-05
53 *751:26 *3355:B 1.74352e-05
54 *751:36 *3371:A2 4.70078e-05
55 *751:36 *780:16 6.46086e-05
56 *751:36 *780:18 9.91086e-05
57 *753:20 *780:18 0
58 *756:24 *3361:A2 1.76039e-05
59 *760:22 *3371:A2 5.30637e-06
60 *767:10 *780:10 9.41642e-05
61 *769:20 *780:18 2.8266e-06
62 *769:20 *780:20 4.94362e-05
63 *769:20 *780:26 8.5975e-05
64 *769:26 *780:26 4.46186e-06
65 *769:26 *780:32 0.000650911
66 *769:26 *780:36 5.33005e-05
67 *772:8 *780:16 0
*RES
1 *3354:Y *780:10 15.8893 
2 *780:10 *780:16 3.82143 
3 *780:16 *780:18 2.25 
4 *780:18 *780:20 1.94643 
5 *780:20 *780:26 3.51786 
6 *780:26 *780:32 13.7143 
7 *780:32 *780:36 5.44643 
8 *780:36 *780:42 8.51786 
9 *780:42 *3356:A1 12.3357 
10 *780:42 *3357:C 9.3 
11 *780:36 *3361:A2 21.2107 
12 *780:32 *3360:A2 9.3 
13 *780:26 *3369:A2 14.3357 
14 *780:20 *3368:A2 13.8 
15 *780:18 *3371:A2 18.8714 
16 *780:16 *3355:B 18.7821 
17 *780:10 *3406:A 13.8 
*END

*D_NET *781 0.0128174
*CONN
*I *3392:A1 I *D sky130_fd_sc_hd__a21o_1
*I *3398:B1_N I *D sky130_fd_sc_hd__a21boi_2
*I *3384:A1 I *D sky130_fd_sc_hd__a21oi_1
*I *3383:B I *D sky130_fd_sc_hd__and3_1
*I *3391:B I *D sky130_fd_sc_hd__nand3_1
*I *3390:A I *D sky130_fd_sc_hd__nand2_1
*I *3381:B I *D sky130_fd_sc_hd__nand2_1
*I *3375:B2 I *D sky130_fd_sc_hd__o2bb2a_1
*I *3366:A3 I *D sky130_fd_sc_hd__a32o_1
*I *3376:A2_N I *D sky130_fd_sc_hd__a2bb2o_1
*I *3355:Y O *D sky130_fd_sc_hd__nand2_2
*CAP
1 *3392:A1 0.000186242
2 *3398:B1_N 5.08741e-05
3 *3384:A1 9.09912e-05
4 *3383:B 0
5 *3391:B 0
6 *3390:A 0.000114935
7 *3381:B 2.9238e-05
8 *3375:B2 0
9 *3366:A3 9.54616e-05
10 *3376:A2_N 6.61511e-05
11 *3355:Y 0
12 *781:94 0.000735607
13 *781:92 0.000931219
14 *781:79 0.000363376
15 *781:66 0.000531997
16 *781:62 0.000537061
17 *781:51 0.000600334
18 *781:16 0.000484796
19 *781:12 0.00113027
20 *781:6 0.00131677
21 *3366:A3 *3366:B1 5.26184e-05
22 *3376:A2_N *3366:B1 2.34204e-05
23 *3384:A1 *3383:C 0
24 *3384:A1 *3384:A2 0.000144773
25 *3384:A1 *3385:B 1.3701e-05
26 *3384:A1 *809:8 0.00010096
27 *3392:A1 *3392:A2 2.59355e-05
28 *3398:B1_N *806:16 2.89016e-05
29 *781:16 *801:6 0.000183726
30 *781:51 *3354:A1 0.000110386
31 *781:79 *3390:B 0.00015134
32 *781:79 *3402:A2_N 2.26327e-05
33 *781:79 *3402:B1 0.000127439
34 *781:79 *815:26 2.59093e-05
35 *781:92 *3400:B 5.33005e-05
36 *781:92 *3402:B1 5.58941e-05
37 *781:92 *806:16 1.149e-05
38 *781:92 *815:22 9.44107e-05
39 *781:94 *806:16 0.000203994
40 *3323:B *781:92 9.71197e-05
41 *3371:A2 *781:12 3.07455e-05
42 *3376:A1_N *3376:A2_N 5.52238e-05
43 *3376:A1_N *781:12 1.5424e-05
44 *3376:A1_N *781:16 0.000129991
45 *3379:A1 *3366:A3 2.83916e-05
46 *3379:A1 *3376:A2_N 2.88517e-05
47 *3379:A1 *781:12 0.000225616
48 *3384:B1 *3384:A1 1.74352e-05
49 *3402:A1_N *781:79 0.00012401
50 *3402:A1_N *781:92 0.000111292
51 *3405:A2 *781:12 0.00010326
52 *3405:A2 *781:51 0.000394712
53 *749:16 *3392:A1 0.000216771
54 *749:16 *781:51 0.000603951
55 *749:16 *781:62 0.000189448
56 *751:14 *781:79 4.038e-06
57 *751:36 *781:12 0.000181796
58 *753:10 *781:79 5.75896e-05
59 *753:18 *781:51 3.01126e-05
60 *753:20 *781:12 3.2534e-05
61 *753:20 *781:51 1.00375e-05
62 *760:22 *781:12 9.60875e-05
63 *769:20 *781:12 8.85869e-05
64 *774:8 *781:51 6.39901e-05
65 *776:31 *3381:B 5.33005e-05
66 *776:31 *3392:A1 0.000226021
67 *776:31 *781:62 0.000176234
68 *778:10 *781:51 0.000728686
*RES
1 *3355:Y *781:6 13.8 
2 *781:6 *781:12 15.8214 
3 *781:12 *781:16 8.73214 
4 *781:16 *3376:A2_N 15.3714 
5 *781:16 *3366:A3 15.7464 
6 *781:12 *3375:B2 9.3 
7 *781:6 *781:51 25.7857 
8 *781:51 *3381:B 14.3357 
9 *781:51 *781:62 2.55357 
10 *781:62 *781:66 8.73214 
11 *781:66 *3390:A 11.0857 
12 *781:66 *781:79 8.875 
13 *781:79 *3391:B 13.8 
14 *781:79 *781:92 8.92857 
15 *781:92 *781:94 7.92857 
16 *781:94 *3383:B 9.3 
17 *781:94 *3384:A1 12.2286 
18 *781:92 *3398:B1_N 10.5679 
19 *781:62 *3392:A1 18.425 
*END

*D_NET *782 0.00130517
*CONN
*I *3430:A1 I *D sky130_fd_sc_hd__a22oi_1
*I *3358:A I *D sky130_fd_sc_hd__and3_1
*I *3363:B I *D sky130_fd_sc_hd__xor2_2
*I *3356:X O *D sky130_fd_sc_hd__a21o_1
*CAP
1 *3430:A1 0.000124787
2 *3358:A 4.35938e-05
3 *3363:B 0.000218307
4 *3356:X 5.65058e-05
5 *782:12 0.000330182
6 *3358:A *784:23 0
7 *3430:A1 *3430:A2 0.000212312
8 *3430:A1 *3431:A1 2.95402e-05
9 *3430:A1 *783:12 3.79027e-05
10 *3430:A1 *784:23 0
11 *782:12 *784:23 0
12 *3358:B *3430:A1 0.000146533
13 *3363:A *3363:B 7.47493e-05
14 *118:14 *3430:A1 3.07555e-05
15 *147:104 *3358:A 0
16 *147:104 *782:12 0
*RES
1 *3356:X *3363:B 10.5946 
2 *3363:B *782:12 7.05357 
3 *782:12 *3358:A 14.5321 
4 *782:12 *3430:A1 27.0723 
*END

*D_NET *783 0.00158542
*CONN
*I *3430:A2 I *D sky130_fd_sc_hd__a22oi_1
*I *3358:C I *D sky130_fd_sc_hd__and3_1
*I *3357:Y O *D sky130_fd_sc_hd__nand3_1
*CAP
1 *3430:A2 8.82999e-05
2 *3358:C 0
3 *3357:Y 0.000505145
4 *783:12 0.000593445
5 *3430:A2 *3431:A1 7.2454e-05
6 *3430:A1 *3430:A2 0.000212312
7 *3430:A1 *783:12 3.79027e-05
8 *147:104 *783:12 7.58664e-05
*RES
1 *3357:Y *783:12 25.5679 
2 *783:12 *3358:C 9.3 
3 *783:12 *3430:A2 12.05 
*END

*D_NET *784 0.00259629
*CONN
*I *3367:A3 I *D sky130_fd_sc_hd__o31a_1
*I *3365:A I *D sky130_fd_sc_hd__or3_1
*I *3359:A I *D sky130_fd_sc_hd__inv_2
*I *3431:A1 I *D sky130_fd_sc_hd__a211o_1
*I *3358:X O *D sky130_fd_sc_hd__and3_1
*CAP
1 *3367:A3 0.00024377
2 *3365:A 7.76856e-05
3 *3359:A 0
4 *3431:A1 0.000367331
5 *3358:X 0
6 *784:25 7.76856e-05
7 *784:23 0.000609113
8 *784:4 0.000732674
9 *3365:A *785:6 0.000122091
10 *3365:A *788:6 9.31893e-05
11 *3365:A *788:8 2.14658e-05
12 *3365:A *788:18 1.33343e-05
13 *3367:A3 *3367:A1 0
14 *3431:A1 *3430:B1 7.27899e-05
15 *3431:A1 *3431:A2 5.80706e-06
16 *3431:A1 *3431:B1 4.01768e-05
17 *3431:A1 *3431:C1 4.46186e-06
18 *784:23 *3367:A1 0
19 *784:23 *3431:C1 0
20 *784:23 *789:19 0
21 *3358:A *784:23 0
22 *3358:B *3431:A1 3.61629e-06
23 *3430:A1 *3431:A1 2.95402e-05
24 *3430:A1 *784:23 0
25 *3430:A2 *3431:A1 7.2454e-05
26 *3430:B2 *3431:A1 9.10431e-06
27 *118:14 *3431:A1 0
28 *118:14 *784:23 0
29 *147:12 *3431:A1 0
30 *147:104 *784:23 0
31 *782:12 *784:23 0
*RES
1 *3358:X *784:4 9.3 
2 *784:4 *3431:A1 23.8 
3 *784:4 *784:23 10.0893 
4 *784:23 *784:25 4.5 
5 *784:25 *3359:A 9.3 
6 *784:25 *3365:A 11.9071 
7 *784:23 *3367:A3 17.4071 
*END

*D_NET *785 0.0030332
*CONN
*I *3437:A I *D sky130_fd_sc_hd__and3_1
*I *3436:A1 I *D sky130_fd_sc_hd__a21oi_1
*I *3446:A I *D sky130_fd_sc_hd__nand4_1
*I *3445:A1 I *D sky130_fd_sc_hd__a31o_1
*I *3359:Y O *D sky130_fd_sc_hd__inv_2
*CAP
1 *3437:A 0
2 *3436:A1 0
3 *3446:A 4.16509e-05
4 *3445:A1 0
5 *3359:Y 0.000236876
6 *785:22 9.40874e-05
7 *785:16 0.000368234
8 *785:6 0.000552674
9 *3446:A *3445:B1 8.59272e-05
10 *3446:A *3450:A3 0.000131243
11 *3446:A *790:18 1.21258e-05
12 *785:6 *788:6 1.15281e-05
13 *785:6 *788:18 6.09804e-05
14 *785:16 *3364:A 3.57366e-05
15 *785:16 *3431:A2 9.25014e-06
16 *785:16 *3431:C1 0.000148189
17 *785:16 *3445:A3 5.52238e-05
18 *785:16 *790:10 9.60875e-05
19 *785:16 *1025:21 3.34366e-05
20 *785:16 *1025:23 0.000121573
21 *785:16 *1025:40 0.000444673
22 *785:22 *3445:A3 0.000176022
23 *785:22 *1086:85 0.000172729
24 *3365:A *785:6 0.000122091
25 *118:14 *785:16 2.28598e-05
*RES
1 *3359:Y *785:6 13.5321 
2 *785:6 *785:16 16.4286 
3 *785:16 *785:22 11.25 
4 *785:22 *3445:A1 9.3 
5 *785:22 *3446:A 10.6036 
6 *785:16 *3436:A1 9.3 
7 *785:6 *3437:A 9.3 
*END

*D_NET *786 0.000112637
*CONN
*I *3362:B I *D sky130_fd_sc_hd__xnor2_1
*I *3360:X O *D sky130_fd_sc_hd__a21o_1
*CAP
1 *3362:B 5.63185e-05
2 *3360:X 5.63185e-05
*RES
1 *3360:X *3362:B 19.5464 
*END

*D_NET *787 0.00146822
*CONN
*I *3366:B1 I *D sky130_fd_sc_hd__a32o_1
*I *3361:X O *D sky130_fd_sc_hd__a211o_1
*CAP
1 *3366:B1 0.000542826
2 *3361:X 0.000542826
3 *3366:B1 *3378:B1 0
4 *3366:B1 *3460:A 0
5 *3366:B1 *3460:B 0
6 *3345:A *3366:B1 0.000242157
7 *3366:A2 *3366:B1 2.39852e-05
8 *3366:A3 *3366:B1 5.26184e-05
9 *3366:B2 *3366:B1 4.46186e-06
10 *3374:B *3366:B1 2.39852e-05
11 *3376:A2_N *3366:B1 2.34204e-05
12 *147:124 *3366:B1 1.19402e-05
*RES
1 *3361:X *3366:B1 37.9125 
*END

*D_NET *788 0.002745
*CONN
*I *3365:B I *D sky130_fd_sc_hd__or3_1
*I *3367:A2 I *D sky130_fd_sc_hd__o31a_1
*I *3445:B1 I *D sky130_fd_sc_hd__a31o_1
*I *3446:B I *D sky130_fd_sc_hd__nand4_1
*I *3362:Y O *D sky130_fd_sc_hd__xnor2_1
*CAP
1 *3365:B 0
2 *3367:A2 8.27765e-05
3 *3445:B1 5.16625e-05
4 *3446:B 1.6534e-06
5 *3362:Y 0.000510585
6 *788:18 0.00033977
7 *788:8 0.000411546
8 *788:6 0.000552901
9 *3367:A2 *3367:A1 0.00012748
10 *3367:A2 *791:14 5.33882e-05
11 *3445:B1 *3445:A2 6.97907e-06
12 *3445:B1 *3446:D 8.14025e-06
13 *3445:B1 *3450:A3 2.65107e-05
14 *3445:B1 *790:18 0.00010301
15 *3446:B *3446:D 3.79027e-06
16 *788:18 *3437:C 1.22081e-05
17 *788:18 *3446:D 5.33334e-05
18 *788:18 *790:16 4.01768e-05
19 *788:18 *790:18 1.74352e-05
20 *788:18 *791:14 5.52302e-05
21 *3365:A *788:6 9.31893e-05
22 *3365:A *788:8 2.14658e-05
23 *3365:A *788:18 1.33343e-05
24 *3446:A *3445:B1 8.59272e-05
25 *785:6 *788:6 1.15281e-05
26 *785:6 *788:18 6.09804e-05
*RES
1 *3362:Y *788:6 15.5857 
2 *788:6 *788:8 0.535714 
3 *788:8 *788:18 6.05357 
4 *788:18 *3446:B 9.51429 
5 *788:18 *3445:B1 11.4964 
6 *788:8 *3367:A2 20.175 
7 *788:6 *3365:B 9.3 
*END

*D_NET *789 0.00114226
*CONN
*I *3367:A1 I *D sky130_fd_sc_hd__o31a_1
*I *3365:C I *D sky130_fd_sc_hd__or3_1
*I *3364:A I *D sky130_fd_sc_hd__inv_2
*I *3363:X O *D sky130_fd_sc_hd__xor2_2
*CAP
1 *3367:A1 0.000174334
2 *3365:C 0
3 *3364:A 0.000125054
4 *3363:X 3.36155e-05
5 *789:19 0.000293395
6 *789:6 0.00027773
7 *3367:A1 *3367:B1 4.46186e-06
8 *3367:A1 *3431:C1 0
9 *3367:A1 *791:14 2.00751e-05
10 *789:19 *3431:C1 0
11 *3367:A2 *3367:A1 0.00012748
12 *3367:A3 *3367:A1 0
13 *118:14 *3364:A 5.03772e-05
14 *784:23 *3367:A1 0
15 *784:23 *789:19 0
16 *785:16 *3364:A 3.57366e-05
*RES
1 *3363:X *789:6 9.83571 
2 *789:6 *3364:A 11.4964 
3 *789:6 *789:19 6.44643 
4 *789:19 *3365:C 13.8 
5 *789:19 *3367:A1 17.1929 
*END

*D_NET *790 0.00207221
*CONN
*I *3437:B I *D sky130_fd_sc_hd__and3_1
*I *3446:C I *D sky130_fd_sc_hd__nand4_1
*I *3445:A2 I *D sky130_fd_sc_hd__a31o_1
*I *3436:B1 I *D sky130_fd_sc_hd__a21oi_1
*I *3364:Y O *D sky130_fd_sc_hd__inv_2
*CAP
1 *3437:B 6.47811e-05
2 *3446:C 0
3 *3445:A2 2.9683e-05
4 *3436:B1 9.07504e-05
5 *3364:Y 0.00012509
6 *790:18 0.000349962
7 *790:16 0.000346923
8 *790:10 0.000307265
9 *3436:B1 *3438:A 0.000104974
10 *3436:B1 *3445:A3 0.000101545
11 *3436:B1 *3450:A3 1.07719e-05
12 *3437:B *3430:B1 0
13 *3437:B *3438:B 9.60337e-06
14 *3437:B *3446:D 1.76184e-05
15 *3437:B *1025:21 0.00012134
16 *3437:B *1025:23 9.25014e-06
17 *3445:A2 *3450:A2 1.3701e-05
18 *790:10 *3430:B1 0
19 *790:10 *1025:23 7.6644e-05
20 *790:16 *3431:A2 0
21 *790:18 *3450:A3 8.25843e-06
22 *3445:B1 *3445:A2 6.97907e-06
23 *3445:B1 *790:18 0.00010301
24 *3446:A *790:18 1.21258e-05
25 *118:14 *3436:B1 8.23247e-06
26 *785:16 *790:10 9.60875e-05
27 *788:18 *790:16 4.01768e-05
28 *788:18 *790:18 1.74352e-05
*RES
1 *3364:Y *790:10 15.7821 
2 *790:10 *790:16 6.39286 
3 *790:16 *790:18 3 
4 *790:18 *3436:B1 20.3134 
5 *790:18 *3445:A2 10.0321 
6 *790:16 *3446:C 9.3 
7 *790:10 *3437:B 15.4429 
*END

*D_NET *791 0.00359195
*CONN
*I *3452:A1 I *D sky130_fd_sc_hd__a21oi_1
*I *3453:A1 I *D sky130_fd_sc_hd__a31o_1
*I *3365:X O *D sky130_fd_sc_hd__or3_1
*CAP
1 *3452:A1 2.29823e-05
2 *3453:A1 8.24039e-05
3 *3365:X 0.000682969
4 *791:14 0.000788355
5 *3452:A1 *792:18 3.51368e-05
6 *3453:A1 *3453:A2 8.23024e-05
7 *3453:A1 *3457:A2 0.00014183
8 *3453:A1 *792:18 7.6696e-05
9 *3453:A1 *997:30 1.56e-05
10 *791:14 *3367:B1 0
11 *791:14 *3378:A3 5.46971e-05
12 *791:14 *3379:A2 0.000134275
13 *791:14 *3379:B1 2.1527e-05
14 *791:14 *3431:C1 0.000293415
15 *791:14 *3465:B 5.4061e-05
16 *791:14 *3536:A3 0.000185643
17 *791:14 *3537:B 5.71472e-05
18 *791:14 *3541:A2 0.000161504
19 *791:14 *792:18 0.000517945
20 *791:14 *793:10 1.08359e-05
21 *791:14 *802:10 1.43563e-05
22 *791:14 *805:8 0
23 *791:14 *997:30 2.95726e-05
24 *3367:A1 *791:14 2.00751e-05
25 *3367:A2 *791:14 5.33882e-05
26 *788:18 *791:14 5.52302e-05
*RES
1 *3365:X *791:14 34.9429 
2 *791:14 *3453:A1 12.0366 
3 *791:14 *3452:A1 10.0321 
*END

*D_NET *792 0.00405757
*CONN
*I *3367:B1 I *D sky130_fd_sc_hd__o31a_1
*I *3452:B1 I *D sky130_fd_sc_hd__a21oi_1
*I *3453:A2 I *D sky130_fd_sc_hd__a31o_1
*I *3366:X O *D sky130_fd_sc_hd__a32o_1
*CAP
1 *3367:B1 0.000446707
2 *3452:B1 0
3 *3453:A2 3.96848e-05
4 *3366:X 0.000248773
5 *792:18 0.000662879
6 *792:6 0.00131867
7 *3367:B1 *3460:A 7.32122e-05
8 *3367:B1 *3460:B 5.86416e-05
9 *3367:B1 *3465:B 8.359e-05
10 *3367:B1 *3541:A2 6.53874e-05
11 *3367:B1 *802:10 8.359e-05
12 *3453:A2 *3453:A3 0.000102207
13 *3453:A2 *3457:A2 1.74352e-05
14 *792:18 *3453:A3 2.44318e-05
15 *792:18 *3453:B1 1.88048e-05
16 *792:18 *997:30 1.33343e-05
17 *792:18 *1042:28 2.84494e-05
18 *3367:A1 *3367:B1 4.46186e-06
19 *3379:A1 *3367:B1 0
20 *3379:A1 *792:6 5.52302e-05
21 *3452:A1 *792:18 3.51368e-05
22 *3453:A1 *3453:A2 8.23024e-05
23 *3453:A1 *792:18 7.6696e-05
24 *791:14 *3367:B1 0
25 *791:14 *792:18 0.000517945
*RES
1 *3366:X *792:6 12.3 
2 *792:6 *792:18 18.2143 
3 *792:18 *3453:A2 11.0679 
4 *792:18 *3452:B1 9.3 
5 *792:6 *3367:B1 27.2286 
*END

*D_NET *793 0.00159922
*CONN
*I *3379:A2 I *D sky130_fd_sc_hd__a41o_1
*I *3465:A I *D sky130_fd_sc_hd__or2_1
*I *3459:A_N I *D sky130_fd_sc_hd__nand2b_1
*I *3367:X O *D sky130_fd_sc_hd__o31a_1
*CAP
1 *3379:A2 0.000197002
2 *3465:A 3.41977e-05
3 *3459:A_N 1.69531e-05
4 *3367:X 0.000141065
5 *793:12 5.11507e-05
6 *793:10 0.000338066
7 *3379:A2 *3378:A3 5.64118e-05
8 *3379:A2 *3379:B1 8.00806e-05
9 *3379:A2 *885:21 0
10 *3379:A2 *1025:8 6.73313e-05
11 *3459:A_N *3431:C1 5.33005e-05
12 *3459:A_N *803:14 5.33005e-05
13 *3465:A *3431:C1 4.08637e-05
14 *3465:A *803:14 9.71197e-05
15 *793:10 *3431:C1 0.000101545
16 *793:10 *1025:21 0.000125724
17 *791:14 *3379:A2 0.000134275
18 *791:14 *793:10 1.08359e-05
*RES
1 *3367:X *793:10 16.3893 
2 *793:10 *793:12 4.5 
3 *793:12 *3459:A_N 9.83571 
4 *793:12 *3465:A 10.2464 
5 *793:10 *3379:A2 18.175 
*END

*D_NET *794 0.000319204
*CONN
*I *3370:B I *D sky130_fd_sc_hd__xnor2_1
*I *3368:Y O *D sky130_fd_sc_hd__a21oi_1
*CAP
1 *3370:B 0.000141125
2 *3368:Y 0.000141125
3 *3370:B *3368:A1 0
4 *3369:B1 *3370:B 2.95726e-05
5 *3370:A *3370:B 3.69047e-06
6 *773:6 *3370:B 3.69047e-06
*RES
1 *3368:Y *3370:B 20.7964 
*END

*D_NET *795 0.000112637
*CONN
*I *3377:B I *D sky130_fd_sc_hd__xor2_1
*I *3369:X O *D sky130_fd_sc_hd__a211o_1
*CAP
1 *3377:B 5.63185e-05
2 *3369:X 5.63185e-05
*RES
1 *3369:X *3377:B 19.5464 
*END

*D_NET *796 0.00661716
*CONN
*I *3378:A1 I *D sky130_fd_sc_hd__a31o_1
*I *3472:B1 I *D sky130_fd_sc_hd__a31o_1
*I *3373:A I *D sky130_fd_sc_hd__and2_1
*I *3370:Y O *D sky130_fd_sc_hd__xnor2_1
*CAP
1 *3378:A1 0
2 *3472:B1 0.000146756
3 *3373:A 0.000124698
4 *3370:Y 0.00114349
5 *796:20 0.000407103
6 *796:16 0.00127914
7 *3373:A *3373:B 7.01205e-05
8 *3373:A *798:22 0
9 *3373:A *885:21 6.20855e-06
10 *3373:A *1014:8 4.1331e-06
11 *3373:A *1042:28 0.000165637
12 *3472:B1 *3472:A1 5.52238e-05
13 *3472:B1 *798:14 9.90367e-05
14 *3472:B1 *798:22 0.000441731
15 *3472:B1 *881:22 8.57535e-05
16 *3472:B1 *885:27 0.000105647
17 *3472:B1 *885:31 0.000360894
18 *796:16 *3378:A2 2.44638e-05
19 *796:16 *3378:A3 1.21289e-05
20 *796:16 *3378:B1 0.000114926
21 *796:16 *798:10 0.000544461
22 *796:20 *3378:A2 1.00733e-05
23 *796:20 *3378:A3 9.60939e-05
24 *796:20 *3378:B1 0
25 *796:20 *3669:A 0.000130419
26 *796:20 *798:10 1.02936e-05
27 *796:20 *798:14 0.000149953
28 *796:20 *881:22 0.000441597
29 *796:20 *1042:28 9.90367e-05
30 *3347:A *796:16 0.000123591
31 *3347:B *796:16 5.03772e-05
32 *3369:B1 *796:16 5.52302e-05
33 *3372:A *796:16 3.14048e-05
34 *773:6 *796:16 0.000227532
*RES
1 *3370:Y *796:16 28.1036 
2 *796:16 *796:20 5.89286 
3 *796:20 *3373:A 20.8536 
4 *796:20 *3472:B1 16.0143 
5 *796:16 *3378:A1 9.3 
*END

*D_NET *797 0.00179935
*CONN
*I *3372:B I *D sky130_fd_sc_hd__xor2_2
*I *3375:A1_N I *D sky130_fd_sc_hd__o2bb2a_1
*I *3376:B1 I *D sky130_fd_sc_hd__a2bb2o_1
*I *3371:Y O *D sky130_fd_sc_hd__a21oi_2
*CAP
1 *3372:B 4.49003e-05
2 *3375:A1_N 6.45103e-05
3 *3376:B1 0.000178415
4 *3371:Y 0.000200252
5 *797:8 0.000282007
6 *797:6 0.000284234
7 *3375:A1_N *3376:B2 5.55213e-05
8 *3375:A1_N *800:14 2.39852e-05
9 *3376:B1 *3376:B2 0.000161347
10 *3376:B1 *800:14 1.23819e-05
11 *3371:A2 *3375:A1_N 0
12 *3371:A2 *797:6 9.90367e-05
13 *3376:A1_N *3375:A1_N 0.000107933
14 *3376:A1_N *797:6 3.14163e-05
15 *3376:A1_N *797:8 1.21258e-05
16 *756:24 *3372:B 9.80745e-05
17 *760:22 *797:6 1.74903e-05
18 *765:10 *3372:B 0.000125717
*RES
1 *3371:Y *797:6 11.8893 
2 *797:6 *797:8 0.535714 
3 *797:8 *3376:B1 11.9071 
4 *797:8 *3375:A1_N 11.117 
5 *797:6 *3372:B 10.6429 
*END

*D_NET *798 0.00558198
*CONN
*I *3378:A2 I *D sky130_fd_sc_hd__a31o_1
*I *3373:B I *D sky130_fd_sc_hd__and2_1
*I *3466:B1 I *D sky130_fd_sc_hd__a21oi_1
*I *3467:A1 I *D sky130_fd_sc_hd__a311o_1
*I *3472:A1 I *D sky130_fd_sc_hd__a31o_1
*I *3372:X O *D sky130_fd_sc_hd__xor2_2
*CAP
1 *3378:A2 1.59504e-05
2 *3373:B 8.65934e-05
3 *3466:B1 0
4 *3467:A1 6.48554e-05
5 *3472:A1 2.38696e-05
6 *3372:X 0.000482622
7 *798:37 0.00017682
8 *798:22 0.000325915
9 *798:14 0.000516193
10 *798:10 0.000738092
11 *3373:B *3474:A 3.43367e-05
12 *3373:B *3475:A 0
13 *3467:A1 *3467:A3 5.71472e-05
14 *3467:A1 *3467:B1 4.71256e-05
15 *3467:A1 *900:8 7.48301e-06
16 *3467:A1 *1014:63 5.7661e-06
17 *3467:A1 *1014:65 9.60939e-05
18 *3467:A1 *1014:69 9.90367e-05
19 *3472:A1 *881:22 9.71197e-05
20 *3472:A1 *885:31 2.14757e-05
21 *798:14 *3669:A 0.000142856
22 *798:14 *885:27 0.000222666
23 *798:14 *1042:28 9.71197e-05
24 *798:22 *3474:A 9.54798e-06
25 *798:22 *881:22 0.000431217
26 *798:22 *892:12 1.93639e-05
27 *798:22 *1014:8 9.25014e-06
28 *798:37 *3467:B1 1.33343e-05
29 *798:37 *900:8 1.39726e-05
30 *798:37 *1014:65 2.44318e-05
31 *798:37 *1059:16 9.6732e-05
32 *798:37 *1059:18 5.80706e-06
33 *3373:A *3373:B 7.01205e-05
34 *3373:A *798:22 0
35 *3472:B1 *3472:A1 5.52238e-05
36 *3472:B1 *798:14 9.90367e-05
37 *3472:B1 *798:22 0.000441731
38 *369:169 *798:37 0.000193833
39 *796:16 *3378:A2 2.44638e-05
40 *796:16 *798:10 0.000544461
41 *796:20 *3378:A2 1.00733e-05
42 *796:20 *798:10 1.02936e-05
43 *796:20 *798:14 0.000149953
*RES
1 *3372:X *798:10 16.4429 
2 *798:10 *798:14 10.375 
3 *798:14 *798:22 10.4107 
4 *798:22 *3472:A1 10.2464 
5 *798:22 *798:37 12.0893 
6 *798:37 *3467:A1 11.4964 
7 *798:37 *3466:B1 9.3 
8 *798:14 *3373:B 15.7464 
9 *798:10 *3378:A2 9.72857 
*END

*D_NET *799 0.00150385
*CONN
*I *3379:A3 I *D sky130_fd_sc_hd__a41o_1
*I *3473:A I *D sky130_fd_sc_hd__nand2_1
*I *3474:A I *D sky130_fd_sc_hd__and3_1
*I *3373:X O *D sky130_fd_sc_hd__and2_1
*CAP
1 *3379:A3 0.000257214
2 *3473:A 2.23854e-05
3 *3474:A 8.35678e-05
4 *3373:X 0
5 *799:19 0.000371192
6 *799:4 0.000175161
7 *3379:A3 *3379:B1 2.44318e-05
8 *3474:A *3453:B1 1.40415e-05
9 *3474:A *3475:A 0
10 *3474:A *892:12 0.000154854
11 *799:19 *3453:B1 4.0342e-06
12 *799:19 *892:12 0.000211249
13 *3373:B *3474:A 3.43367e-05
14 *3379:A1 *3379:A3 0.00014183
15 *798:22 *3474:A 9.54798e-06
*RES
1 *3373:X *799:4 9.3 
2 *799:4 *3474:A 20.4786 
3 *799:4 *799:19 2.17857 
4 *799:19 *3473:A 9.72857 
5 *799:19 *3379:A3 13.5321 
*END

*D_NET *800 0.00146116
*CONN
*I *3375:A2_N I *D sky130_fd_sc_hd__o2bb2a_1
*I *3376:B2 I *D sky130_fd_sc_hd__a2bb2o_1
*I *3374:Y O *D sky130_fd_sc_hd__nand3_1
*CAP
1 *3375:A2_N 0
2 *3376:B2 7.67987e-05
3 *3374:Y 0.000201392
4 *800:14 0.000278191
5 *3345:A *800:14 0.000170661
6 *3375:A1_N *3376:B2 5.55213e-05
7 *3375:A1_N *800:14 2.39852e-05
8 *3376:A1_N *3376:B2 0.000131163
9 *3376:B1 *3376:B2 0.000161347
10 *3376:B1 *800:14 1.23819e-05
11 *3379:A1 *800:14 0.000180777
12 *765:10 *800:14 0.000168939
*RES
1 *3374:Y *800:14 22.5589 
2 *800:14 *3376:B2 11.9161 
3 *800:14 *3375:A2_N 9.3 
*END

*D_NET *801 0.00186926
*CONN
*I *3460:A I *D sky130_fd_sc_hd__xnor2_1
*I *3379:A4 I *D sky130_fd_sc_hd__a41o_1
*I *3375:X O *D sky130_fd_sc_hd__o2bb2a_1
*CAP
1 *3460:A 0.000156103
2 *3379:A4 0.000211566
3 *3375:X 0.000165137
4 *801:6 0.000532806
5 *3366:B1 *3460:A 0
6 *3367:B1 *3460:A 7.32122e-05
7 *3376:A1_N *801:6 0.000270326
8 *3379:A1 *3379:A4 0.000187892
9 *3379:A1 *3460:A 1.97381e-05
10 *3379:A1 *801:6 6.87574e-05
11 *781:16 *801:6 0.000183726
*RES
1 *3375:X *801:6 13.5321 
2 *801:6 *3379:A4 13.1393 
3 *801:6 *3460:A 21.1571 
*END

*D_NET *802 0.00199395
*CONN
*I *3378:A3 I *D sky130_fd_sc_hd__a31o_1
*I *3465:B I *D sky130_fd_sc_hd__or2_1
*I *3376:X O *D sky130_fd_sc_hd__a2bb2o_1
*CAP
1 *3378:A3 5.80622e-05
2 *3465:B 0.00011821
3 *3376:X 0.000307626
4 *802:10 0.000483898
5 *3378:A3 *3378:B1 5.52238e-05
6 *3378:A3 *881:22 0.00018372
7 *3465:B *803:14 5.52238e-05
8 *802:10 *3541:A2 0.000110632
9 *3367:B1 *3465:B 8.359e-05
10 *3367:B1 *802:10 8.359e-05
11 *3379:A1 *802:10 0.000166426
12 *3379:A2 *3378:A3 5.64118e-05
13 *791:14 *3378:A3 5.46971e-05
14 *791:14 *3465:B 5.4061e-05
15 *791:14 *802:10 1.43563e-05
16 *796:16 *3378:A3 1.21289e-05
17 *796:20 *3378:A3 9.60939e-05
*RES
1 *3376:X *802:10 19.05 
2 *802:10 *3465:B 16.5857 
3 *802:10 *3378:A3 25.3 
*END

*D_NET *803 0.00484045
*CONN
*I *3378:B1 I *D sky130_fd_sc_hd__a31o_1
*I *3482:A1 I *D sky130_fd_sc_hd__a311o_1
*I *3481:B1 I *D sky130_fd_sc_hd__a21oi_1
*I *3377:X O *D sky130_fd_sc_hd__xor2_1
*CAP
1 *3378:B1 0.000210154
2 *3482:A1 0
3 *3481:B1 6.58026e-05
4 *3377:X 0.000852517
5 *803:14 0.000397974
6 *803:6 0.00139484
7 *3378:B1 *3460:B 0.000101545
8 *3378:B1 *881:22 5.07108e-05
9 *3481:B1 *1014:8 9.25014e-06
10 *3481:B1 *1014:12 0.000123288
11 *3481:B1 *1014:20 5.52238e-05
12 *3481:B1 *1059:56 6.64521e-05
13 *3481:B1 *1086:85 9.91086e-05
14 *803:14 *3431:C1 0.000203099
15 *803:14 *3459:B 1.28809e-05
16 *803:14 *3460:B 0.0002047
17 *803:14 *3466:A2 0.000230482
18 *803:14 *885:6 0.000301824
19 *803:14 *1014:8 4.90803e-05
20 *803:14 *1025:8 0
21 *803:14 *1059:56 1.99099e-05
22 *803:14 *1086:85 1.58163e-05
23 *3366:B1 *3378:B1 0
24 *3378:A3 *3378:B1 5.52238e-05
25 *3459:A_N *803:14 5.33005e-05
26 *3465:A *803:14 9.71197e-05
27 *3465:B *803:14 5.52238e-05
28 *796:16 *3378:B1 0.000114926
29 *796:20 *3378:B1 0
*RES
1 *3377:X *803:6 18.8714 
2 *803:6 *803:14 15.125 
3 *803:14 *3481:B1 15.9786 
4 *803:14 *3482:A1 13.8 
5 *803:6 *3378:B1 22.7821 
*END

*D_NET *804 0.000459383
*CONN
*I *3379:B1 I *D sky130_fd_sc_hd__a41o_1
*I *3378:X O *D sky130_fd_sc_hd__a31o_1
*CAP
1 *3379:B1 0.00013906
2 *3378:X 0.00013906
3 *3379:B1 *3473:B 0
4 *3379:B1 *1042:28 0
5 *3379:A1 *3379:B1 5.52238e-05
6 *3379:A2 *3379:B1 8.00806e-05
7 *3379:A3 *3379:B1 2.44318e-05
8 *791:14 *3379:B1 2.1527e-05
*RES
1 *3378:X *3379:B1 30.4929 
*END

*D_NET *805 0.00841176
*CONN
*I *3494:A3 I *D sky130_fd_sc_hd__a31o_1
*I *3495:A I *D sky130_fd_sc_hd__and4_1
*I *3488:A1 I *D sky130_fd_sc_hd__a31o_1
*I *3487:A1 I *D sky130_fd_sc_hd__a21oi_1
*I *3397:A2 I *D sky130_fd_sc_hd__a211o_1
*I *3387:A I *D sky130_fd_sc_hd__and2_1
*I *3379:X O *D sky130_fd_sc_hd__a41o_1
*CAP
1 *3494:A3 0
2 *3495:A 2.12761e-05
3 *3488:A1 0
4 *3487:A1 0.000159076
5 *3397:A2 1.16062e-05
6 *3387:A 0.000567693
7 *3379:X 0.000266005
8 *805:76 9.31947e-05
9 *805:54 0.000365301
10 *805:46 0.000402805
11 *805:35 0.000472121
12 *805:8 0.00116955
13 *3387:A *3387:B 2.89016e-05
14 *3387:A *3523:A 0.000251164
15 *3387:A *3527:B1 9.59532e-06
16 *3387:A *3535:A1 1.92905e-05
17 *3387:A *823:24 9.76928e-05
18 *3387:A *830:28 1.66358e-05
19 *3387:A *939:10 0.00015304
20 *3387:A *939:16 0.00017098
21 *3387:A *997:30 0
22 *3387:A *1036:18 5.52238e-05
23 *3397:A2 *3408:A2 5.52302e-05
24 *3397:A2 *3502:A2 5.52302e-05
25 *3487:A1 *3487:A2 5.48198e-05
26 *3487:A1 *3488:A2 5.6671e-05
27 *3487:A1 *3492:A1 1.41029e-05
28 *3487:A1 *3500:A3 0.000139907
29 *3487:A1 *3513:D 9.95912e-06
30 *3487:A1 *879:22 0.00025593
31 *3487:A1 *997:43 1.04832e-05
32 *3487:A1 *997:51 0.000208252
33 *3495:A *3494:A1 0.00014285
34 *3495:A *3495:C 0.00014285
35 *805:8 *3535:A1 3.03278e-05
36 *805:8 *3536:A1 0.000145398
37 *805:8 *3536:A3 6.87839e-06
38 *805:8 *3537:A 0
39 *805:8 *830:28 4.63862e-05
40 *805:8 *1042:28 0
41 *805:35 *3387:B 2.26327e-05
42 *805:35 *3523:C 3.34687e-05
43 *805:35 *3529:B2 1.18064e-05
44 *805:35 *3535:A1 5.45746e-05
45 *805:35 *3670:A 1.87004e-05
46 *805:35 *823:14 5.86416e-05
47 *805:35 *829:12 0.000150625
48 *805:35 *830:20 0.000262956
49 *805:35 *830:28 0.000300732
50 *805:35 *1042:18 0
51 *805:46 *3387:B 4.46186e-06
52 *805:46 *3496:C_N 1.52978e-05
53 *805:46 *808:24 5.83233e-05
54 *805:46 *812:10 8.44048e-05
55 *805:46 *821:45 0.000122939
56 *805:46 *1042:14 0
57 *805:46 *1042:18 0
58 *805:54 *3496:B 0.000318107
59 *805:54 *3496:C_N 0.000137983
60 *805:54 *3500:A3 0.00046696
61 *805:54 *3502:B1 7.48301e-06
62 *805:54 *808:30 0.000222666
63 *805:54 *808:36 0.000141735
64 *805:54 *821:45 1.58163e-05
65 *805:76 *3494:A2 0.000114759
66 *805:76 *3496:C_N 4.56594e-05
67 *805:76 *808:24 3.17148e-05
68 *805:76 *1042:94 0
69 *369:183 *3387:A 0
70 *758:16 *3387:A 2.88018e-06
71 *791:14 *805:8 0
*RES
1 *3379:X *805:8 18.8268 
2 *805:8 *3387:A 33.9518 
3 *805:8 *805:35 9.54464 
4 *805:35 *3397:A2 14.3357 
5 *805:35 *805:46 3.16071 
6 *805:46 *805:54 12.9821 
7 *805:54 *3487:A1 23.1214 
8 *805:54 *3488:A1 9.3 
9 *805:46 *805:76 6.44643 
10 *805:76 *3495:A 10.6571 
11 *805:76 *3494:A3 9.3 
*END

*D_NET *806 0.00300263
*CONN
*I *3383:C I *D sky130_fd_sc_hd__and3_1
*I *3384:A2 I *D sky130_fd_sc_hd__a21oi_1
*I *3380:Y O *D sky130_fd_sc_hd__nand2_1
*CAP
1 *3383:C 2.14981e-05
2 *3384:A2 1.89287e-05
3 *3380:Y 0.000944856
4 *806:16 0.000985283
5 *806:16 *3400:B 1.58163e-05
6 *806:16 *815:14 5.03772e-05
7 *3323:B *806:16 6.06437e-05
8 *3323:D *806:16 5.33005e-05
9 *3382:A *806:16 2.00751e-05
10 *3384:A1 *3383:C 0
11 *3384:A1 *3384:A2 0.000144773
12 *3384:B1 *3383:C 2.67201e-05
13 *3384:B1 *3384:A2 6.90465e-05
14 *3384:B1 *806:16 5.46298e-05
15 *3389:A2 *806:16 0.000177941
16 *3398:B1_N *806:16 2.89016e-05
17 *722:10 *806:16 2.19684e-05
18 *749:16 *806:16 9.23894e-05
19 *781:92 *806:16 1.149e-05
20 *781:94 *806:16 0.000203994
*RES
1 *3380:Y *806:16 35.1929 
2 *806:16 *3384:A2 10.6571 
3 *806:16 *3383:C 9.925 
*END

*D_NET *807 0.000323664
*CONN
*I *3382:B I *D sky130_fd_sc_hd__xnor2_2
*I *3381:Y O *D sky130_fd_sc_hd__nand2_1
*CAP
1 *3382:B 3.19637e-05
2 *3381:Y 3.19637e-05
3 *3382:A *3382:B 0.000129868
4 *749:16 *3382:B 0.000129868
*RES
1 *3381:Y *3382:B 29.2429 
*END

*D_NET *808 0.00791121
*CONN
*I *3386:B I *D sky130_fd_sc_hd__and3_1
*I *3494:A2 I *D sky130_fd_sc_hd__a31o_1
*I *3495:B I *D sky130_fd_sc_hd__and4_1
*I *3488:A2 I *D sky130_fd_sc_hd__a31o_1
*I *3487:B1 I *D sky130_fd_sc_hd__a21oi_1
*I *3382:Y O *D sky130_fd_sc_hd__xnor2_2
*CAP
1 *3386:B 2.23854e-05
2 *3494:A2 4.92562e-05
3 *3495:B 4.64419e-05
4 *3488:A2 2.49117e-05
5 *3487:B1 0.000135487
6 *3382:Y 0.000509522
7 *808:36 0.000471173
8 *808:30 0.00055546
9 *808:24 0.000569744
10 *808:14 0.000854152
11 *3487:B1 *822:10 5.52238e-05
12 *3487:B1 *879:22 8.44008e-05
13 *3487:B1 *1059:107 0.00018465
14 *3488:A2 *997:43 4.23539e-05
15 *3494:A2 *812:10 9.25014e-06
16 *3494:A2 *821:12 5.94215e-05
17 *3495:B *1042:94 7.83659e-05
18 *808:14 *3350:A 0.000101169
19 *808:14 *3404:B 0.000179025
20 *808:14 *3408:A1 0.000780443
21 *808:14 *826:16 0.00016834
22 *808:14 *826:32 0.000785309
23 *808:14 *1049:34 0.000186247
24 *808:24 *3502:B1 7.25712e-05
25 *808:24 *812:10 0.000182308
26 *808:24 *821:45 0.000136951
27 *808:24 *826:32 0.000139913
28 *808:30 *821:45 7.49387e-06
29 *808:36 *3496:B 0.000318107
30 *808:36 *3496:C_N 6.05161e-06
31 *808:36 *3502:B1 9.71197e-05
32 *808:36 *3502:B2 0
33 *808:36 *911:10 0
34 *808:36 *997:43 0.000137983
35 *808:36 *1042:14 3.34366e-05
36 *808:36 *1042:94 6.81083e-05
37 *3401:A *808:14 1.02821e-05
38 *3404:A *808:14 1.17968e-05
39 *3487:A1 *3488:A2 5.6671e-05
40 *3501:A *808:24 4.72818e-05
41 *3747:A *808:14 5.71472e-05
42 *747:12 *808:14 6.05161e-06
43 *805:46 *808:24 5.83233e-05
44 *805:54 *808:30 0.000222666
45 *805:54 *808:36 0.000141735
46 *805:76 *3494:A2 0.000114759
47 *805:76 *808:24 3.17148e-05
*RES
1 *3382:Y *808:14 34.05 
2 *808:14 *808:24 11.9643 
3 *808:24 *808:30 11.5893 
4 *808:30 *808:36 11.7143 
5 *808:36 *3487:B1 21.3893 
6 *808:36 *3488:A2 10.2598 
7 *808:30 *3495:B 14.8357 
8 *808:24 *3494:A2 15.4429 
9 *808:14 *3386:B 9.72857 
*END

*D_NET *809 0.00263846
*CONN
*I *3385:A I *D sky130_fd_sc_hd__nor2_1
*I *3394:A2 I *D sky130_fd_sc_hd__a21o_1
*I *3501:B I *D sky130_fd_sc_hd__xor2_1
*I *3383:X O *D sky130_fd_sc_hd__and3_1
*CAP
1 *3385:A 0
2 *3394:A2 0.000163501
3 *3501:B 0.000540846
4 *3383:X 0.000192024
5 *809:12 0.00083588
6 *809:8 0.000323556
7 *3394:A2 *821:12 0
8 *3394:A2 *992:16 0
9 *3501:B *821:12 0
10 *3501:B *826:32 1.02504e-05
11 *3501:B *1051:93 0
12 *809:8 *3385:B 0.000111205
13 *3255:A *3501:B 5.25998e-05
14 *3255:B *3501:B 0
15 *3255:C *3501:B 5.26184e-05
16 *3384:A1 *809:8 0.00010096
17 *3384:B1 *809:8 1.21026e-05
18 *3394:A1 *3394:A2 3.18676e-05
19 *3394:B1 *3394:A2 9.90431e-05
20 *680:8 *3501:B 0.000112006
21 *731:19 *3394:A2 0
22 *731:19 *3501:B 0
*RES
1 *3383:X *809:8 13.0321 
2 *809:8 *809:12 6.67857 
3 *809:12 *3501:B 23.9429 
4 *809:12 *3394:A2 16.9964 
5 *809:8 *3385:A 9.3 
*END

*D_NET *810 0.000204716
*CONN
*I *3385:B I *D sky130_fd_sc_hd__nor2_1
*I *3384:Y O *D sky130_fd_sc_hd__a21oi_1
*CAP
1 *3385:B 3.04294e-05
2 *3384:Y 3.04294e-05
3 *3384:A1 *3385:B 1.3701e-05
4 *3384:B1 *3385:B 1.89513e-05
5 *809:8 *3385:B 0.000111205
*RES
1 *3384:Y *3385:B 19.8857 
*END

*D_NET *811 0.00337088
*CONN
*I *3494:B1 I *D sky130_fd_sc_hd__a31o_1
*I *3495:C I *D sky130_fd_sc_hd__and4_1
*I *3386:C I *D sky130_fd_sc_hd__and3_1
*I *3385:Y O *D sky130_fd_sc_hd__nor2_1
*CAP
1 *3494:B1 0
2 *3495:C 0.000203878
3 *3386:C 0.000177106
4 *3385:Y 0.000182224
5 *811:23 0.000546928
6 *811:8 0.00070238
7 *3386:C *826:32 1.74352e-05
8 *3495:C *3494:A1 6.42194e-05
9 *3495:C *3495:D 5.33334e-05
10 *3255:A *811:23 1.74352e-05
11 *3255:C *811:23 0.000312222
12 *3328:B *811:8 0
13 *3329:B1 *811:8 0
14 *3334:A *3386:C 0
15 *3495:A *3495:C 0.00014285
16 *3501:A *3386:C 6.05485e-05
17 *675:10 *811:8 2.6949e-05
18 *675:14 *3386:C 1.19309e-05
19 *675:14 *811:8 7.17333e-05
20 *683:14 *811:8 0.000128146
21 *731:19 *3386:C 0.000151333
22 *731:19 *811:8 0.000500229
*RES
1 *3385:Y *811:8 20.3 
2 *811:8 *3386:C 17.175 
3 *811:8 *811:23 10.7857 
4 *811:23 *3495:C 13.55 
5 *811:23 *3494:B1 9.3 
*END

*D_NET *812 0.00298482
*CONN
*I *3397:A1 I *D sky130_fd_sc_hd__a211o_1
*I *3387:B I *D sky130_fd_sc_hd__and2_1
*I *3386:X O *D sky130_fd_sc_hd__and3_1
*CAP
1 *3397:A1 0
2 *3387:B 0.000376748
3 *3386:X 0.000469655
4 *812:10 0.000846403
5 *3387:B *3397:B1 1.02504e-05
6 *3387:B *3521:B1 4.27338e-05
7 *3387:B *3670:A 0.000274941
8 *3387:B *823:14 5.33005e-05
9 *3387:B *823:24 5.96516e-05
10 *3387:B *830:20 9.91086e-05
11 *3387:B *833:14 0
12 *3387:B *1036:8 1.21289e-05
13 *3387:B *1036:18 0.000102117
14 *812:10 *3397:B1 4.32258e-05
15 *812:10 *3397:C1 1.30327e-05
16 *812:10 *3671:A 0.000147474
17 *812:10 *821:12 2.58997e-05
18 *3387:A *3387:B 2.89016e-05
19 *3494:A2 *812:10 9.25014e-06
20 *3501:A *812:10 7.61932e-05
21 *805:35 *3387:B 2.26327e-05
22 *805:46 *3387:B 4.46186e-06
23 *805:46 *812:10 8.44048e-05
24 *808:24 *812:10 0.000182308
*RES
1 *3386:X *812:10 21.9071 
2 *812:10 *3387:B 21.6393 
3 *812:10 *3397:A1 13.8 
*END

*D_NET *813 0.00104738
*CONN
*I *3388:A I *D sky130_fd_sc_hd__inv_2
*I *3508:A I *D sky130_fd_sc_hd__or3b_4
*I *3387:X O *D sky130_fd_sc_hd__and2_1
*CAP
1 *3388:A 0
2 *3508:A 9.72346e-05
3 *3387:X 4.212e-05
4 *813:6 0.000139355
5 *3508:A *3508:B 0.000224583
6 *3508:A *3508:C_N 1.33343e-05
7 *3508:A *814:14 2.27189e-05
8 *3508:A *1036:18 0.000295925
9 *813:6 *814:14 4.08637e-05
10 *813:6 *1036:18 0.000137983
11 *1099:DIODE *813:6 3.69047e-06
12 *369:179 *813:6 2.95726e-05
*RES
1 *3387:X *813:6 10.6571 
2 *813:6 *3508:A 12.7286 
3 *813:6 *3388:A 9.3 
*END

*D_NET *814 0.00402818
*CONN
*I *3513:A I *D sky130_fd_sc_hd__nand4_1
*I *3512:A1 I *D sky130_fd_sc_hd__a31o_1
*I *3507:A1 I *D sky130_fd_sc_hd__a21o_1
*I *3502:A1 I *D sky130_fd_sc_hd__o221ai_2
*I *3388:Y O *D sky130_fd_sc_hd__inv_2
*CAP
1 *3513:A 0
2 *3512:A1 0
3 *3507:A1 0.000168688
4 *3502:A1 0.000396345
5 *3388:Y 0.000168442
6 *814:37 0.000200793
7 *814:35 0.000330078
8 *814:14 0.000862761
9 *3502:A1 *3408:A2 1.97695e-05
10 *3502:A1 *3502:A2 3.31648e-05
11 *3502:A1 *3502:B2 3.18676e-05
12 *3502:A1 *821:45 0.000230822
13 *3507:A1 *3507:A2 2.89016e-05
14 *3507:A1 *3507:B1 9.91086e-05
15 *3507:A1 *3512:A2 3.34366e-05
16 *814:14 *3508:B 7.43578e-06
17 *814:14 *997:30 0.000148196
18 *814:14 *997:43 1.02504e-05
19 *814:14 *1036:18 0
20 *814:35 *3492:A1 9.31209e-05
21 *814:35 *3512:B1 9.90367e-05
22 *814:35 *821:45 4.58194e-05
23 *814:35 *822:10 0.000254995
24 *814:35 *822:14 0.000125547
25 *814:35 *997:43 6.61033e-05
26 *814:35 *997:63 1.77294e-05
27 *814:37 *3512:B1 9.90431e-05
28 *814:37 *3519:A3 1.98839e-05
29 *814:37 *822:14 0.000139907
30 *3502:C1 *814:35 5.58875e-06
31 *3508:A *814:14 2.27189e-05
32 *118:85 *3507:A1 0.000121573
33 *127:28 *3507:A1 9.00795e-06
34 *369:179 *814:14 6.05161e-06
35 *369:183 *814:14 7.2754e-05
36 *369:183 *814:35 1.83776e-05
37 *813:6 *814:14 4.08637e-05
*RES
1 *3388:Y *814:14 17.55 
2 *814:14 *3502:A1 19.5857 
3 *814:14 *814:35 11.5536 
4 *814:35 *814:37 1.35714 
5 *814:37 *3507:A1 21.3 
6 *814:37 *3512:A1 9.3 
7 *814:35 *3513:A 9.3 
*END

*D_NET *815 0.0032393
*CONN
*I *3398:A2 I *D sky130_fd_sc_hd__a21boi_2
*I *3391:C I *D sky130_fd_sc_hd__nand3_1
*I *3392:A2 I *D sky130_fd_sc_hd__a21o_1
*I *3390:B I *D sky130_fd_sc_hd__nand2_1
*I *3389:X O *D sky130_fd_sc_hd__a21o_1
*CAP
1 *3398:A2 0
2 *3391:C 0
3 *3392:A2 0.00015932
4 *3390:B 0.000155916
5 *3389:X 0.000208209
6 *815:26 0.000372395
7 *815:22 0.000163345
8 *815:14 0.000314396
9 *3390:B *3393:B 2.07491e-05
10 *3390:B *3402:A2_N 0.000104974
11 *3392:A2 *3393:B 3.69047e-06
12 *815:22 *3402:B1 4.56437e-05
13 *815:26 *3402:B1 0.000127439
14 *3323:B *815:14 9.90367e-05
15 *3323:C *815:14 4.98055e-06
16 *3323:C *815:22 5.58941e-05
17 *3392:A1 *3392:A2 2.59355e-05
18 *3398:A1 *815:14 0.000197269
19 *3402:A1_N *815:22 6.8646e-06
20 *3402:B2 *3390:B 5.33005e-05
21 *732:6 *815:14 5.33433e-05
22 *732:10 *815:14 4.16021e-05
23 *741:14 *815:14 0.000337637
24 *741:14 *815:22 7.80714e-06
25 *751:14 *3390:B 3.90513e-05
26 *753:10 *3390:B 0
27 *753:10 *815:22 0.000142949
28 *753:10 *815:26 0.000175519
29 *781:79 *3390:B 0.00015134
30 *781:79 *815:26 2.59093e-05
31 *781:92 *815:22 9.44107e-05
32 *806:16 *815:14 5.03772e-05
*RES
1 *3389:X *815:14 24.5679 
2 *815:14 *815:22 8.01786 
3 *815:22 *815:26 6.75 
4 *815:26 *3390:B 22.3357 
5 *815:26 *3392:A2 11.9071 
6 *815:22 *3391:C 13.8 
7 *815:14 *3398:A2 9.3 
*END

*D_NET *816 0.000516911
*CONN
*I *3402:A2_N I *D sky130_fd_sc_hd__a2bb2o_1
*I *3390:Y O *D sky130_fd_sc_hd__nand2_1
*CAP
1 *3402:A2_N 6.60424e-05
2 *3390:Y 6.60424e-05
3 *3390:B *3402:A2_N 0.000104974
4 *3402:A1_N *3402:A2_N 5.33005e-05
5 *3402:B2 *3402:A2_N 5.33005e-05
6 *751:14 *3402:A2_N 0.000150618
7 *781:79 *3402:A2_N 2.26327e-05
*RES
1 *3390:Y *3402:A2_N 30.0821 
*END

*D_NET *817 0.000980168
*CONN
*I *3402:B1 I *D sky130_fd_sc_hd__a2bb2o_1
*I *3393:A I *D sky130_fd_sc_hd__nand2_1
*I *3391:Y O *D sky130_fd_sc_hd__nand3_1
*CAP
1 *3402:B1 0.000108328
2 *3393:A 0.000100028
3 *3391:Y 2.4614e-05
4 *817:6 0.00023297
5 *3392:B1 *3393:A 1.24368e-05
6 *3392:B1 *3402:B1 8.17274e-05
7 *739:16 *3393:A 6.36478e-05
8 *781:79 *3402:B1 0.000127439
9 *781:92 *3402:B1 5.58941e-05
10 *815:22 *3402:B1 4.56437e-05
11 *815:26 *3402:B1 0.000127439
*RES
1 *3391:Y *817:6 9.72857 
2 *817:6 *3393:A 11.0857 
3 *817:6 *3402:B1 21.4964 
*END

*D_NET *818 0.000715539
*CONN
*I *3393:B I *D sky130_fd_sc_hd__nand2_1
*I *3392:X O *D sky130_fd_sc_hd__a21o_1
*CAP
1 *3393:B 0.000184363
2 *3392:X 0.000184363
3 *3390:B *3393:B 2.07491e-05
4 *3392:A2 *3393:B 3.69047e-06
5 *3402:A1_N *3393:B 0.000180955
6 *3402:B2 *3393:B 1.39726e-05
7 *751:14 *3393:B 0.000127446
*RES
1 *3392:X *3393:B 31.0107 
*END

*D_NET *819 0.00907146
*CONN
*I *3397:B1 I *D sky130_fd_sc_hd__a211o_1
*I *3512:B1 I *D sky130_fd_sc_hd__a31o_1
*I *3513:B I *D sky130_fd_sc_hd__nand4_1
*I *3393:Y O *D sky130_fd_sc_hd__nand2_1
*CAP
1 *3397:B1 3.21844e-05
2 *3512:B1 3.42597e-05
3 *3513:B 6.42622e-05
4 *3393:Y 0.00188549
5 *819:18 0.000887035
6 *819:14 0.00270619
7 *3397:B1 *3397:C1 4.15183e-05
8 *3397:B1 *3408:A2 5.71472e-05
9 *3397:B1 *3502:A2 5.33005e-05
10 *3512:B1 *3519:A3 0.000142856
11 *3512:B1 *997:63 2.14658e-05
12 *3513:B *3487:A2 1.30413e-05
13 *3513:B *3513:D 1.26641e-05
14 *3513:B *997:63 9.02385e-06
15 *819:14 *3338:A2 0.000348146
16 *819:14 *3521:B1 0
17 *819:14 *828:12 0
18 *819:14 *990:12 0.000150632
19 *819:14 *990:14 0.000201127
20 *819:18 *3521:B1 0
21 *819:18 *3527:B1 0
22 *819:18 *917:32 0.0006051
23 *3387:B *3397:B1 1.02504e-05
24 *369:199 *3513:B 4.11173e-05
25 *369:199 *819:18 0.000606656
26 *739:16 *819:14 0.000224583
27 *757:14 *819:14 0.000682105
28 *812:10 *3397:B1 4.32258e-05
29 *814:35 *3512:B1 9.90367e-05
30 *814:37 *3512:B1 9.90431e-05
*RES
1 *3393:Y *819:14 33.588 
2 *819:14 *819:18 5.54693 
3 *819:18 *3513:B 14.9875 
4 *819:18 *3512:B1 15.5679 
5 *819:14 *3397:B1 18.3261 
*END

*D_NET *820 0.000203903
*CONN
*I *3395:B I *D sky130_fd_sc_hd__xnor2_2
*I *3394:X O *D sky130_fd_sc_hd__a21o_1
*CAP
1 *3395:B 7.95413e-05
2 *3394:X 7.95413e-05
3 *3395:B *992:16 4.48206e-05
*RES
1 *3394:X *3395:B 29.2429 
*END

*D_NET *821 0.00603428
*CONN
*I *3396:A I *D sky130_fd_sc_hd__inv_2
*I *3508:B I *D sky130_fd_sc_hd__or3b_4
*I *3397:C1 I *D sky130_fd_sc_hd__a211o_1
*I *3395:Y O *D sky130_fd_sc_hd__xnor2_2
*CAP
1 *3396:A 0
2 *3508:B 0.000177717
3 *3397:C1 0.000175777
4 *3395:Y 0.00073362
5 *821:45 0.000634815
6 *821:12 0.0013665
7 *3397:C1 *3671:A 9.91086e-05
8 *3397:C1 *833:14 4.46186e-06
9 *3508:B *997:30 0.000148196
10 *3508:B *997:43 4.45694e-05
11 *3508:B *1059:107 0.00019342
12 *821:12 *3671:A 4.66511e-05
13 *821:12 *992:16 0.000170532
14 *821:12 *1050:39 0
15 *821:12 *1051:83 0.000192204
16 *821:45 *3502:A2 0.000144773
17 *821:45 *3502:B1 0.000219711
18 *821:45 *3502:B2 3.18676e-05
19 *821:45 *3662:A 0.000315159
20 *821:45 *917:32 2.14199e-05
21 *821:45 *1042:14 1.53725e-05
22 *821:45 *1042:18 0
23 *3253:A *821:12 0.000366675
24 *3255:A *3397:C1 0
25 *3255:A *821:12 0
26 *3255:C *821:12 0
27 *3394:A2 *821:12 0
28 *3397:B1 *3397:C1 4.15183e-05
29 *3494:A2 *821:12 5.94215e-05
30 *3501:B *821:12 0
31 *3502:A1 *821:45 0.000230822
32 *3508:A *3508:B 0.000224583
33 *805:46 *821:45 0.000122939
34 *805:54 *821:45 1.58163e-05
35 *808:24 *821:45 0.000136951
36 *808:30 *821:45 7.49387e-06
37 *812:10 *3397:C1 1.30327e-05
38 *812:10 *821:12 2.58997e-05
39 *814:14 *3508:B 7.43578e-06
40 *814:35 *821:45 4.58194e-05
*RES
1 *3395:Y *821:12 29.4607 
2 *821:12 *3397:C1 16.5857 
3 *821:12 *821:45 25.8571 
4 *821:45 *3508:B 23.0321 
5 *821:45 *3396:A 9.3 
*END

*D_NET *822 0.0018478
*CONN
*I *3513:C I *D sky130_fd_sc_hd__nand4_1
*I *3512:A2 I *D sky130_fd_sc_hd__a31o_1
*I *3507:B1 I *D sky130_fd_sc_hd__a21o_1
*I *3396:Y O *D sky130_fd_sc_hd__inv_2
*CAP
1 *3513:C 0
2 *3512:A2 1.16245e-05
3 *3507:B1 5.38205e-05
4 *3396:Y 0.000163632
5 *822:14 0.000163976
6 *822:10 0.000262163
7 *3507:B1 *3507:A2 0.000148196
8 *3512:A2 *3507:A2 2.48938e-05
9 *3512:A2 *997:63 3.51442e-05
10 *822:14 *3519:A3 1.21258e-05
11 *3487:B1 *822:10 5.52238e-05
12 *3507:A1 *3507:B1 9.91086e-05
13 *3507:A1 *3512:A2 3.34366e-05
14 *118:85 *3507:B1 2.72449e-05
15 *118:85 *3512:A2 1.41029e-05
16 *369:199 *822:14 0.00022266
17 *814:35 *822:10 0.000254995
18 *814:35 *822:14 0.000125547
19 *814:37 *822:14 0.000139907
*RES
1 *3396:Y *822:10 12.8536 
2 *822:10 *822:14 7.5 
3 *822:14 *3507:B1 15.7464 
4 *822:14 *3512:A2 14.5321 
5 *822:10 *3513:C 9.3 
*END

*D_NET *823 0.00383716
*CONN
*I *3408:A2 I *D sky130_fd_sc_hd__o21ai_2
*I *3521:A1 I *D sky130_fd_sc_hd__a21oi_1
*I *3522:A I *D sky130_fd_sc_hd__and3_1
*I *3528:A I *D sky130_fd_sc_hd__nand2_1
*I *3397:X O *D sky130_fd_sc_hd__a211o_1
*CAP
1 *3408:A2 0.000187753
2 *3521:A1 0
3 *3522:A 0.000409146
4 *3528:A 7.54379e-05
5 *3397:X 0
6 *823:24 0.000642337
7 *823:14 0.000288071
8 *823:4 0.000318071
9 *3408:A2 *3502:A2 0.000105637
10 *3408:A2 *3671:A 1.15281e-05
11 *3408:A2 *830:20 0.000396898
12 *3522:A *3522:B 5.86356e-05
13 *3522:A *3522:C 1.95435e-05
14 *3522:A *3528:B 0.000105559
15 *3522:A *829:12 3.97677e-05
16 *3522:A *833:14 5.52302e-05
17 *3522:A *934:6 3.80079e-05
18 *3528:A *3528:B 0.00022459
19 *3528:A *939:10 5.33334e-05
20 *823:14 *3502:A2 1.39841e-05
21 *823:14 *3670:A 5.41794e-05
22 *823:14 *1036:8 2.28598e-05
23 *823:14 *1042:18 2.1527e-05
24 *823:24 *3521:B1 1.97695e-05
25 *823:24 *3523:A 9.25014e-06
26 *823:24 *3529:A2 2.39876e-05
27 *823:24 *1036:8 5.33005e-05
28 *823:24 *1036:18 9.41642e-05
29 *823:24 *1042:18 6.7848e-05
30 *823:24 *1042:20 2.53056e-05
31 *3387:A *823:24 9.76928e-05
32 *3387:B *823:14 5.33005e-05
33 *3387:B *823:24 5.96516e-05
34 *3397:A2 *3408:A2 5.52302e-05
35 *3397:B1 *3408:A2 5.71472e-05
36 *3502:A1 *3408:A2 1.97695e-05
37 *805:35 *823:14 5.86416e-05
*RES
1 *3397:X *823:4 9.3 
2 *823:4 *823:14 11.7143 
3 *823:14 *823:24 13.3393 
4 *823:24 *3528:A 11.4786 
5 *823:24 *3522:A 16.0143 
6 *823:14 *3521:A1 9.3 
7 *823:4 *3408:A2 14.8 
*END

*D_NET *824 0.0025049
*CONN
*I *3399:B I *D sky130_fd_sc_hd__nand2_1
*I *3400:B I *D sky130_fd_sc_hd__xor2_2
*I *3398:Y O *D sky130_fd_sc_hd__a21boi_2
*CAP
1 *3399:B 4.77286e-05
2 *3400:B 0.000317191
3 *3398:Y 0.000269462
4 *3399:B *826:16 1.844e-05
5 *3400:B *828:12 1.08359e-05
6 *3400:A *3399:B 9.23592e-05
7 *3401:A *3399:B 0.000138881
8 *3401:A *3400:B 0.000343203
9 *720:16 *3400:B 0.000115473
10 *736:18 *3400:B 0.00036496
11 *751:14 *3400:B 0.000717247
12 *781:92 *3400:B 5.33005e-05
13 *806:16 *3400:B 1.58163e-05
*RES
1 *3398:Y *3400:B 28.0679 
2 *3400:B *3399:B 11.0054 
*END

*D_NET *825 0.000658115
*CONN
*I *3404:B I *D sky130_fd_sc_hd__xor2_1
*I *3399:Y O *D sky130_fd_sc_hd__nand2_1
*CAP
1 *3404:B 0.000142499
2 *3399:Y 0.000142499
3 *3400:A *3404:B 5.68722e-05
4 *3404:A *3404:B 0.000127446
5 *747:12 *3404:B 9.77264e-06
6 *808:14 *3404:B 0.000179025
*RES
1 *3399:Y *3404:B 30.6 
*END

*D_NET *826 0.00654844
*CONN
*I *3401:C I *D sky130_fd_sc_hd__nand3_1
*I *3403:A I *D sky130_fd_sc_hd__and2_1
*I *3529:A1 I *D sky130_fd_sc_hd__o221ai_2
*I *3400:X O *D sky130_fd_sc_hd__xor2_2
*CAP
1 *3401:C 2.06112e-05
2 *3403:A 0
3 *3529:A1 9.88634e-05
4 *3400:X 0.00063343
5 *826:32 0.00101281
6 *826:16 0.00156799
7 *3529:A1 *3403:B 9.60875e-05
8 *3529:A1 *3529:B2 9.6087e-05
9 *826:16 *1049:34 0
10 *826:32 *3338:A2 2.13687e-05
11 *826:32 *3403:B 0.000112418
12 *826:32 *3535:A1 5.59013e-05
13 *3255:A *826:32 0
14 *3338:A1 *826:32 0.000103267
15 *3338:B1 *826:32 7.15099e-05
16 *3339:B *826:32 4.35248e-05
17 *3386:C *826:32 1.74352e-05
18 *3399:B *826:16 1.844e-05
19 *3400:A *3401:C 0
20 *3400:A *826:16 1.20135e-05
21 *3401:A *3401:C 3.99614e-06
22 *3401:A *826:16 0.00033285
23 *3401:B *826:16 1.55885e-05
24 *3404:A *826:16 7.90803e-05
25 *3501:A *826:32 0.000227539
26 *3501:B *826:32 1.02504e-05
27 *148:73 *3529:A1 0.000311196
28 *148:73 *826:32 1.74352e-05
29 *244:6 *826:32 9.90367e-05
30 *244:19 *826:32 5.52302e-05
31 *680:8 *826:32 0.00022251
32 *744:8 *826:16 9.25014e-06
33 *747:12 *826:16 5.58941e-05
34 *776:18 *826:16 3.32631e-05
35 *776:31 *826:16 0
36 *808:14 *826:16 0.00016834
37 *808:14 *826:32 0.000785309
38 *808:24 *826:32 0.000139913
*RES
1 *3400:X *826:16 27.8179 
2 *826:16 *826:32 39.7143 
3 *826:32 *3529:A1 12.7286 
4 *826:32 *3403:A 9.3 
5 *826:16 *3401:C 9.72857 
*END

*D_NET *827 0.00234925
*CONN
*I *3408:A1 I *D sky130_fd_sc_hd__o21ai_2
*I *3401:Y O *D sky130_fd_sc_hd__nand3_1
*CAP
1 *3408:A1 0.000719823
2 *3401:Y 0.000719823
3 *3408:A1 *830:20 6.62983e-05
4 *3334:A *3408:A1 0
5 *680:8 *3408:A1 6.28601e-05
6 *808:14 *3408:A1 0.000780443
*RES
1 *3401:Y *3408:A1 38.5286 
*END

*D_NET *828 0.00640717
*CONN
*I *3522:C I *D sky130_fd_sc_hd__and3_1
*I *3403:B I *D sky130_fd_sc_hd__and2_1
*I *3521:B1 I *D sky130_fd_sc_hd__a21oi_1
*I *3402:X O *D sky130_fd_sc_hd__a2bb2o_1
*CAP
1 *3522:C 1.59879e-05
2 *3403:B 0.000115678
3 *3521:B1 0.00023148
4 *3402:X 0.00128891
5 *828:33 0.00020173
6 *828:12 0.00159045
7 *3403:B *3535:A1 2.87379e-05
8 *3403:B *833:14 1.02504e-05
9 *3521:B1 *3670:A 5.33005e-05
10 *3521:B1 *830:20 6.7848e-05
11 *3521:B1 *832:16 8.72697e-05
12 *3521:B1 *1036:8 0.000136951
13 *3521:B1 *1036:53 3.13843e-05
14 *828:12 *3338:A2 0.000551487
15 *828:12 *3350:A 0
16 *828:12 *3748:A 9.06586e-05
17 *828:12 *832:16 0.000157742
18 *828:12 *1046:8 2.06178e-05
19 *828:12 *1049:34 0.000482156
20 *828:33 *833:14 0.00016935
21 *3255:A *3403:B 0.00012401
22 *3255:A *828:33 0.000180315
23 *3343:B1 *828:12 0
24 *3387:B *3521:B1 4.27338e-05
25 *3400:B *828:12 1.08359e-05
26 *3401:A *828:12 0.00029513
27 *3404:A *828:12 0
28 *3522:A *3522:C 1.95435e-05
29 *3529:A1 *3403:B 9.60875e-05
30 *148:73 *3403:B 4.88637e-05
31 *751:14 *828:12 0.000125476
32 *751:16 *828:12 0
33 *755:8 *828:12 0
34 *760:10 *828:12 0
35 *819:14 *3521:B1 0
36 *819:14 *828:12 0
37 *819:18 *3521:B1 0
38 *823:24 *3521:B1 1.97695e-05
39 *826:32 *3403:B 0.000112418
*RES
1 *3402:X *828:12 29.8425 
2 *828:12 *3521:B1 20.287 
3 *828:12 *828:33 5.81179 
4 *828:33 *3403:B 17.2107 
5 *828:33 *3522:C 13.9964 
*END

*D_NET *829 0.00157009
*CONN
*I *3407:A1 I *D sky130_fd_sc_hd__o21a_1
*I *3528:B I *D sky130_fd_sc_hd__nand2_1
*I *3403:X O *D sky130_fd_sc_hd__and2_1
*CAP
1 *3407:A1 0
2 *3528:B 0.000257979
3 *3403:X 8.15494e-05
4 *829:12 0.000339528
5 *3528:B *3529:A2 5.33005e-05
6 *3528:B *934:6 8.17274e-05
7 *3528:B *997:30 6.05161e-06
8 *829:12 *3407:B1 1.24469e-05
9 *829:12 *3529:B2 0.000114999
10 *829:12 *3535:A1 7.79781e-06
11 *829:12 *934:6 9.41642e-05
12 *3522:A *3528:B 0.000105559
13 *3522:A *829:12 3.97677e-05
14 *3528:A *3528:B 0.00022459
15 *805:35 *829:12 0.000150625
*RES
1 *3403:X *829:12 21.1929 
2 *829:12 *3528:B 14.7821 
3 *829:12 *3407:A1 9.3 
*END

*D_NET *830 0.00526129
*CONN
*I *3407:A2 I *D sky130_fd_sc_hd__o21a_1
*I *3535:B1 I *D sky130_fd_sc_hd__a21oi_1
*I *3536:A1 I *D sky130_fd_sc_hd__a31o_1
*I *3404:X O *D sky130_fd_sc_hd__xor2_1
*CAP
1 *3407:A2 0
2 *3535:B1 1.69531e-05
3 *3536:A1 6.35717e-05
4 *3404:X 0.00118417
5 *830:28 0.000347947
6 *830:20 0.00145159
7 *3535:B1 *3535:A1 5.33005e-05
8 *3536:A1 *3536:A3 5.74893e-05
9 *830:20 *934:6 4.27935e-05
10 *830:20 *1036:53 1.71615e-05
11 *830:20 *1049:34 7.3237e-05
12 *830:28 *3523:C 8.00806e-05
13 *830:28 *3536:A3 3.34295e-05
14 *830:28 *934:6 5.33005e-05
15 *830:28 *1042:20 0.0001928
16 *3334:A *830:20 1.92789e-05
17 *3387:A *830:28 1.66358e-05
18 *3387:B *830:20 9.91086e-05
19 *3408:A1 *830:20 6.62983e-05
20 *3408:A2 *830:20 0.000396898
21 *3521:B1 *830:20 6.7848e-05
22 *3536:B1 *3536:A1 2.06112e-05
23 *758:16 *3535:B1 5.33005e-05
24 *760:10 *830:20 9.80173e-05
25 *805:8 *3536:A1 0.000145398
26 *805:8 *830:28 4.63862e-05
27 *805:35 *830:20 0.000262956
28 *805:35 *830:28 0.000300732
*RES
1 *3404:X *830:20 36.4429 
2 *830:20 *830:28 11.7679 
3 *830:28 *3536:A1 15.7464 
4 *830:28 *3535:B1 14.3357 
5 *830:20 *3407:A2 9.3 
*END

*D_NET *831 0.000672002
*CONN
*I *3406:B I *D sky130_fd_sc_hd__nand2_1
*I *3405:Y O *D sky130_fd_sc_hd__o21ai_1
*CAP
1 *3406:B 0.000161867
2 *3405:Y 0.000161867
3 *3406:B *3657:A3 0.000148189
4 *3406:B *1047:12 2.83916e-05
5 *3405:A2 *3406:B 0.000140933
6 *772:8 *3406:B 3.07555e-05
*RES
1 *3405:Y *3406:B 30.9036 
*END

*D_NET *832 0.00531111
*CONN
*I *3407:B1 I *D sky130_fd_sc_hd__o21a_1
*I *3529:B2 I *D sky130_fd_sc_hd__o221ai_2
*I *3406:Y O *D sky130_fd_sc_hd__nand2_1
*CAP
1 *3407:B1 6.56579e-06
2 *3529:B2 0.000334402
3 *3406:Y 0.0012567
4 *832:16 0.00159767
5 *3407:B1 *3535:A1 9.60337e-06
6 *3529:B2 *3535:A1 6.82648e-05
7 *832:16 *3338:A2 0.000990176
8 *832:16 *3405:A1 5.26091e-05
9 *832:16 *1047:12 0.000299691
10 *3343:B1 *832:16 1.2012e-05
11 *3521:B1 *832:16 8.72697e-05
12 *3529:A1 *3529:B2 9.6087e-05
13 *3657:B1 *832:16 0
14 *148:73 *3529:B2 9.05645e-05
15 *369:171 *3529:B2 0
16 *760:12 *832:16 0
17 *767:10 *832:16 0.000112496
18 *805:35 *3529:B2 1.18064e-05
19 *828:12 *832:16 0.000157742
20 *829:12 *3407:B1 1.24469e-05
21 *829:12 *3529:B2 0.000114999
*RES
1 *3406:Y *832:16 29.4317 
2 *832:16 *3529:B2 20.2554 
3 *832:16 *3407:B1 14.0768 
*END

*D_NET *833 0.00205427
*CONN
*I *3502:A2 I *D sky130_fd_sc_hd__o221ai_2
*I *3408:B1 I *D sky130_fd_sc_hd__o21ai_2
*I *3407:X O *D sky130_fd_sc_hd__o21a_1
*CAP
1 *3502:A2 0.000195028
2 *3408:B1 0
3 *3407:X 0.000347067
4 *833:14 0.000542095
5 *3502:A2 *3671:A 7.32272e-05
6 *833:14 *3535:A1 3.49114e-05
7 *833:14 *1036:53 8.38473e-05
8 *3255:A *833:14 0.000132708
9 *3387:B *833:14 0
10 *3397:A2 *3502:A2 5.52302e-05
11 *3397:B1 *3502:A2 5.33005e-05
12 *3397:C1 *833:14 4.46186e-06
13 *3403:B *833:14 1.02504e-05
14 *3408:A2 *3502:A2 0.000105637
15 *3502:A1 *3502:A2 3.31648e-05
16 *3522:A *833:14 5.52302e-05
17 *821:45 *3502:A2 0.000144773
18 *823:14 *3502:A2 1.39841e-05
19 *828:33 *833:14 0.00016935
*RES
1 *3407:X *833:14 24.9607 
2 *833:14 *3408:B1 9.3 
3 *833:14 *3502:A2 14.3893 
*END

*D_NET *834 0.00076451
*CONN
*I *3671:A I *D sky130_fd_sc_hd__buf_6
*I *3408:Y O *D sky130_fd_sc_hd__o21ai_2
*CAP
1 *3671:A 0.00019326
2 *3408:Y 0.00019326
3 *3397:C1 *3671:A 9.91086e-05
4 *3408:A2 *3671:A 1.15281e-05
5 *3502:A2 *3671:A 7.32272e-05
6 *812:10 *3671:A 0.000147474
7 *821:12 *3671:A 4.66511e-05
*RES
1 *3408:Y *3671:A 31.3143 
*END

*D_NET *835 0.0010698
*CONN
*I *3410:B1 I *D sky130_fd_sc_hd__a211o_1
*I *3409:Y O *D sky130_fd_sc_hd__nor2_1
*CAP
1 *3410:B1 0.000252797
2 *3409:Y 0.000252797
3 *3410:B1 *3410:A2 0.000134124
4 *3410:B1 *3440:A 5.59013e-05
5 *3410:B1 *1059:26 4.54415e-05
6 *3410:B1 *1062:37 5.33005e-05
7 *3410:B1 *1067:58 4.97121e-06
8 *3410:A1 *3410:B1 5.90995e-05
9 *146:61 *3410:B1 0.000158031
10 *147:29 *3410:B1 5.33334e-05
*RES
1 *3409:Y *3410:B1 33.4571 
*END

*D_NET *836 0.00365706
*CONN
*I *3429:A1 I *D sky130_fd_sc_hd__a32o_1
*I *3410:X O *D sky130_fd_sc_hd__a211o_1
*CAP
1 *3429:A1 0
2 *3410:X 0.000954809
3 *836:20 0.000954809
4 *836:20 *3428:A1 5.1612e-05
5 *836:20 *3429:A2 0.000251915
6 *836:20 *3429:A3 5.83233e-05
7 *836:20 *3429:B1 0.000134748
8 *836:20 *3434:A2 0.000309266
9 *2939:A *836:20 0.000487467
10 *3432:C *836:20 0.000244297
11 *3433:B1 *836:20 2.0037e-05
12 *146:6 *836:20 5.52238e-05
13 *146:57 *836:20 2.59355e-05
14 *146:98 *836:20 0
15 *379:16 *836:20 6.87574e-05
16 *379:53 *836:20 3.98559e-05
*RES
1 *3410:X *836:20 47.8714 
2 *836:20 *3429:A1 9.3 
*END

*D_NET *837 0.000850095
*CONN
*I *3413:B I *D sky130_fd_sc_hd__nand3_1
*I *3411:X O *D sky130_fd_sc_hd__and4_1
*CAP
1 *3413:B 0.000156626
2 *3411:X 0.000156626
3 *3413:B *3415:C 9.69778e-05
4 *3413:B *3543:C 0.000271345
5 *3412:D *3413:B 4.27437e-05
6 *3413:A *3413:B 2.32625e-05
7 *3415:A *3413:B 9.90367e-05
8 *132:36 *3413:B 3.47641e-06
9 *132:62 *3413:B 0
*RES
1 *3411:X *3413:B 31.9393 
*END

*D_NET *838 0.000951862
*CONN
*I *3413:C I *D sky130_fd_sc_hd__nand3_1
*I *3412:X O *D sky130_fd_sc_hd__and4b_1
*CAP
1 *3413:C 0.000196982
2 *3412:X 0.000196982
3 *3413:C *3412:C 0.000136951
4 *3413:C *3416:A3 9.78828e-05
5 *3413:C *3416:B1 0.00017207
6 *3413:C *1073:50 0.00014183
7 *3412:D *3413:C 9.16325e-06
*RES
1 *3412:X *3413:C 31.6536 
*END

*D_NET *839 0.000663858
*CONN
*I *3416:B1 I *D sky130_fd_sc_hd__o31a_1
*I *3413:Y O *D sky130_fd_sc_hd__nand3_1
*CAP
1 *3416:B1 0.000164233
2 *3413:Y 0.000164233
3 *3416:B1 *3416:A3 2.33003e-05
4 *3416:B1 *1073:50 2.14757e-05
5 *3412:D *3416:B1 0.000118545
6 *3413:C *3416:B1 0.00017207
*RES
1 *3413:Y *3416:B1 30.6 
*END

*D_NET *840 0.00123785
*CONN
*I *3415:C I *D sky130_fd_sc_hd__or3_1
*I *3414:X O *D sky130_fd_sc_hd__or4_1
*CAP
1 *3415:C 0.000390807
2 *3414:X 0.000390807
3 *3415:C *3411:A 3.34672e-05
4 *3415:C *3412:A_N 0.000128146
5 *3415:C *3543:C 0
6 *3415:C *1061:176 0
7 *3415:C *1073:50 0
8 *3411:B *3415:C 0
9 *3413:B *3415:C 9.69778e-05
10 *3414:D *3415:C 9.6561e-06
11 *131:40 *3415:C 0.000181796
12 *132:36 *3415:C 6.18969e-06
*RES
1 *3414:X *3415:C 34.2607 
*END

*D_NET *841 0.00150262
*CONN
*I *3416:A3 I *D sky130_fd_sc_hd__o31a_1
*I *3415:X O *D sky130_fd_sc_hd__or3_1
*CAP
1 *3416:A3 0.00049973
2 *3415:X 0.00049973
3 *3416:A3 *3423:A 2.8266e-06
4 *3416:A3 *3543:C 5.52238e-05
5 *3416:A3 *1073:50 4.8843e-05
6 *3412:D *3416:A3 0.000199581
7 *3413:A *3416:A3 5.33005e-05
8 *3413:C *3416:A3 9.78828e-05
9 *3416:A1 *3416:A3 2.22043e-05
10 *3416:B1 *3416:A3 2.33003e-05
11 *3417:B *3416:A3 0
*RES
1 *3415:X *3416:A3 35.8679 
*END

*D_NET *842 0.00321635
*CONN
*I *3423:A I *D sky130_fd_sc_hd__or4b_1
*I *3416:X O *D sky130_fd_sc_hd__o31a_1
*CAP
1 *3423:A 0.000588247
2 *3416:X 0.000588247
3 *3423:A *3526:B1 5.74502e-05
4 *3423:A *3533:A2 0.000706032
5 *3423:A *902:21 9.35918e-05
6 *3423:A *1060:37 0
7 *3423:A *1071:24 0.000234306
8 *3423:A *1073:50 0
9 *3416:A1 *3423:A 0.000628535
10 *3416:A3 *3423:A 2.8266e-06
11 *3417:B *3423:A 4.28249e-05
12 *3421:C *3423:A 0.000274288
*RES
1 *3416:X *3423:A 40.6258 
*END

*D_NET *843 0.00319612
*CONN
*I *3418:D_N I *D sky130_fd_sc_hd__or4b_1
*I *3417:X O *D sky130_fd_sc_hd__and4b_1
*CAP
1 *3418:D_N 0
2 *3417:X 0.0011017
3 *843:22 0.0011017
4 *843:22 *902:21 9.71152e-05
5 *843:22 *1072:79 9.87627e-05
6 *843:22 *1085:66 2.1527e-05
7 *3518:B *843:22 9.91956e-05
8 *3531:B *843:22 5.80706e-06
9 *125:42 *843:22 0.000464594
10 *126:50 *843:22 0.000177815
11 *129:48 *843:22 2.79092e-05
*RES
1 *3417:X *843:22 43.8 
2 *843:22 *3418:D_N 9.3 
*END

*D_NET *844 0.000970242
*CONN
*I *3419:B I *D sky130_fd_sc_hd__or2_1
*I *3418:X O *D sky130_fd_sc_hd__or4b_1
*CAP
1 *3419:B 0.000285648
2 *3418:X 0.000285648
3 *3419:B *3423:B 8.6229e-06
4 *3418:A *3419:B 2.44318e-05
5 *3419:A *3419:B 4.6025e-06
6 *3518:B *3419:B 0.00030926
7 *122:102 *3419:B 5.20298e-05
*RES
1 *3418:X *3419:B 31.7429 
*END

*D_NET *845 0.00088169
*CONN
*I *3423:B I *D sky130_fd_sc_hd__or4b_1
*I *3419:X O *D sky130_fd_sc_hd__or2_1
*CAP
1 *3423:B 0.000298758
2 *3419:X 0.000298758
3 *3423:B *1060:29 0
4 *3423:B *1060:37 1.2958e-05
5 *3423:B *1070:10 1.34009e-05
6 *3419:B *3423:B 8.6229e-06
7 *3518:B *3423:B 0.000140933
8 *122:70 *3423:B 4.6025e-06
9 *122:102 *3423:B 0.000103656
*RES
1 *3419:X *3423:B 32.4214 
*END

*D_NET *846 0.00021666
*CONN
*I *3422:A2 I *D sky130_fd_sc_hd__o22a_1
*I *3420:X O *D sky130_fd_sc_hd__or4b_1
*CAP
1 *3422:A2 2.51686e-05
2 *3420:X 2.51686e-05
3 *3422:A2 *3420:C 9.71197e-05
4 *3422:A1 *3422:A2 5.52302e-05
5 *3422:B2 *3422:A2 1.39726e-05
*RES
1 *3420:X *3422:A2 19.5464 
*END

*D_NET *847 0.000285573
*CONN
*I *3422:B1 I *D sky130_fd_sc_hd__o22a_1
*I *3421:X O *D sky130_fd_sc_hd__or4b_1
*CAP
1 *3422:B1 9.27638e-05
2 *3421:X 9.27638e-05
3 *3422:B1 *3421:D_N 2.95641e-05
4 *3422:B1 *3423:C 5.71472e-05
5 *3422:A1 *3422:B1 1.33343e-05
6 *3422:B2 *3422:B1 0
*RES
1 *3421:X *3422:B1 20.6893 
*END

*D_NET *848 0.00105648
*CONN
*I *3423:C I *D sky130_fd_sc_hd__or4b_1
*I *3422:X O *D sky130_fd_sc_hd__o22a_1
*CAP
1 *3423:C 0.000141652
2 *3422:X 0.000141652
3 *3423:C *3421:D_N 4.58976e-05
4 *2925:B1 *3423:C 0.000273269
5 *3421:C *3423:C 0.000311183
6 *3422:B1 *3423:C 5.71472e-05
7 *122:74 *3423:C 8.56752e-05
*RES
1 *3422:X *3423:C 23.6536 
*END

*D_NET *849 0.00304311
*CONN
*I *3442:C I *D sky130_fd_sc_hd__and3_1
*I *3424:B I *D sky130_fd_sc_hd__and2_1
*I *3423:X O *D sky130_fd_sc_hd__or4b_1
*CAP
1 *3442:C 2.5506e-05
2 *3424:B 9.58472e-05
3 *3423:X 0.000558629
4 *849:12 0.000679982
5 *3424:B *3425:B 5.52238e-05
6 *3424:B *1060:45 9.21456e-05
7 *3424:B *1060:55 0.000148196
8 *3424:B *1083:31 1.3142e-05
9 *3442:C *866:20 6.04072e-05
10 *849:12 *3476:A 2.0587e-05
11 *849:12 *3628:RESET_B 7.80456e-05
12 *849:12 *882:57 0
13 *849:12 *895:21 0.000100823
14 *849:12 *1060:37 7.861e-05
15 *849:12 *1060:45 0.000264022
16 *849:12 *1074:73 7.26935e-05
17 *3442:A *3424:B 0.000219592
18 *122:29 *849:12 0.000213012
19 *122:42 *849:12 0.000161411
20 *123:12 *849:12 3.40133e-05
21 *254:62 *3442:C 1.79251e-05
22 *255:68 *3424:B 5.33005e-05
*RES
1 *3423:X *849:12 25.925 
2 *849:12 *3424:B 17.4964 
3 *849:12 *3442:C 14.4071 
*END

*D_NET *850 0.000563716
*CONN
*I *3686:A I *D sky130_fd_sc_hd__clkbuf_2
*I *3424:X O *D sky130_fd_sc_hd__and2_1
*CAP
1 *3686:A 9.76473e-05
2 *3424:X 9.76473e-05
3 *3686:A *3685:A 8.00806e-05
4 *3686:A *866:56 9.41642e-05
5 *3686:A *1060:45 3.95139e-05
6 *3686:A *1060:55 4.15914e-05
7 *3686:A *1063:23 6.72518e-05
8 *254:62 *3686:A 4.58194e-05
*RES
1 *3424:X *3686:A 30.4929 
*END

*D_NET *851 0.0164507
*CONN
*I *3517:B1 I *D sky130_fd_sc_hd__a31oi_1
*I *3509:A I *D sky130_fd_sc_hd__and3_1
*I *3464:B1 I *D sky130_fd_sc_hd__a221o_1
*I *3444:A1 I *D sky130_fd_sc_hd__a21o_1
*I *3526:B1 I *D sky130_fd_sc_hd__a31o_1
*I *3425:X O *D sky130_fd_sc_hd__and2_1
*CAP
1 *3517:B1 0.000106082
2 *3509:A 0.000619595
3 *3464:B1 0.000215327
4 *3444:A1 0.000267575
5 *3526:B1 0.000310897
6 *3425:X 0.000780938
7 *851:59 0.00106237
8 *851:33 0.000851625
9 *851:29 0.001232
10 *851:12 0.00161842
11 *3444:A1 *3444:A2 9.90367e-05
12 *3444:A1 *3444:B1 1.74352e-05
13 *3464:B1 *3464:A2 3.33238e-05
14 *3464:B1 *1085:22 0.000189489
15 *3509:A *3509:C 3.9991e-05
16 *3509:A *3511:C1 5.85965e-05
17 *3517:B1 *3458:A2 0.000148903
18 *3517:B1 *3517:A1 3.51442e-05
19 *3517:B1 *3519:B1 6.05161e-06
20 *3517:B1 *975:10 0
21 *3526:B1 *3526:A2 0.000431857
22 *3526:B1 *902:21 4.60718e-05
23 *3526:B1 *967:168 0.000431857
24 *3526:B1 *1060:29 4.79557e-05
25 *3526:B1 *1060:37 1.85363e-05
26 *3526:B1 *1060:135 0.000258722
27 *3526:B1 *1071:24 1.8115e-05
28 *851:12 *3685:A 0.000101545
29 *851:12 *1060:37 0.000352815
30 *851:12 *1060:39 7.83587e-05
31 *851:12 *1060:45 0.000273324
32 *851:12 *1062:67 0.000214741
33 *851:12 *1063:23 0.00022485
34 *851:12 *1066:23 5.39552e-05
35 *851:12 *1066:55 0.000242432
36 *851:29 *3682:A 0.000364407
37 *851:29 *1060:135 0.00102627
38 *851:29 *1061:236 0.000663439
39 *851:33 *3511:B1 0.000170654
40 *851:59 *3458:A2 0.000408204
41 *851:59 *3682:A 0.000211829
42 *851:59 *975:10 0
43 *851:59 *1061:236 9.37043e-05
44 *3416:A1 *3526:B1 0.000305623
45 *3416:A1 *851:29 9.03213e-05
46 *3418:A *3509:A 0.000611084
47 *3423:A *3526:B1 5.74502e-05
48 *3423:D_N *851:12 0
49 *3620:D *851:12 0
50 *121:10 *3444:A1 3.5707e-05
51 *121:10 *851:33 7.79781e-06
52 *121:25 *851:33 0.000174357
53 *122:53 *851:12 9.88134e-05
54 *122:70 *851:12 2.01584e-05
55 *127:28 *3517:B1 1.58163e-05
56 *148:10 *3444:A1 9.25014e-06
57 *148:19 *3444:A1 9.15804e-05
58 *148:45 *3444:A1 0.000279164
59 *148:45 *851:33 0.000803425
60 *148:45 *851:59 4.10486e-05
61 *255:46 *851:12 9.60875e-05
62 *255:68 *3444:A1 0
63 *255:68 *851:12 0.000265453
64 *355:12 *851:33 2.11372e-05
*RES
1 *3425:X *851:12 35.1654 
2 *851:12 *3526:B1 24.0198 
3 *851:12 *851:29 2.209 
4 *851:29 *851:33 14.0082 
5 *851:33 *3444:A1 20.1393 
6 *851:33 *3464:B1 17.6214 
7 *851:29 *851:59 9.18277 
8 *851:59 *3509:A 23.3179 
9 *851:59 *3517:B1 16.2821 
*END

*D_NET *852 0.000539406
*CONN
*I *3428:A1 I *D sky130_fd_sc_hd__a21o_1
*I *3426:Y O *D sky130_fd_sc_hd__nand2_1
*CAP
1 *3428:A1 0.000166895
2 *3426:Y 0.000166895
3 *3428:A1 *3429:A3 0
4 *146:98 *3428:A1 0.000148196
5 *369:85 *3428:A1 5.80706e-06
6 *836:20 *3428:A1 5.1612e-05
*RES
1 *3426:Y *3428:A1 30.4929 
*END

*D_NET *853 0.000496324
*CONN
*I *3428:A2 I *D sky130_fd_sc_hd__a21o_1
*I *3427:X O *D sky130_fd_sc_hd__or2_1
*CAP
1 *3428:A2 8.29983e-05
2 *3427:X 8.29983e-05
3 *3428:A2 *3615:CLK 1.97695e-05
4 *3428:A2 *1060:55 4.87854e-05
5 *3427:A *3428:A2 3.48235e-05
6 *146:98 *3428:A2 1.52978e-05
7 *146:112 *3428:A2 9.71197e-05
8 *369:81 *3428:A2 1.3701e-05
9 *369:85 *3428:A2 0.000100831
*RES
1 *3427:X *3428:A2 30.3143 
*END

*D_NET *854 0.00125333
*CONN
*I *3429:A3 I *D sky130_fd_sc_hd__a32o_1
*I *3428:X O *D sky130_fd_sc_hd__a21o_1
*CAP
1 *3429:A3 0.000383978
2 *3428:X 0.000383978
3 *3429:A3 *3429:B1 3.33174e-05
4 *3429:A3 *967:66 0.000108023
5 *3429:A3 *967:73 0.00010096
6 *3428:A1 *3429:A3 0
7 *3429:B2 *3429:A3 0.000184745
8 *146:12 *3429:A3 0
9 *146:98 *3429:A3 0
10 *836:20 *3429:A3 5.83233e-05
*RES
1 *3428:X *3429:A3 35.6179 
*END

*D_NET *855 0.000226674
*CONN
*I *3431:B1 I *D sky130_fd_sc_hd__a211o_1
*I *3430:Y O *D sky130_fd_sc_hd__a22oi_1
*CAP
1 *3431:B1 3.83544e-05
2 *3430:Y 3.83544e-05
3 *3431:B1 *3430:B1 0.000109789
4 *3431:A1 *3431:B1 4.01768e-05
*RES
1 *3430:Y *3431:B1 19.975 
*END

*D_NET *856 0.00221905
*CONN
*I *3435:A2 I *D sky130_fd_sc_hd__a32o_1
*I *3431:X O *D sky130_fd_sc_hd__a211o_1
*CAP
1 *3435:A2 0.000714377
2 *3431:X 0.000714377
3 *3435:A2 *3430:B1 6.4549e-05
4 *3435:A2 *3435:B1 3.52408e-05
5 *3435:A2 *3704:A 0.000186662
6 *3435:A2 *1059:26 4.23591e-05
7 *3435:B2 *3435:A2 0.00010096
8 *147:12 *3435:A2 0.000360521
*RES
1 *3431:X *3435:A2 30.5286 
*END

*D_NET *857 0.00296182
*CONN
*I *3439:B I *D sky130_fd_sc_hd__and2_1
*I *3441:B I *D sky130_fd_sc_hd__or2_1
*I *3434:A1 I *D sky130_fd_sc_hd__o21ai_1
*I *3432:X O *D sky130_fd_sc_hd__and3_1
*CAP
1 *3439:B 0.000388284
2 *3441:B 0.000189853
3 *3434:A1 0.000239648
4 *3432:X 4.36033e-05
5 *857:29 0.000756861
6 *857:8 0.000461975
7 *3434:A1 *3434:B1 1.3701e-05
8 *3434:A1 *3615:CLK 0.000191963
9 *3439:B *3444:A2 5.52238e-05
10 *3439:B *863:25 2.06178e-05
11 *3441:B *3443:A3 2.06178e-05
12 *3441:B *866:56 1.08895e-05
13 *857:8 *3434:A2 5.33005e-05
14 *857:29 *3443:A1 3.25447e-05
15 *857:29 *3443:A3 8.23597e-06
16 *857:29 *3615:CLK 0.000187012
17 *2945:C *3434:A1 6.7833e-05
18 *3433:B1 *3434:A1 6.19181e-05
19 *3433:B1 *857:29 4.46186e-06
20 *3439:A *3439:B 1.58163e-05
21 *146:46 *3434:A1 5.51411e-05
22 *146:61 *3439:B 1.90936e-05
23 *148:10 *857:29 0
24 *148:19 *3441:B 1.05524e-05
25 *354:10 *3434:A1 2.37761e-05
26 *354:10 *857:29 0
27 *375:6 *3434:A1 2.89016e-05
*RES
1 *3432:X *857:8 14.3357 
2 *857:8 *3434:A1 19.7107 
3 *857:8 *857:29 7.32964 
4 *857:29 *3441:B 17.75 
5 *857:29 *3439:B 18.646 
*END

*D_NET *858 0.00131716
*CONN
*I *3434:A2 I *D sky130_fd_sc_hd__o21ai_1
*I *3433:Y O *D sky130_fd_sc_hd__a21oi_1
*CAP
1 *3434:A2 0.000240248
2 *3433:Y 0.000240248
3 *3434:A2 *3410:A2 5.83233e-05
4 *3434:A2 *3434:B1 0
5 *2775:A *3434:A2 0
6 *2949:A1 *3434:A2 0
7 *3432:B *3434:A2 5.52238e-05
8 *146:57 *3434:A2 1.21258e-05
9 *146:61 *3434:A2 0
10 *147:29 *3434:A2 0.000125547
11 *354:10 *3434:A2 0.000222878
12 *836:20 *3434:A2 0.000309266
13 *857:8 *3434:A2 5.33005e-05
*RES
1 *3433:Y *3434:A2 33.8679 
*END

*D_NET *859 0.00107751
*CONN
*I *3435:A3 I *D sky130_fd_sc_hd__a32o_1
*I *3434:Y O *D sky130_fd_sc_hd__o21ai_1
*CAP
1 *3435:A3 0.00034678
2 *3434:Y 0.00034678
3 *3435:A3 *3434:B1 0.00014285
4 *3435:A3 *3435:A1 5.80706e-06
5 *3435:A3 *3435:B1 0
6 *2951:A *3435:A3 4.70078e-05
7 *243:10 *3435:A3 0.000154845
8 *243:23 *3435:A3 3.34366e-05
*RES
1 *3434:Y *3435:A3 32.6536 
*END

*D_NET *860 0.000713891
*CONN
*I *3438:A I *D sky130_fd_sc_hd__nor2_1
*I *3436:Y O *D sky130_fd_sc_hd__a21oi_1
*CAP
1 *3438:A 0.000196977
2 *3436:Y 0.000196977
3 *3438:A *3438:B 0
4 *3438:A *3445:A3 4.00025e-05
5 *3438:A *3450:A2 5.71472e-05
6 *3438:A *3450:A3 5.33334e-05
7 *3438:A *3451:A2 0
8 *3438:A *1086:85 0
9 *3436:B1 *3438:A 0.000104974
10 *3616:D *3438:A 9.25014e-06
11 *118:14 *3438:A 5.52302e-05
*RES
1 *3436:Y *3438:A 31.9393 
*END

*D_NET *861 0.00126328
*CONN
*I *3438:B I *D sky130_fd_sc_hd__nor2_1
*I *3437:X O *D sky130_fd_sc_hd__and3_1
*CAP
1 *3438:B 0.000616531
2 *3437:X 0.000616531
3 *3438:B *3445:A3 0
4 *3438:B *3446:D 2.06178e-05
5 *3438:B *1059:26 0
6 *3437:B *3438:B 9.60337e-06
7 *3438:A *3438:B 0
8 *243:31 *3438:B 0
*RES
1 *3437:X *3438:B 36.4051 
*END

*D_NET *862 0.00325885
*CONN
*I *3444:A2 I *D sky130_fd_sc_hd__a21o_1
*I *3438:Y O *D sky130_fd_sc_hd__nor2_1
*CAP
1 *3444:A2 0.00104346
2 *3438:Y 0.00104346
3 *3444:A2 *3443:A2 0.000192877
4 *3444:A2 *3443:A3 0.000122095
5 *3444:A2 *3443:B1 2.69792e-05
6 *3444:A2 *3444:B1 2.44318e-05
7 *3444:A2 *3450:A2 0.000492333
8 *3444:A2 *1067:37 1.61903e-05
9 *3444:A2 *1067:58 5.92452e-06
10 *1096:DIODE *3444:A2 7.77751e-05
11 *3439:A *3444:A2 5.21467e-05
12 *3439:B *3444:A2 5.52238e-05
13 *3444:A1 *3444:A2 9.90367e-05
14 *148:23 *3444:A2 6.91438e-06
*RES
1 *3438:Y *3444:A2 35.725 
*END

*D_NET *863 0.00151364
*CONN
*I *3448:B I *D sky130_fd_sc_hd__or2_1
*I *3447:B I *D sky130_fd_sc_hd__nand2_1
*I *3440:A I *D sky130_fd_sc_hd__inv_2
*I *3439:X O *D sky130_fd_sc_hd__and2_1
*CAP
1 *3448:B 0
2 *3447:B 1.69531e-05
3 *3440:A 0.000112139
4 *3439:X 0
5 *863:25 0.000212335
6 *863:6 0.000307521
7 *3440:A *3410:A2 5.52302e-05
8 *3440:A *1062:37 0.00018077
9 *3440:A *1067:58 8.1802e-05
10 *3440:A *1083:23 2.95726e-05
11 *3447:B *3449:A1 5.33005e-05
12 *863:25 *3619:CLK 5.58941e-05
13 *863:25 *1067:58 4.7312e-05
14 *3410:B1 *3440:A 5.59013e-05
15 *3439:B *863:25 2.06178e-05
16 *3447:A *3447:B 5.33005e-05
17 *146:61 *3440:A 3.57844e-05
18 *146:61 *863:25 0.00017118
19 *354:10 *863:25 2.40261e-05
*RES
1 *3439:X *863:6 13.8 
2 *863:6 *3440:A 17.2107 
3 *863:6 *863:25 8.625 
4 *863:25 *3447:B 9.83571 
5 *863:25 *3448:B 9.3 
*END

*D_NET *864 0.000362171
*CONN
*I *3443:A1 I *D sky130_fd_sc_hd__a32o_1
*I *3440:Y O *D sky130_fd_sc_hd__inv_2
*CAP
1 *3443:A1 8.64265e-05
2 *3440:Y 8.64265e-05
3 *3443:A1 *1062:37 5.71472e-05
4 *354:10 *3443:A1 9.96264e-05
5 *857:29 *3443:A1 3.25447e-05
*RES
1 *3440:Y *3443:A1 29.475 
*END

*D_NET *865 0.000899356
*CONN
*I *3443:A2 I *D sky130_fd_sc_hd__a32o_1
*I *3441:X O *D sky130_fd_sc_hd__or2_1
*CAP
1 *3443:A2 9.46671e-05
2 *3441:X 9.46671e-05
3 *3443:A2 *3443:A3 0.000113703
4 *3443:A2 *3443:B1 1.81084e-05
5 *3443:A2 *3444:B1 0.000267377
6 *3443:A2 *1067:37 0.00010096
7 *3444:A2 *3443:A2 0.000192877
8 *148:23 *3443:A2 1.69961e-05
*RES
1 *3441:X *3443:A2 22.85 
*END

*D_NET *866 0.0163372
*CONN
*I *3463:C I *D sky130_fd_sc_hd__and3b_1
*I *3511:B1 I *D sky130_fd_sc_hd__a221o_1
*I *3443:A3 I *D sky130_fd_sc_hd__a32o_1
*I *3544:C_N I *D sky130_fd_sc_hd__or3b_1
*I *3547:B1 I *D sky130_fd_sc_hd__o21ai_1
*I *3442:X O *D sky130_fd_sc_hd__and3_1
*CAP
1 *3463:C 0
2 *3511:B1 0.000698729
3 *3443:A3 0.000202746
4 *3544:C_N 0
5 *3547:B1 0.000537623
6 *3442:X 0
7 *866:79 0.0011138
8 *866:56 0.00175253
9 *866:20 0.00211548
10 *866:4 0.00271257
11 *3443:A3 *1067:37 9.20908e-05
12 *3511:B1 *3454:B 6.05161e-06
13 *3511:B1 *3458:A2 6.057e-07
14 *3511:B1 *3461:B 1.66782e-07
15 *3511:B1 *3462:B 0.000120954
16 *3511:B1 *3511:A2 4.80563e-05
17 *3511:B1 *876:19 2.13481e-06
18 *3511:B1 *1075:24 0.000376632
19 *3547:B1 *3543:B 0.000186669
20 *3547:B1 *3544:A 5.52238e-05
21 *3547:B1 *3544:B 9.65075e-05
22 *3547:B1 *3546:C 0.000171033
23 *3547:B1 *3546:D 0.000585509
24 *3547:B1 *942:33 0.000148911
25 *3547:B1 *954:8 0.000478626
26 *3547:B1 *1068:10 3.18676e-05
27 *866:20 *3484:A 5.33005e-05
28 *866:20 *3534:B1 0
29 *866:20 *3540:A1 3.81416e-06
30 *866:20 *3540:A2 2.27416e-05
31 *866:20 *3551:B1 1.74352e-05
32 *866:20 *3621:RESET_B 9.60875e-05
33 *866:20 *3628:RESET_B 0.000201026
34 *866:20 *974:63 1.2086e-05
35 *866:20 *1073:17 9.91086e-05
36 *866:20 *1085:52 0.000259606
37 *866:56 *3541:A2 0
38 *866:56 *1062:67 9.41642e-05
39 *866:56 *1066:23 2.09826e-05
40 *866:56 *1083:29 0.000576571
41 *866:79 *3458:A2 0.000124242
42 *866:79 *3463:B 5.52238e-05
43 *866:79 *1067:37 5.066e-05
44 *2923:A2 *3511:B1 0.000165234
45 *3441:B *3443:A3 2.06178e-05
46 *3441:B *866:56 1.08895e-05
47 *3442:C *866:20 6.04072e-05
48 *3443:A2 *3443:A3 0.000113703
49 *3444:A2 *3443:A3 0.000122095
50 *3455:A *3511:B1 2.07809e-05
51 *3618:D *866:79 0.000242198
52 *3625:D *3511:B1 0
53 *3628:D *866:20 1.15172e-05
54 *3629:D *866:20 0.000353092
55 *3686:A *866:56 9.41642e-05
56 *3689:A *866:56 4.64488e-06
57 *3697:A *866:79 8.86413e-05
58 *121:25 *3511:B1 9.47456e-05
59 *122:12 *866:79 0
60 *123:12 *866:20 0.00010047
61 *132:26 *866:20 0.000420123
62 *132:36 *3547:B1 0.000347341
63 *132:36 *866:20 0.00010096
64 *148:10 *3443:A3 4.1331e-06
65 *148:19 *3443:A3 2.56125e-05
66 *148:45 *3443:A3 5.33308e-05
67 *148:45 *866:79 0.000154876
68 *245:10 *3511:B1 0.000162247
69 *245:12 *3511:B1 9.34728e-05
70 *254:62 *866:20 3.15783e-05
71 *254:62 *866:56 3.98517e-05
72 *354:10 *3443:A3 0
73 *851:33 *3511:B1 0.000170654
74 *857:29 *3443:A3 8.23597e-06
*RES
1 *3442:X *866:4 9.3 
2 *866:4 *866:20 34.125 
3 *866:20 *3547:B1 34.4429 
4 *866:20 *3544:C_N 9.3 
5 *866:4 *866:56 16.485 
6 *866:56 *3443:A3 19.0232 
7 *866:56 *866:79 13.4554 
8 *866:79 *3511:B1 41.0857 
9 *866:79 *3463:C 9.3 
*END

*D_NET *867 0.000915155
*CONN
*I *3444:B1 I *D sky130_fd_sc_hd__a21o_1
*I *3443:X O *D sky130_fd_sc_hd__a32o_1
*CAP
1 *3444:B1 0.000211092
2 *3443:X 0.000211092
3 *3443:A2 *3444:B1 0.000267377
4 *3444:A1 *3444:B1 1.74352e-05
5 *3444:A2 *3444:B1 2.44318e-05
6 *148:23 *3444:B1 0.000183726
*RES
1 *3443:X *3444:B1 23.5643 
*END

*D_NET *868 0.0010419
*CONN
*I *3450:A2 I *D sky130_fd_sc_hd__a31oi_1
*I *3445:X O *D sky130_fd_sc_hd__a31o_1
*CAP
1 *3450:A2 0.000146115
2 *3445:X 0.000146115
3 *3450:A2 *3450:A3 0.00018649
4 *3438:A *3450:A2 5.71472e-05
5 *3444:A2 *3450:A2 0.000492333
6 *3445:A2 *3450:A2 1.3701e-05
*RES
1 *3445:X *3450:A2 24.4929 
*END

*D_NET *869 0.0014467
*CONN
*I *3450:A3 I *D sky130_fd_sc_hd__a31oi_1
*I *3446:Y O *D sky130_fd_sc_hd__nand4_1
*CAP
1 *3450:A3 0.000465527
2 *3446:Y 0.000465527
3 *3450:A3 *3446:D 9.90431e-05
4 *3436:B1 *3450:A3 1.07719e-05
5 *3438:A *3450:A3 5.33334e-05
6 *3445:B1 *3450:A3 2.65107e-05
7 *3446:A *3450:A3 0.000131243
8 *3450:A2 *3450:A3 0.00018649
9 *790:18 *3450:A3 8.25843e-06
*RES
1 *3446:Y *3450:A3 27.6714 
*END

*D_NET *870 0.0036735
*CONN
*I *3449:A1 I *D sky130_fd_sc_hd__a21oi_1
*I *3455:B I *D sky130_fd_sc_hd__and2_1
*I *3454:B I *D sky130_fd_sc_hd__nor2_1
*I *3447:Y O *D sky130_fd_sc_hd__nand2_1
*CAP
1 *3449:A1 0.000117508
2 *3455:B 0.000108179
3 *3454:B 8.76603e-05
4 *3447:Y 0
5 *870:12 0.000531504
6 *870:4 0.000453172
7 *3449:A1 *3449:A2 5.33005e-05
8 *3449:A1 *3450:B1 2.51343e-06
9 *3454:B *876:19 1.21258e-05
10 *3455:B *3456:A1 2.14658e-05
11 *870:12 *3464:C1 0.000424917
12 *870:12 *3619:CLK 7.15591e-05
13 *870:12 *975:62 3.88819e-05
14 *2923:A2 *870:12 5.37664e-05
15 *3332:A *3454:B 2.59355e-05
16 *3332:A *3455:B 1.21258e-05
17 *3332:A *870:12 5.37664e-05
18 *3332:B *3455:B 1.39841e-05
19 *3332:C_N *3454:B 4.98411e-05
20 *3332:C_N *3455:B 0.000272425
21 *3447:A *3449:A1 6.26177e-05
22 *3447:B *3449:A1 5.33005e-05
23 *3455:A *3455:B 9.41642e-05
24 *3511:B1 *3454:B 6.05161e-06
25 *354:10 *870:12 0.000659302
26 *369:129 *3449:A1 0.000349111
27 *758:16 *3455:B 4.43256e-05
*RES
1 *3447:Y *870:4 9.3 
2 *870:4 *870:12 18.7679 
3 *870:12 *3454:B 11.0857 
4 *870:12 *3455:B 12.7286 
5 *870:4 *3449:A1 12.7107 
*END

*D_NET *871 0.000111776
*CONN
*I *3449:A2 I *D sky130_fd_sc_hd__a21oi_1
*I *3448:X O *D sky130_fd_sc_hd__or2_1
*CAP
1 *3449:A2 2.9238e-05
2 *3448:X 2.9238e-05
3 *3449:A1 *3449:A2 5.33005e-05
*RES
1 *3448:X *3449:A2 19.1357 
*END

*D_NET *872 0.00051345
*CONN
*I *3450:B1 I *D sky130_fd_sc_hd__a31oi_1
*I *3449:Y O *D sky130_fd_sc_hd__a21oi_1
*CAP
1 *3450:B1 0.00013825
2 *3449:Y 0.00013825
3 *3450:B1 *1014:79 0.00015234
4 *3450:B1 *1059:26 0
5 *3449:A1 *3450:B1 2.51343e-06
6 *369:129 *3450:B1 1.69108e-05
7 *369:140 *3450:B1 6.5185e-05
*RES
1 *3449:Y *3450:B1 30.4929 
*END

*D_NET *873 0.000445743
*CONN
*I *3451:B2 I *D sky130_fd_sc_hd__a22o_1
*I *3450:Y O *D sky130_fd_sc_hd__a31oi_1
*CAP
1 *3451:B2 0.000112541
2 *3450:Y 0.000112541
3 *3451:B2 *3435:A1 4.46186e-06
4 *3451:B2 *1014:79 5.64954e-05
5 *3451:B2 *1059:26 0
6 *3451:B2 *1062:37 9.71197e-05
7 *3451:B2 *1067:58 5.33334e-05
8 *3409:A *3451:B2 9.25014e-06
*RES
1 *3450:Y *3451:B2 30.1893 
*END

*D_NET *874 0.000939531
*CONN
*I *3457:A2 I *D sky130_fd_sc_hd__o21a_1
*I *3452:Y O *D sky130_fd_sc_hd__a21oi_1
*CAP
1 *3457:A2 0.000349767
2 *3452:Y 0.000349767
3 *3457:A2 *3457:A1 8.07313e-05
4 *3453:A1 *3457:A2 0.00014183
5 *3453:A2 *3457:A2 1.74352e-05
*RES
1 *3452:Y *3457:A2 23.2429 
*END

*D_NET *875 0.000179618
*CONN
*I *3457:A1 I *D sky130_fd_sc_hd__o21a_1
*I *3453:X O *D sky130_fd_sc_hd__a31o_1
*CAP
1 *3457:A1 4.94436e-05
2 *3453:X 4.94436e-05
3 *3457:A2 *3457:A1 8.07313e-05
*RES
1 *3453:X *3457:A1 19.9571 
*END

*D_NET *876 0.00305754
*CONN
*I *3456:A1 I *D sky130_fd_sc_hd__o21ai_1
*I *3462:B I *D sky130_fd_sc_hd__or2_1
*I *3461:B I *D sky130_fd_sc_hd__and2_1
*I *3454:Y O *D sky130_fd_sc_hd__nor2_1
*CAP
1 *3456:A1 0.000411173
2 *3462:B 0.000129629
3 *3461:B 0.000364717
4 *3454:Y 0
5 *876:19 0.000623727
6 *876:4 0.000447642
7 *3456:A1 *3457:B1 1.05731e-05
8 *3461:B *1075:24 0.000141325
9 *3461:B *1075:30 5.33334e-05
10 *3462:B *1075:24 6.82922e-05
11 *2923:A2 *3462:B 0.000110164
12 *3332:C_N *3456:A1 0.0003377
13 *3332:C_N *3461:B 2.04252e-06
14 *3332:C_N *876:19 1.24368e-05
15 *3454:B *876:19 1.21258e-05
16 *3455:B *3456:A1 2.14658e-05
17 *3511:B1 *3461:B 1.66782e-07
18 *3511:B1 *3462:B 0.000120954
19 *3511:B1 *876:19 2.13481e-06
20 *354:10 *3462:B 0.000149904
21 *758:16 *3456:A1 3.80385e-05
*RES
1 *3454:Y *876:4 9.3 
2 *876:4 *3461:B 15.3357 
3 *876:4 *876:19 0.946429 
4 *876:19 *3462:B 21.7643 
5 *876:19 *3456:A1 15.0857 
*END

*D_NET *877 0.000230973
*CONN
*I *3456:A2 I *D sky130_fd_sc_hd__o21ai_1
*I *3455:X O *D sky130_fd_sc_hd__and2_1
*CAP
1 *3456:A2 6.59684e-05
2 *3455:X 6.59684e-05
3 *758:16 *3456:A2 9.90367e-05
*RES
1 *3455:X *3456:A2 19.5464 
*END

*D_NET *878 0.000291339
*CONN
*I *3457:B1 I *D sky130_fd_sc_hd__o21a_1
*I *3456:Y O *D sky130_fd_sc_hd__o21ai_1
*CAP
1 *3457:B1 7.94345e-05
2 *3456:Y 7.94345e-05
3 *3457:B1 *3456:B1 9.90367e-05
4 *3456:A1 *3457:B1 1.05731e-05
5 *758:16 *3457:B1 2.28598e-05
*RES
1 *3456:Y *3457:B1 20.3857 
*END

*D_NET *879 0.00418184
*CONN
*I *3458:B2 I *D sky130_fd_sc_hd__a22o_1
*I *3457:X O *D sky130_fd_sc_hd__o21a_1
*CAP
1 *3458:B2 0
2 *3457:X 0.00104341
3 *879:22 0.00104341
4 *879:22 *3458:B1 2.28598e-05
5 *879:22 *3487:A2 4.75908e-05
6 *879:22 *3492:A1 9.25014e-06
7 *879:22 *3492:A2 5.30637e-06
8 *879:22 *3492:B1 0.0004933
9 *879:22 *3500:A3 0.000702157
10 *879:22 *3509:B 0
11 *879:22 *3509:C 0
12 *879:22 *3682:A 0
13 *879:22 *909:14 5.80706e-06
14 *879:22 *997:51 0
15 *879:22 *997:63 0
16 *879:22 *1059:12 0.000172021
17 *879:22 *1059:107 0.000246326
18 *879:22 *1062:119 2.89016e-05
19 *879:22 *1086:109 2.11646e-05
20 *2924:A2 *879:22 0
21 *3418:A *879:22 0
22 *3487:A1 *879:22 0.00025593
23 *3487:B1 *879:22 8.44008e-05
24 *118:85 *879:22 0
25 *147:70 *879:22 0
*RES
1 *3457:X *879:22 44.8179 
2 *879:22 *3458:B2 9.3 
*END

*D_NET *880 0.00138723
*CONN
*I *3460:B I *D sky130_fd_sc_hd__xnor2_1
*I *3459:Y O *D sky130_fd_sc_hd__nand2b_1
*CAP
1 *3460:B 0.00044122
2 *3459:Y 0.00044122
3 *3460:B *885:6 0.000139907
4 *3366:B1 *3460:B 0
5 *3367:B1 *3460:B 5.86416e-05
6 *3378:B1 *3460:B 0.000101545
7 *803:14 *3460:B 0.0002047
*RES
1 *3459:Y *3460:B 34.2964 
*END

*D_NET *881 0.00456342
*CONN
*I *3464:B2 I *D sky130_fd_sc_hd__a221o_1
*I *3460:Y O *D sky130_fd_sc_hd__xnor2_1
*CAP
1 *3464:B2 0
2 *3460:Y 0.00108933
3 *881:22 0.00108933
4 *881:22 *3467:A3 0.000247434
5 *881:22 *3471:A2 0.000347403
6 *881:22 *885:31 2.42516e-05
7 *881:22 *900:8 9.47613e-05
8 *881:22 *1014:79 4.59075e-05
9 *881:22 *1086:85 0.000334875
10 *3378:A3 *881:22 0.00018372
11 *3378:B1 *881:22 5.07108e-05
12 *3472:A1 *881:22 9.71197e-05
13 *3472:B1 *881:22 8.57535e-05
14 *147:55 *881:22 0
15 *796:20 *881:22 0.000441597
16 *798:22 *881:22 0.000431217
*RES
1 *3460:Y *881:22 41.3223 
2 *881:22 *3464:B2 9.3 
*END

*D_NET *882 0.00633725
*CONN
*I *3478:C I *D sky130_fd_sc_hd__and3_1
*I *3477:A2 I *D sky130_fd_sc_hd__a21oi_1
*I *3476:C I *D sky130_fd_sc_hd__and3_1
*I *3463:A_N I *D sky130_fd_sc_hd__and3b_1
*I *3469:B I *D sky130_fd_sc_hd__nand2_1
*I *3468:B I *D sky130_fd_sc_hd__or2_1
*I *3461:X O *D sky130_fd_sc_hd__and2_1
*CAP
1 *3478:C 0
2 *3477:A2 0
3 *3476:C 9.27266e-05
4 *3463:A_N 6.03658e-05
5 *3469:B 0
6 *3468:B 0.000172849
7 *3461:X 7.77551e-05
8 *882:57 0.000305362
9 *882:45 0.000987112
10 *882:12 0.000256456
11 *882:10 0.000194398
12 *882:8 0.000902657
13 *3468:B *3470:A2 0.000147474
14 *3468:B *3620:RESET_B 3.50559e-05
15 *3468:B *1074:6 0.00010096
16 *3468:B *1074:10 0.00010096
17 *3468:B *1085:22 0.000186669
18 *3476:C *3476:A 0.000178519
19 *3476:C *902:10 0.000128042
20 *882:8 *1075:30 4.87953e-05
21 *882:10 *1074:36 5.29648e-05
22 *882:12 *3620:RESET_B 7.93146e-05
23 *882:45 *1074:36 2.99719e-05
24 *882:45 *1074:40 0.000354098
25 *882:45 *1074:42 0.000435839
26 *882:45 *1074:48 6.66148e-05
27 *882:45 *1074:111 6.4974e-06
28 *882:45 *1075:30 4.70078e-05
29 *882:57 *3476:A 1.02504e-05
30 *882:57 *3490:A 5.04841e-06
31 *882:57 *3490:C 0.000132391
32 *882:57 *902:10 7.05447e-05
33 *882:57 *902:21 0.000146992
34 *882:57 *1074:48 9.24253e-05
35 *882:57 *1074:64 2.59355e-05
36 *882:57 *1074:73 0.000187733
37 *3697:A *3463:A_N 0.000142856
38 *120:10 *882:10 3.34366e-05
39 *120:10 *882:12 0.000125724
40 *120:37 *882:10 0.000117896
41 *120:37 *882:45 0.00012432
42 *121:25 *3468:B 0
43 *121:25 *882:12 0
44 *122:12 *3463:A_N 7.32272e-05
45 *849:12 *882:57 0
*RES
1 *3461:X *882:8 14.7464 
2 *882:8 *882:10 1.94643 
3 *882:10 *882:12 2.25 
4 *882:12 *3468:B 18.425 
5 *882:12 *3469:B 13.8 
6 *882:10 *3463:A_N 15.5679 
7 *882:8 *882:45 15.7857 
8 *882:45 *882:57 10.4464 
9 *882:57 *3476:C 16.05 
10 *882:57 *3477:A2 13.8 
11 *882:45 *3478:C 9.3 
*END

*D_NET *883 0.000876228
*CONN
*I *3463:B I *D sky130_fd_sc_hd__and3b_1
*I *3462:X O *D sky130_fd_sc_hd__or2_1
*CAP
1 *3463:B 0.000247085
2 *3462:X 0.000247085
3 *3463:B *3458:A2 4.33438e-05
4 *3463:B *3464:C1 9.71197e-05
5 *3463:B *1061:236 9.25014e-06
6 *3697:A *3463:B 0.000123732
7 *148:45 *3463:B 5.33882e-05
8 *866:79 *3463:B 5.52238e-05
*RES
1 *3462:X *3463:B 31.6536 
*END

*D_NET *884 0.00218107
*CONN
*I *3464:C1 I *D sky130_fd_sc_hd__a221o_1
*I *3463:X O *D sky130_fd_sc_hd__and3b_1
*CAP
1 *3464:C1 0.000320257
2 *3463:X 0.000320257
3 *3464:C1 *3619:CLK 0.000197262
4 *3464:C1 *975:62 0.000231806
5 *3464:C1 *1061:236 0.000316754
6 *3463:B *3464:C1 9.71197e-05
7 *3697:A *3464:C1 0.000272698
8 *870:12 *3464:C1 0.000424917
*RES
1 *3463:X *3464:C1 38.9393 
*END

*D_NET *885 0.0053061
*CONN
*I *3473:B I *D sky130_fd_sc_hd__nand2_1
*I *3474:C I *D sky130_fd_sc_hd__and3_1
*I *3472:A3 I *D sky130_fd_sc_hd__a31o_1
*I *3467:A3 I *D sky130_fd_sc_hd__a311o_1
*I *3466:A2 I *D sky130_fd_sc_hd__a21oi_1
*I *3465:X O *D sky130_fd_sc_hd__or2_1
*CAP
1 *3473:B 8.19796e-05
2 *3474:C 0
3 *3472:A3 0
4 *3467:A3 0.000100093
5 *3466:A2 0.000297709
6 *3465:X 0.000103314
7 *885:31 0.000372937
8 *885:27 0.000615218
9 *885:21 0.000606792
10 *885:6 0.000583461
11 *3466:A2 *3431:C1 0
12 *3466:A2 *3482:A3 2.89114e-05
13 *3466:A2 *900:8 0.00012081
14 *3466:A2 *1014:59 6.62961e-05
15 *3466:A2 *1014:63 0.000228558
16 *3466:A2 *1086:85 5.74499e-06
17 *3467:A3 *3472:A2 0.000195555
18 *3467:A3 *900:8 1.39726e-05
19 *3467:A3 *1014:69 1.69961e-05
20 *3467:A3 *1014:79 5.71472e-05
21 *3467:A3 *1086:85 1.41029e-05
22 *3473:B *1042:28 5.64954e-05
23 *885:21 *1014:8 0
24 *885:21 *1025:8 0
25 *885:21 *1042:28 2.20678e-05
26 *3373:A *885:21 6.20855e-06
27 *3379:A2 *885:21 0
28 *3379:B1 *3473:B 0
29 *3460:B *885:6 0.000139907
30 *3467:A1 *3467:A3 5.71472e-05
31 *3472:A1 *885:31 2.14757e-05
32 *3472:B1 *885:27 0.000105647
33 *3472:B1 *885:31 0.000360894
34 *147:55 *3467:A3 0
35 *798:14 *885:27 0.000222666
36 *803:14 *3466:A2 0.000230482
37 *803:14 *885:6 0.000301824
38 *881:22 *3467:A3 0.000247434
39 *881:22 *885:31 2.42516e-05
*RES
1 *3465:X *885:6 12.3 
2 *885:6 *3466:A2 16.4429 
3 *885:6 *885:21 7.35714 
4 *885:21 *885:27 9.16071 
5 *885:27 *885:31 5.375 
6 *885:31 *3467:A3 22.2107 
7 *885:31 *3472:A3 9.3 
8 *885:27 *3474:C 9.3 
9 *885:21 *3473:B 15.4429 
*END

*D_NET *886 0.000253086
*CONN
*I *3467:B1 I *D sky130_fd_sc_hd__a311o_1
*I *3466:Y O *D sky130_fd_sc_hd__a21oi_1
*CAP
1 *3467:B1 7.19152e-05
2 *3466:Y 7.19152e-05
3 *3467:B1 *900:8 4.87953e-05
4 *3467:A1 *3467:B1 4.71256e-05
5 *798:37 *3467:B1 1.33343e-05
*RES
1 *3466:Y *3467:B1 20.4036 
*END

*D_NET *887 0.00415527
*CONN
*I *3471:A2 I *D sky130_fd_sc_hd__a32o_1
*I *3467:X O *D sky130_fd_sc_hd__a311o_1
*CAP
1 *3471:A2 0.000409927
2 *3467:X 0.000409927
3 *3471:A2 *3471:A3 0.000184209
4 *3471:A2 *3471:B2 1.5424e-05
5 *3471:A2 *900:8 0.00165824
6 *3471:A2 *1062:67 1.02504e-05
7 *3471:A2 *1062:76 7.05447e-05
8 *3471:A2 *1074:10 1.02821e-05
9 *3471:A2 *1074:25 9.90367e-05
10 *3471:A2 *1085:22 0.000859228
11 *1098:DIODE *3471:A2 8.07951e-05
12 *881:22 *3471:A2 0.000347403
*RES
1 *3467:X *3471:A2 44.7786 
*END

*D_NET *888 0.000227556
*CONN
*I *3470:A1 I *D sky130_fd_sc_hd__a21o_1
*I *3468:X O *D sky130_fd_sc_hd__or2_1
*CAP
1 *3470:A1 6.42566e-05
2 *3468:X 6.42566e-05
3 *3470:A1 *1074:10 9.90431e-05
*RES
1 *3468:X *3470:A1 19.5464 
*END

*D_NET *889 0.000416177
*CONN
*I *3470:A2 I *D sky130_fd_sc_hd__a21o_1
*I *3469:Y O *D sky130_fd_sc_hd__nand2_1
*CAP
1 *3470:A2 5.5989e-05
2 *3469:Y 5.5989e-05
3 *3470:A2 *3620:RESET_B 0.000123295
4 *3470:A2 *3628:RESET_B 3.34295e-05
5 *3468:B *3470:A2 0.000147474
*RES
1 *3469:Y *3470:A2 29.5464 
*END

*D_NET *890 0.000553388
*CONN
*I *3471:A3 I *D sky130_fd_sc_hd__a32o_1
*I *3470:X O *D sky130_fd_sc_hd__a21o_1
*CAP
1 *3471:A3 9.30861e-05
2 *3470:X 9.30861e-05
3 *3471:A3 *3471:B1 3.66478e-05
4 *3471:A3 *3471:B2 5.52238e-05
5 *3471:A3 *3628:RESET_B 7.66483e-05
6 *3471:A3 *900:8 8.43535e-06
7 *3471:A3 *1074:10 0
8 *3471:A3 *1074:25 0
9 *1098:DIODE *3471:A3 6.05161e-06
10 *3471:A2 *3471:A3 0.000184209
*RES
1 *3470:X *3471:A3 21.7429 
*END

*D_NET *891 0.000662839
*CONN
*I *3475:C_N I *D sky130_fd_sc_hd__or3b_4
*I *3472:X O *D sky130_fd_sc_hd__a31o_1
*CAP
1 *3475:C_N 0.000188328
2 *3472:X 0.000188328
3 *3475:C_N *3480:A2 3.92854e-05
4 *3475:C_N *3706:A 7.43578e-06
5 *3475:C_N *1061:236 6.62868e-05
6 *3475:C_N *1086:89 2.89016e-05
7 *3475:C_N *1086:109 0.000126439
8 *147:55 *3475:C_N 1.78353e-05
*RES
1 *3472:X *3475:C_N 31.5464 
*END

*D_NET *892 0.00208218
*CONN
*I *3482:A3 I *D sky130_fd_sc_hd__a311o_1
*I *3481:A2 I *D sky130_fd_sc_hd__a21oi_1
*I *3473:Y O *D sky130_fd_sc_hd__nand2_1
*CAP
1 *3482:A3 1.40355e-05
2 *3481:A2 0.000159817
3 *3473:Y 0.000460727
4 *892:12 0.000634579
5 *3481:A2 *3445:A3 0
6 *3481:A2 *3474:B 1.08359e-05
7 *3481:A2 *1014:8 1.08359e-05
8 *3481:A2 *1014:12 7.16429e-05
9 *3481:A2 *1086:85 1.00375e-05
10 *3482:A3 *1014:59 5.52302e-05
11 *892:12 *3453:B1 3.06878e-06
12 *892:12 *3474:B 0.000150625
13 *892:12 *3475:A 2.79092e-05
14 *892:12 *1014:8 5.84547e-05
15 *3466:A2 *3482:A3 2.89114e-05
16 *3474:A *892:12 0.000154854
17 *369:169 *892:12 0
18 *798:22 *892:12 1.93639e-05
19 *799:19 *892:12 0.000211249
*RES
1 *3473:Y *892:12 21.7107 
2 *892:12 *3481:A2 16.7107 
3 *892:12 *3482:A3 14.3357 
*END

*D_NET *893 0.000976783
*CONN
*I *3475:A I *D sky130_fd_sc_hd__or3b_4
*I *3474:X O *D sky130_fd_sc_hd__and3_1
*CAP
1 *3475:A 0.000272419
2 *3474:X 0.000272419
3 *3475:A *3453:B1 2.14658e-05
4 *3475:A *3475:B 0.00014285
5 *3475:A *1042:28 0
6 *3475:A *1061:236 0.000239722
7 *3373:B *3475:A 0
8 *3474:A *3475:A 0
9 *369:169 *3475:A 0
10 *892:12 *3475:A 2.79092e-05
*RES
1 *3474:X *3475:A 34.1893 
*END

*D_NET *894 0.00358887
*CONN
*I *3480:A2 I *D sky130_fd_sc_hd__a32o_1
*I *3475:X O *D sky130_fd_sc_hd__or3b_4
*CAP
1 *3480:A2 0.001159
2 *3475:X 0.001159
3 *3480:A2 *3469:A 5.33005e-05
4 *3480:A2 *3471:B1 2.07382e-05
5 *3480:A2 *3618:RESET_B 0.000175578
6 *3480:A2 *3706:A 2.89114e-05
7 *3480:A2 *1066:55 7.00418e-05
8 *3480:A2 *1066:68 0.000158807
9 *3480:A2 *1067:29 0.000130075
10 *3480:A2 *1085:6 0.000218685
11 *3475:C_N *3480:A2 3.92854e-05
12 *3618:D *3480:A2 1.84523e-06
13 *3689:A *3480:A2 0.000194283
14 *120:10 *3480:A2 0.00010096
15 *147:55 *3480:A2 7.83659e-05
*RES
1 *3475:X *3480:A2 46.8679 
*END

*D_NET *895 0.00125903
*CONN
*I *3479:A1 I *D sky130_fd_sc_hd__o21ai_1
*I *3483:B I *D sky130_fd_sc_hd__nor2_1
*I *3484:B I *D sky130_fd_sc_hd__and2_1
*I *3476:X O *D sky130_fd_sc_hd__and3_1
*CAP
1 *3479:A1 3.50381e-05
2 *3483:B 5.8596e-05
3 *3484:B 0.00011117
4 *3476:X 0
5 *895:21 0.000199247
6 *895:4 0.000216784
7 *3479:A1 *3485:B1 1.54142e-05
8 *3479:A1 *3620:CLK 9.90367e-05
9 *3483:B *3485:A1 1.13127e-05
10 *3483:B *3485:B1 0.000136958
11 *3483:B *3620:CLK 6.12434e-05
12 *3484:B *3476:A 1.73088e-05
13 *3484:B *3484:A 3.97677e-05
14 *3484:B *902:10 5.52238e-05
15 *895:21 *3476:A 4.78056e-05
16 *3477:B1 *3479:A1 5.33005e-05
17 *849:12 *895:21 0.000100823
*RES
1 *3476:X *895:4 9.3 
2 *895:4 *3484:B 11.3893 
3 *895:4 *895:21 10.875 
4 *895:21 *3483:B 11.0857 
5 *895:21 *3479:A1 10.675 
*END

*D_NET *896 0.000204332
*CONN
*I *3479:A2 I *D sky130_fd_sc_hd__o21ai_1
*I *3477:Y O *D sky130_fd_sc_hd__a21oi_1
*CAP
1 *3479:A2 5.41221e-05
2 *3477:Y 5.41221e-05
3 *3479:A2 *3620:CLK 9.60875e-05
*RES
1 *3477:Y *3479:A2 19.5464 
*END

*D_NET *897 0.000293948
*CONN
*I *3490:C I *D sky130_fd_sc_hd__and3_1
*I *3478:X O *D sky130_fd_sc_hd__and3_1
*CAP
1 *3490:C 8.07786e-05
2 *3478:X 8.07786e-05
3 *882:57 *3490:C 0.000132391
*RES
1 *3478:X *3490:C 19.8411 
*END

*D_NET *898 0.00111663
*CONN
*I *3480:A3 I *D sky130_fd_sc_hd__a32o_1
*I *3479:Y O *D sky130_fd_sc_hd__o21ai_1
*CAP
1 *3480:A3 0.000358248
2 *3479:Y 0.000358248
3 *3480:A3 *3485:B1 0
4 *3480:A3 *3620:CLK 9.90431e-05
5 *3480:A3 *1062:94 0.000122933
6 *3423:D_N *3480:A3 0.000122933
7 *3620:D *3480:A3 5.52238e-05
*RES
1 *3479:Y *3480:A3 33.6179 
*END

*D_NET *899 0.000608612
*CONN
*I *3482:C1 I *D sky130_fd_sc_hd__a311o_1
*I *3481:Y O *D sky130_fd_sc_hd__a21oi_1
*CAP
1 *3482:C1 0.00019156
2 *3481:Y 0.00019156
3 *3482:C1 *1014:20 8.25512e-05
4 *3482:C1 *1025:8 0
5 *3482:C1 *1025:21 0
6 *3482:C1 *1059:56 0.000125731
7 *3482:C1 *1086:85 1.721e-05
*RES
1 *3481:Y *3482:C1 31.4036 
*END

*D_NET *900 0.00796481
*CONN
*I *3486:A2 I *D sky130_fd_sc_hd__a32o_1
*I *3482:X O *D sky130_fd_sc_hd__a311o_1
*CAP
1 *3486:A2 0
2 *3482:X 0.00270252
3 *900:8 0.00270252
4 *900:8 *3486:B2 0.000186662
5 *900:8 *3534:B1 7.11733e-06
6 *900:8 *3628:RESET_B 5.5518e-05
7 *900:8 *1014:63 8.25843e-06
8 *900:8 *1014:65 2.87555e-06
9 *900:8 *1066:27 0.000184495
10 *1098:DIODE *900:8 0.000137983
11 *3417:D *900:8 1.03968e-05
12 *3466:A2 *900:8 0.00012081
13 *3467:A1 *900:8 7.48301e-06
14 *3467:A3 *900:8 1.39726e-05
15 *3467:B1 *900:8 4.87953e-05
16 *3471:A2 *900:8 0.00165824
17 *3471:A3 *900:8 8.43535e-06
18 *798:37 *900:8 1.39726e-05
19 *881:22 *900:8 9.47613e-05
*RES
1 *3482:X *900:8 44.9607 
2 *900:8 *3486:A2 9.3 
*END

*D_NET *901 0.000253686
*CONN
*I *3485:A1 I *D sky130_fd_sc_hd__o21ai_1
*I *3483:Y O *D sky130_fd_sc_hd__nor2_1
*CAP
1 *3485:A1 3.62333e-05
2 *3483:Y 3.62333e-05
3 *3485:A1 *3485:B1 0.000118145
4 *3485:A1 *3620:CLK 5.17614e-05
5 *3483:B *3485:A1 1.13127e-05
*RES
1 *3483:Y *3485:A1 19.975 
*END

*D_NET *902 0.00405879
*CONN
*I *3489:B I *D sky130_fd_sc_hd__nor2_1
*I *3498:C I *D sky130_fd_sc_hd__and3_1
*I *3485:A2 I *D sky130_fd_sc_hd__o21ai_1
*I *3484:X O *D sky130_fd_sc_hd__and2_1
*CAP
1 *3489:B 8.62079e-05
2 *3498:C 7.4956e-06
3 *3485:A2 0.00013333
4 *3484:X 0.00018375
5 *902:21 0.00064692
6 *902:10 0.000870297
7 *3485:A2 *3620:CLK 9.7659e-05
8 *3489:B *914:23 7.6021e-05
9 *3489:B *1060:23 5.52302e-05
10 *3489:B *1072:75 7.4826e-05
11 *902:10 *3476:A 3.79502e-05
12 *902:10 *3484:A 0.000227532
13 *902:10 *3628:RESET_B 8.39471e-05
14 *902:10 *1073:30 9.69701e-05
15 *902:10 *1073:36 2.47093e-05
16 *902:21 *3518:D 8.44271e-06
17 *902:21 *914:23 2.84729e-05
18 *902:21 *974:49 0.000233626
19 *902:21 *1072:75 5.80706e-06
20 *902:21 *1072:79 0.000222153
21 *902:21 *1073:36 1.77672e-05
22 *3423:A *902:21 9.35918e-05
23 *3476:C *902:10 0.000128042
24 *3484:B *902:10 5.52238e-05
25 *3518:C *902:21 0.000173044
26 *3526:B1 *902:21 4.60718e-05
27 *3692:A *3498:C 1.95435e-05
28 *125:42 *3498:C 9.50968e-06
29 *843:22 *902:21 9.71152e-05
30 *882:57 *902:10 7.05447e-05
31 *882:57 *902:21 0.000146992
*RES
1 *3484:X *902:10 19.4429 
2 *902:10 *3485:A2 15.5679 
3 *902:10 *902:21 11.9643 
4 *902:21 *3498:C 13.9964 
5 *902:21 *3489:B 16.2821 
*END

*D_NET *903 0.00119813
*CONN
*I *3486:A3 I *D sky130_fd_sc_hd__a32o_1
*I *3485:Y O *D sky130_fd_sc_hd__o21ai_1
*CAP
1 *3486:A3 0.000338714
2 *3485:Y 0.000338714
3 *3486:A3 *3485:B1 1.33343e-05
4 *3486:A3 *1063:72 4.6025e-06
5 *3486:A3 *1063:83 0.000165591
6 *3417:D *3486:A3 0.000337175
*RES
1 *3485:Y *3486:A3 34.1536 
*END

*D_NET *904 0.000726788
*CONN
*I *3492:A1 I *D sky130_fd_sc_hd__o21ai_1
*I *3487:Y O *D sky130_fd_sc_hd__a21oi_1
*CAP
1 *3492:A1 0.000239277
2 *3487:Y 0.000239277
3 *3492:A1 *997:51 0.000123137
4 *3492:A1 *997:63 8.6229e-06
5 *3487:A1 *3492:A1 1.41029e-05
6 *118:85 *3492:A1 0
7 *814:35 *3492:A1 9.31209e-05
8 *879:22 *3492:A1 9.25014e-06
*RES
1 *3487:Y *3492:A1 31.3143 
*END

*D_NET *905 0.000191128
*CONN
*I *3492:A2 I *D sky130_fd_sc_hd__o21ai_1
*I *3488:X O *D sky130_fd_sc_hd__a31o_1
*CAP
1 *3492:A2 8.20142e-05
2 *3488:X 8.20142e-05
3 *3492:A2 *3500:A3 1.57414e-05
4 *3492:A2 *997:51 6.05161e-06
5 *879:22 *3492:A2 5.30637e-06
*RES
1 *3488:X *3492:A2 19.5464 
*END

*D_NET *906 0.000437394
*CONN
*I *3491:A1 I *D sky130_fd_sc_hd__o21a_1
*I *3489:Y O *D sky130_fd_sc_hd__nor2_1
*CAP
1 *3491:A1 8.98055e-05
2 *3489:Y 8.98055e-05
3 *3491:A1 *3491:A2 9.90367e-05
4 *3491:A1 *3493:B1 1.88048e-05
5 *3491:A1 *1066:114 5.33334e-05
6 *3491:A1 *1072:75 2.56601e-05
7 *3489:A *3491:A1 6.09476e-05
*RES
1 *3489:Y *3491:A1 30.1893 
*END

*D_NET *907 0.00499316
*CONN
*I *3497:B I *D sky130_fd_sc_hd__nor2_1
*I *3491:A2 I *D sky130_fd_sc_hd__o21a_1
*I *3504:C I *D sky130_fd_sc_hd__and3_1
*I *3490:X O *D sky130_fd_sc_hd__and3_1
*CAP
1 *3497:B 3.76782e-05
2 *3491:A2 0.000312672
3 *3504:C 1.35299e-05
4 *3490:X 0.000516418
5 *907:21 0.000398935
6 *907:10 0.000578532
7 *3491:A2 *3500:A1 6.06291e-06
8 *3491:A2 *3500:B1 0.000190817
9 *3491:A2 *1062:94 9.24395e-05
10 *3491:A2 *1066:114 0.00015481
11 *3491:A2 *1072:6 9.90367e-05
12 *3491:A2 *1072:12 5.52302e-05
13 *3497:B *1062:94 7.39203e-06
14 *907:10 *1062:94 0.000764491
15 *907:10 *1074:42 4.16984e-05
16 *907:10 *1074:48 0.000195845
17 *907:21 *1062:94 0.000128215
18 *3423:D_N *907:10 0
19 *3491:A1 *3491:A2 9.90367e-05
20 *122:53 *907:10 0.000377048
21 *122:70 *907:10 8.44287e-05
22 *122:102 *3491:A2 0.00016284
23 *122:102 *907:10 0.000521981
24 *122:102 *907:21 0.000144512
25 *125:38 *3504:C 9.50968e-06
*RES
1 *3490:X *907:10 27.9607 
2 *907:10 *3504:C 13.9964 
3 *907:10 *907:21 1.94643 
4 *907:21 *3491:A2 21.5143 
5 *907:21 *3497:B 14.3357 
*END

*D_NET *908 0.000344509
*CONN
*I *3493:A1_N I *D sky130_fd_sc_hd__a2bb2o_1
*I *3491:X O *D sky130_fd_sc_hd__o21a_1
*CAP
1 *3493:A1_N 0.000109935
2 *3491:X 0.000109935
3 *3493:A1_N *3527:A2 5.71472e-05
4 *3493:A1_N *1074:64 6.74911e-05
*RES
1 *3491:X *3493:A1_N 29.7786 
*END

*D_NET *909 0.00519689
*CONN
*I *3493:A2_N I *D sky130_fd_sc_hd__a2bb2o_1
*I *3492:Y O *D sky130_fd_sc_hd__o21ai_1
*CAP
1 *3493:A2_N 0
2 *3492:Y 0.00218256
3 *909:14 0.00218256
4 *909:14 *3617:CLK 0.000122101
5 *909:14 *3617:RESET_B 0.000350686
6 *909:14 *3622:CLK 3.14048e-05
7 *909:14 *3623:CLK 7.47221e-05
8 *909:14 *1085:98 4.18095e-05
9 *118:85 *909:14 2.56601e-05
10 *125:12 *909:14 0.000179584
11 *879:22 *909:14 5.80706e-06
*RES
1 *3492:Y *909:14 46.0679 
2 *909:14 *3493:A2_N 9.3 
*END

*D_NET *910 0.000552667
*CONN
*I *3496:C_N I *D sky130_fd_sc_hd__or3b_4
*I *3494:X O *D sky130_fd_sc_hd__a31o_1
*CAP
1 *3496:C_N 0.000102808
2 *3494:X 0.000102808
3 *3496:C_N *3502:B1 2.58706e-05
4 *3496:C_N *1042:8 5.52302e-05
5 *3496:C_N *1042:94 6.09572e-05
6 *805:46 *3496:C_N 1.52978e-05
7 *805:54 *3496:C_N 0.000137983
8 *805:76 *3496:C_N 4.56594e-05
9 *808:36 *3496:C_N 6.05161e-06
*RES
1 *3494:X *3496:C_N 30.6 
*END

*D_NET *911 0.00094969
*CONN
*I *3496:A I *D sky130_fd_sc_hd__or3b_4
*I *3502:B2 I *D sky130_fd_sc_hd__o221ai_2
*I *3495:X O *D sky130_fd_sc_hd__and4_1
*CAP
1 *3496:A 0
2 *3502:B2 0.000221503
3 *3495:X 0.000197087
4 *911:10 0.00041859
5 *3502:B2 *3502:B1 3.71428e-05
6 *3502:B2 *917:32 8.79856e-06
7 *3502:B2 *997:43 0
8 *3502:B2 *1042:14 0
9 *3502:B2 *1042:18 0
10 *3502:A1 *3502:B2 3.18676e-05
11 *3502:C1 *3502:B2 2.83284e-06
12 *808:36 *3502:B2 0
13 *808:36 *911:10 0
14 *821:45 *3502:B2 3.18676e-05
*RES
1 *3495:X *911:10 16.2821 
2 *911:10 *3502:B2 17.425 
3 *911:10 *3496:A 13.8 
*END

*D_NET *912 0.00630653
*CONN
*I *3500:A3 I *D sky130_fd_sc_hd__a32o_1
*I *3496:X O *D sky130_fd_sc_hd__or3b_4
*CAP
1 *3500:A3 0.0018977
2 *3496:X 0.0018977
3 *3500:A3 *3458:B1 5.52302e-05
4 *3500:A3 *3500:A1 0.00018077
5 *3500:A3 *3500:B1 3.23677e-05
6 *3500:A3 *997:51 1.98839e-05
7 *3500:A3 *1062:119 0.000827268
8 *3500:A3 *1066:114 1.3701e-05
9 *3487:A1 *3500:A3 0.000139907
10 *3492:A2 *3500:A3 1.57414e-05
11 *3617:D *3500:A3 5.71472e-05
12 *805:54 *3500:A3 0.00046696
13 *879:22 *3500:A3 0.000702157
*RES
1 *3496:X *3500:A3 49.3143 
*END

*D_NET *913 0.000216386
*CONN
*I *3499:A1 I *D sky130_fd_sc_hd__o21ai_1
*I *3497:Y O *D sky130_fd_sc_hd__nor2_1
*CAP
1 *3499:A1 8.30046e-05
2 *3497:Y 8.30046e-05
3 *3499:A1 *3503:B 5.03772e-05
*RES
1 *3497:Y *3499:A1 19.975 
*END

*D_NET *914 0.00242855
*CONN
*I *3499:A2 I *D sky130_fd_sc_hd__o21ai_1
*I *3503:B I *D sky130_fd_sc_hd__nor2_1
*I *3518:D I *D sky130_fd_sc_hd__and4_1
*I *3498:X O *D sky130_fd_sc_hd__and3_1
*CAP
1 *3499:A2 0
2 *3503:B 0.000178826
3 *3518:D 0.000145525
4 *3498:X 0
5 *914:23 0.000482191
6 *914:6 0.000448891
7 *3518:D *1060:29 1.95625e-05
8 *914:23 *3499:B1 0.000186669
9 *914:23 *3500:A2 5.71472e-05
10 *914:23 *1060:23 9.41642e-05
11 *914:23 *1060:29 0.000116829
12 *914:23 *1072:75 0
13 *3489:A *914:23 5.58941e-05
14 *3489:B *914:23 7.6021e-05
15 *3499:A1 *3503:B 5.03772e-05
16 *3518:B *3518:D 5.71472e-05
17 *3518:C *3518:D 0.000194228
18 *3518:C *914:23 3.40456e-05
19 *126:22 *3503:B 1.97695e-05
20 *126:38 *3518:D 0.000119778
21 *126:38 *914:23 1.02504e-05
22 *126:50 *3518:D 4.43157e-05
23 *902:21 *3518:D 8.44271e-06
24 *902:21 *914:23 2.84729e-05
*RES
1 *3498:X *914:6 13.8 
2 *914:6 *3518:D 17.4071 
3 *914:6 *914:23 11.6786 
4 *914:23 *3503:B 12.3357 
5 *914:23 *3499:A2 9.3 
*END

*D_NET *915 0.000403788
*CONN
*I *3500:A2 I *D sky130_fd_sc_hd__a32o_1
*I *3499:Y O *D sky130_fd_sc_hd__o21ai_1
*CAP
1 *3500:A2 0.000126979
2 *3499:Y 0.000126979
3 *3500:A2 *1066:108 1.76135e-05
4 *3489:A *3500:A2 0
5 *122:102 *3500:A2 7.50697e-05
6 *914:23 *3500:A2 5.71472e-05
*RES
1 *3499:Y *3500:A2 30.0821 
*END

*D_NET *916 0.00152812
*CONN
*I *3502:B1 I *D sky130_fd_sc_hd__o221ai_2
*I *3501:X O *D sky130_fd_sc_hd__xor2_1
*CAP
1 *3502:B1 0.00049241
2 *3501:X 0.00049241
3 *3502:B1 *1042:8 2.89114e-05
4 *3502:B1 *1042:14 3.05222e-05
5 *3502:B1 *1042:18 2.39654e-05
6 *3496:C_N *3502:B1 2.58706e-05
7 *3502:B2 *3502:B1 3.71428e-05
8 *805:54 *3502:B1 7.48301e-06
9 *808:24 *3502:B1 7.25712e-05
10 *808:36 *3502:B1 9.71197e-05
11 *821:45 *3502:B1 0.000219711
*RES
1 *3501:X *3502:B1 34.7071 
*END

*D_NET *917 0.00505331
*CONN
*I *3506:A1 I *D sky130_fd_sc_hd__a32o_1
*I *3502:Y O *D sky130_fd_sc_hd__o221ai_2
*CAP
1 *3506:A1 7.11119e-05
2 *3502:Y 0.00135288
3 *917:32 0.001424
4 *3506:A1 *3506:A3 0.00026546
5 *3506:A1 *3506:B1 3.33174e-05
6 *917:32 *3505:B1 5.59013e-05
7 *917:32 *3519:A3 0.000569201
8 *917:32 *3520:B1_N 9.90367e-05
9 *917:32 *3527:B1 0
10 *917:32 *3662:A 5.52302e-05
11 *917:32 *997:43 1.26634e-05
12 *917:32 *997:63 8.6229e-06
13 *1100:DIODE *917:32 0.00010992
14 *3502:B2 *917:32 8.79856e-06
15 *120:37 *917:32 7.83659e-05
16 *121:25 *917:32 0
17 *126:18 *3506:A1 9.15745e-05
18 *126:18 *917:32 0.000114655
19 *126:22 *3506:A1 5.35755e-05
20 *369:199 *917:32 2.24813e-05
21 *819:18 *917:32 0.0006051
22 *821:45 *917:32 2.14199e-05
*RES
1 *3502:Y *917:32 47.4125 
2 *917:32 *3506:A1 11.8893 
*END

*D_NET *918 0.00105214
*CONN
*I *3505:A1 I *D sky130_fd_sc_hd__o21ai_1
*I *3503:Y O *D sky130_fd_sc_hd__nor2_1
*CAP
1 *3505:A1 0.000367503
2 *3503:Y 0.000367503
3 *3505:A1 *3505:A2 4.32258e-05
4 *3505:A1 *3506:A2 0
5 *3505:A1 *3527:B1 0
6 *3418:B *3505:A1 0.000203014
7 *120:37 *3505:A1 4.32258e-05
8 *129:12 *3505:A1 1.01912e-05
9 *129:40 *3505:A1 1.74806e-05
*RES
1 *3503:Y *3505:A1 36.1169 
*END

*D_NET *919 0.00381596
*CONN
*I *3514:A2 I *D sky130_fd_sc_hd__a21o_1
*I *3505:A2 I *D sky130_fd_sc_hd__o21ai_1
*I *3510:B I *D sky130_fd_sc_hd__xor2_1
*I *3515:C I *D sky130_fd_sc_hd__and3_1
*I *3504:X O *D sky130_fd_sc_hd__and3_1
*CAP
1 *3514:A2 0
2 *3505:A2 0.000202468
3 *3510:B 0.000155918
4 *3515:C 0.000136292
5 *3504:X 0.000271086
6 *919:27 0.000358385
7 *919:25 0.000138451
8 *919:10 0.000545828
9 *3505:A2 *1066:87 0.000157252
10 *3505:A2 *1066:100 7.75093e-05
11 *3510:B *1066:87 0.000197977
12 *3510:B *1071:14 0.000144951
13 *3515:C *3516:A 1.95435e-05
14 *3418:A *3510:B 0.000268409
15 *3418:A *3515:C 1.81478e-05
16 *3422:A1 *3515:C 0.000238006
17 *3422:A1 *919:10 5.41794e-05
18 *3505:A1 *3505:A2 4.32258e-05
19 *3518:B *3515:C 0
20 *3518:B *919:10 0.000178847
21 *3518:B *919:25 0.000257619
22 *120:37 *3505:A2 9.56619e-05
23 *120:37 *3510:B 9.44259e-05
24 *125:38 *919:10 1.92789e-05
25 *126:18 *3505:A2 2.59355e-05
26 *126:30 *919:10 5.20359e-06
27 *127:28 *919:25 1.24368e-05
28 *129:12 *3515:C 2.34423e-05
29 *129:12 *919:10 2.26327e-05
30 *129:18 *3515:C 5.28461e-05
*RES
1 *3504:X *919:10 17.5321 
2 *919:10 *3515:C 17.1571 
3 *919:10 *919:25 7.08929 
4 *919:25 *919:27 4.5 
5 *919:27 *3510:B 18.9429 
6 *919:27 *3505:A2 18.0321 
7 *919:25 *3514:A2 9.3 
*END

*D_NET *920 0.000990717
*CONN
*I *3506:A3 I *D sky130_fd_sc_hd__a32o_1
*I *3505:Y O *D sky130_fd_sc_hd__o21ai_1
*CAP
1 *3506:A3 0.00033977
2 *3505:Y 0.00033977
3 *3506:A1 *3506:A3 0.00026546
4 *126:18 *3506:A3 2.14658e-05
5 *126:22 *3506:A3 2.42516e-05
*RES
1 *3505:Y *3506:A3 23.1536 
*END

*D_NET *921 0.000857642
*CONN
*I *3509:C I *D sky130_fd_sc_hd__and3_1
*I *3507:X O *D sky130_fd_sc_hd__a21o_1
*CAP
1 *3509:C 0.00033808
2 *3507:X 0.00033808
3 *3509:C *3508:C_N 2.72859e-05
4 *3509:C *3509:B 7.6644e-05
5 *3418:A *3509:C 3.75609e-05
6 *3509:A *3509:C 3.9991e-05
7 *879:22 *3509:C 0
*RES
1 *3507:X *3509:C 32.0107 
*END

*D_NET *922 0.000234811
*CONN
*I *3509:B I *D sky130_fd_sc_hd__and3_1
*I *3508:X O *D sky130_fd_sc_hd__or3b_4
*CAP
1 *3509:B 7.90833e-05
2 *3508:X 7.90833e-05
3 *3509:C *3509:B 7.6644e-05
4 *118:85 *3509:B 0
5 *879:22 *3509:B 0
*RES
1 *3508:X *3509:B 29.2429 
*END

*D_NET *923 0.00137903
*CONN
*I *3511:C1 I *D sky130_fd_sc_hd__a221o_1
*I *3509:X O *D sky130_fd_sc_hd__and3_1
*CAP
1 *3511:C1 0.000226676
2 *3509:X 0.000226676
3 *3511:C1 *3511:A2 1.46576e-05
4 *3511:C1 *3511:B2 6.19712e-05
5 *3511:C1 *1071:6 9.93914e-05
6 *3511:C1 *1071:12 0.000138032
7 *3418:A *3511:C1 0.00045886
8 *3509:A *3511:C1 5.85965e-05
9 *127:28 *3511:C1 9.41642e-05
*RES
1 *3509:X *3511:C1 26.4393 
*END

*D_NET *924 0.000661119
*CONN
*I *3511:B2 I *D sky130_fd_sc_hd__a221o_1
*I *3510:X O *D sky130_fd_sc_hd__xor2_1
*CAP
1 *3511:B2 9.73209e-05
2 *3510:X 9.73209e-05
3 *3511:B2 *1071:12 9.40041e-05
4 *3418:A *3511:B2 0.000310502
5 *3511:C1 *3511:B2 6.19712e-05
*RES
1 *3510:X *3511:B2 22.158 
*END

*D_NET *925 0.000902173
*CONN
*I *3519:A2 I *D sky130_fd_sc_hd__a31o_1
*I *3512:X O *D sky130_fd_sc_hd__a31o_1
*CAP
1 *3519:A2 0.000292007
2 *3512:X 0.000292007
3 *3519:A2 *3519:B1 5.33005e-05
4 *1100:DIODE *3519:A2 2.89114e-05
5 *369:199 *3519:A2 0.000235947
*RES
1 *3512:X *3519:A2 24.1 
*END

*D_NET *926 0.00213675
*CONN
*I *3519:A3 I *D sky130_fd_sc_hd__a31o_1
*I *3513:Y O *D sky130_fd_sc_hd__nand4_1
*CAP
1 *3519:A3 0.000206493
2 *3513:Y 0.000206493
3 *3519:A3 *975:21 5.58941e-05
4 *3519:A3 *997:63 0.000271352
5 *1100:DIODE *3519:A3 9.60939e-05
6 *3512:B1 *3519:A3 0.000142856
7 *126:18 *3519:A3 5.41794e-05
8 *369:199 *3519:A3 0.000502182
9 *814:37 *3519:A3 1.98839e-05
10 *822:14 *3519:A3 1.21258e-05
11 *917:32 *3519:A3 0.000569201
*RES
1 *3513:Y *3519:A3 36.6714 
*END

*D_NET *927 0.000686986
*CONN
*I *3517:A2 I *D sky130_fd_sc_hd__a31oi_1
*I *3514:X O *D sky130_fd_sc_hd__a21o_1
*CAP
1 *3517:A2 0.000247485
2 *3514:X 0.000247485
3 *3517:A2 *3517:A3 0.000186818
4 *127:28 *3517:A2 5.19842e-06
*RES
1 *3514:X *3517:A2 22.975 
*END

*D_NET *928 0.00480902
*CONN
*I *3516:A I *D sky130_fd_sc_hd__inv_2
*I *3531:C I *D sky130_fd_sc_hd__and3_1
*I *3515:X O *D sky130_fd_sc_hd__and3_1
*CAP
1 *3516:A 0.000136544
2 *3531:C 0.000637644
3 *3515:X 0
4 *928:4 0.000774188
5 *3516:A *1071:14 5.33005e-05
6 *3531:C *3524:A 0.000575629
7 *3531:C *3527:B1 0.00131744
8 *3531:C *3527:B2 1.90936e-05
9 *3531:C *1070:12 0.000569005
10 *3531:C *1070:14 0.000345563
11 *2929:A2 *3531:C 2.72228e-05
12 *3417:D *3531:C 0.000110922
13 *3418:A *3516:A 0.000117543
14 *3419:A *3531:C 6.93417e-05
15 *3422:A1 *3531:C 5.7903e-06
16 *3515:C *3516:A 1.95435e-05
17 *3531:A *3531:C 2.39852e-05
18 *3532:A *3531:C 6.2589e-06
*RES
1 *3515:X *928:4 9.3 
2 *928:4 *3531:C 30.2767 
3 *928:4 *3516:A 12.2107 
*END

*D_NET *929 0.00205412
*CONN
*I *3517:A3 I *D sky130_fd_sc_hd__a31oi_1
*I *3516:Y O *D sky130_fd_sc_hd__inv_2
*CAP
1 *3517:A3 0.000439008
2 *3516:Y 0.000439008
3 *3517:A3 *1066:87 0.0002666
4 *3517:A3 *1075:62 0.000266743
5 *3517:A2 *3517:A3 0.000186818
6 *3518:B *3517:A3 0.000136958
7 *127:28 *3517:A3 0.000318983
*RES
1 *3516:Y *3517:A3 38.9393 
*END

*D_NET *930 0.000539538
*CONN
*I *3519:B1 I *D sky130_fd_sc_hd__a31o_1
*I *3517:Y O *D sky130_fd_sc_hd__a31oi_1
*CAP
1 *3519:B1 0.00011825
2 *3517:Y 0.00011825
3 *3519:B1 *3458:A2 6.19181e-05
4 *3519:B1 *3517:A1 0.00012401
5 *3517:B1 *3519:B1 6.05161e-06
6 *3519:A2 *3519:B1 5.33005e-05
7 *127:28 *3519:B1 4.45768e-06
8 *369:199 *3519:B1 5.33005e-05
*RES
1 *3517:Y *3519:B1 30.3143 
*END

*D_NET *931 0.00461338
*CONN
*I *3524:B I *D sky130_fd_sc_hd__or2_1
*I *3530:A2 I *D sky130_fd_sc_hd__a21oi_1
*I *3525:B I *D sky130_fd_sc_hd__nand2_1
*I *3532:C I *D sky130_fd_sc_hd__and3_1
*I *3518:X O *D sky130_fd_sc_hd__and4_1
*CAP
1 *3524:B 0.000576065
2 *3530:A2 1.3471e-05
3 *3525:B 8.9927e-05
4 *3532:C 0.000106882
5 *3518:X 3.83484e-05
6 *931:18 0.000258317
7 *931:16 0.000559194
8 *931:8 0.00109863
9 *3524:B *3526:A2 0.000568643
10 *3524:B *974:49 9.41642e-05
11 *3525:B *3530:A1 0.000146394
12 *3530:A2 *3530:A1 1.00733e-05
13 *3530:A2 *3533:A1 0
14 *3532:C *3530:A1 5.04841e-06
15 *931:8 *974:8 6.49408e-05
16 *931:8 *1072:79 7.29712e-05
17 *931:16 *3530:A1 9.99644e-06
18 *931:16 *3533:A1 4.18011e-05
19 *931:16 *3533:A2 5.52302e-05
20 *931:16 *974:8 3.10885e-05
21 *931:16 *1061:199 7.02611e-05
22 *931:16 *1072:79 0.000181648
23 *931:16 *1074:64 7.49426e-05
24 *931:18 *1102:DIODE 1.21258e-05
25 *931:18 *3530:A1 3.18676e-05
26 *3421:C *931:16 1.68715e-05
27 *3532:A *3525:B 0.00018854
28 *3532:A *3532:C 4.3581e-05
29 *131:28 *3525:B 3.17148e-05
30 *131:28 *3532:C 6.12434e-05
31 *131:28 *931:16 0
32 *131:28 *931:18 5.33005e-05
33 *131:34 *3532:C 6.09565e-06
*RES
1 *3518:X *931:8 14.8357 
2 *931:8 *931:16 12.0179 
3 *931:16 *931:18 1.35714 
4 *931:18 *3532:C 11.6929 
5 *931:18 *3525:B 20.8536 
6 *931:16 *3530:A2 9.72857 
7 *931:8 *3524:B 21.7464 
*END

*D_NET *932 0.00121
*CONN
*I *3520:B1_N I *D sky130_fd_sc_hd__a21bo_1
*I *3519:X O *D sky130_fd_sc_hd__a31o_1
*CAP
1 *3520:B1_N 0.000365674
2 *3519:X 0.000365674
3 *3520:B1_N *3624:RESET_B 5.94737e-05
4 *3520:B1_N *3626:RESET_B 4.57445e-05
5 *3520:B1_N *1085:100 1.97381e-05
6 *120:37 *3520:B1_N 0
7 *121:25 *3520:B1_N 0.000254654
8 *917:32 *3520:B1_N 9.90367e-05
*RES
1 *3519:X *3520:B1_N 35.0464 
*END

*D_NET *933 0.000519043
*CONN
*I *3523:C I *D sky130_fd_sc_hd__or3_4
*I *3521:Y O *D sky130_fd_sc_hd__a21oi_1
*CAP
1 *3523:C 9.52975e-05
2 *3521:Y 9.52975e-05
3 *3523:C *3670:A 2.22043e-05
4 *3523:C *1036:8 5.52302e-05
5 *3523:C *1042:20 0.000137464
6 *805:35 *3523:C 3.34687e-05
7 *830:28 *3523:C 8.00806e-05
*RES
1 *3521:Y *3523:C 30.0821 
*END

*D_NET *934 0.00139156
*CONN
*I *3523:B I *D sky130_fd_sc_hd__or3_4
*I *3529:A2 I *D sky130_fd_sc_hd__o221ai_2
*I *3522:X O *D sky130_fd_sc_hd__and3_1
*CAP
1 *3523:B 0
2 *3529:A2 0.000103971
3 *3522:X 0.00017292
4 *934:6 0.000276892
5 *3529:A2 *3523:A 0.000174812
6 *3529:A2 *1042:20 0.000220455
7 *934:6 *3522:B 5.52302e-05
8 *3522:A *934:6 3.80079e-05
9 *3528:B *3529:A2 5.33005e-05
10 *3528:B *934:6 8.17274e-05
11 *823:24 *3529:A2 2.39876e-05
12 *829:12 *934:6 9.41642e-05
13 *830:20 *934:6 4.27935e-05
14 *830:28 *934:6 5.33005e-05
*RES
1 *3522:X *934:6 12.7107 
2 *934:6 *3529:A2 21.6929 
3 *934:6 *3523:B 9.3 
*END

*D_NET *935 0.00790603
*CONN
*I *3527:B1 I *D sky130_fd_sc_hd__a22o_1
*I *3523:X O *D sky130_fd_sc_hd__or3_4
*CAP
1 *3527:B1 0.00260238
2 *3523:X 0.00260238
3 *3527:B1 *3506:A2 0.000388934
4 *3527:B1 *3527:A2 1.38093e-05
5 *3527:B1 *3527:B2 2.32728e-05
6 *3527:B1 *3534:A1 0
7 *3527:B1 *3682:A 0
8 *3527:B1 *997:30 6.27272e-06
9 *3527:B1 *1060:135 0
10 *3527:B1 *1071:24 2.27189e-05
11 *2929:A2 *3527:B1 3.623e-05
12 *3387:A *3527:B1 9.59532e-06
13 *3417:D *3527:B1 4.58919e-05
14 *3419:A *3527:B1 0.000837095
15 *3505:A1 *3527:B1 0
16 *3531:C *3527:B1 0.00131744
17 *369:199 *3527:B1 0
18 *819:18 *3527:B1 0
19 *917:32 *3527:B1 0
*RES
1 *3523:X *3527:B1 44.182 
*END

*D_NET *936 0.00253145
*CONN
*I *3526:A2 I *D sky130_fd_sc_hd__a31o_1
*I *3524:X O *D sky130_fd_sc_hd__or2_1
*CAP
1 *3526:A2 0.00044061
2 *3524:X 0.00044061
3 *3526:A2 *3648:A 3.45371e-05
4 *3526:A2 *967:168 0.000228406
5 *3526:A2 *967:177 0.000249834
6 *3526:A2 *974:49 0.000136951
7 *3524:B *3526:A2 0.000568643
8 *3526:B1 *3526:A2 0.000431857
*RES
1 *3524:X *3526:A2 32.0464 
*END

*D_NET *937 0.000383302
*CONN
*I *3526:A3 I *D sky130_fd_sc_hd__a31o_1
*I *3525:Y O *D sky130_fd_sc_hd__nand2_1
*CAP
1 *3526:A3 0.000127579
2 *3525:Y 0.000127579
3 *3526:A3 *3527:B2 9.54798e-06
4 *3526:A3 *3530:A1 4.9663e-07
5 *3526:A3 *967:168 4.87854e-05
6 *3526:A3 *1070:88 4.50473e-05
7 *3417:D *3526:A3 2.42672e-05
*RES
1 *3525:Y *3526:A3 30.0643 
*END

*D_NET *938 0.00182805
*CONN
*I *3527:B2 I *D sky130_fd_sc_hd__a22o_1
*I *3526:X O *D sky130_fd_sc_hd__a31o_1
*CAP
1 *3527:B2 0.000472986
2 *3526:X 0.000472986
3 *3527:B2 *3506:A2 0.000115139
4 *3527:B2 *3527:A2 8.56818e-05
5 *3527:B2 *1061:207 8.40344e-05
6 *3527:B2 *1070:88 4.99283e-06
7 *3417:D *3527:B2 0.000122065
8 *3419:A *3527:B2 0.00010416
9 *3526:A3 *3527:B2 9.54798e-06
10 *3527:B1 *3527:B2 2.32728e-05
11 *3531:C *3527:B2 1.90936e-05
12 *3532:A *3527:B2 0
13 *3627:D *3527:B2 1.95091e-05
14 *129:48 *3527:B2 0.000294579
15 *130:10 *3527:B2 0
*RES
1 *3526:X *3527:B2 42.203 
*END

*D_NET *939 0.00228101
*CONN
*I *3529:B1 I *D sky130_fd_sc_hd__o221ai_2
*I *3535:A2 I *D sky130_fd_sc_hd__a21oi_1
*I *3536:A3 I *D sky130_fd_sc_hd__a31o_1
*I *3528:Y O *D sky130_fd_sc_hd__nand2_1
*CAP
1 *3529:B1 0
2 *3535:A2 0
3 *3536:A3 0.000132696
4 *3528:Y 0.000143639
5 *939:16 0.000310376
6 *939:10 0.000321319
7 *3536:A3 *997:30 7.48091e-05
8 *3536:A3 *1042:20 0.00012401
9 *3536:A3 *1042:22 5.31101e-05
10 *3536:A3 *1042:28 3.39401e-05
11 *939:10 *997:30 0
12 *939:16 *3523:A 0.000102207
13 *939:16 *3534:A1 5.26277e-05
14 *939:16 *997:30 0.000186662
15 *939:16 *1042:20 0
16 *3387:A *939:10 0.00015304
17 *3387:A *939:16 0.00017098
18 *3528:A *939:10 5.33334e-05
19 *3536:A1 *3536:A3 5.74893e-05
20 *3536:B1 *3536:A3 2.06112e-05
21 *758:16 *939:16 6.42095e-05
22 *791:14 *3536:A3 0.000185643
23 *805:8 *3536:A3 6.87839e-06
24 *830:28 *3536:A3 3.34295e-05
*RES
1 *3528:Y *939:10 16.6929 
2 *939:10 *939:16 10.0536 
3 *939:16 *3536:A3 22.6214 
4 *939:16 *3535:A2 9.3 
5 *939:10 *3529:B1 13.8 
*END

*D_NET *940 0.0100985
*CONN
*I *3534:A1 I *D sky130_fd_sc_hd__a32o_1
*I *3529:Y O *D sky130_fd_sc_hd__o221ai_2
*CAP
1 *3534:A1 0.00141434
2 *3529:Y 0.00141434
3 *3534:A1 *3682:A 0.000194621
4 *3534:A1 *967:159 6.43424e-05
5 *3534:A1 *997:30 0.000173097
6 *3534:A1 *1061:176 0.000164936
7 *3534:A1 *1061:191 0.000492108
8 *3534:A1 *1061:236 0.0020434
9 *3527:B1 *3534:A1 0
10 *3536:B1 *3534:A1 0.00405819
11 *131:28 *3534:A1 2.64807e-05
12 *369:169 *3534:A1 0
13 *939:16 *3534:A1 5.26277e-05
*RES
1 *3529:Y *3534:A1 45.0774 
*END

*D_NET *941 0.000190864
*CONN
*I *3533:A1 I *D sky130_fd_sc_hd__o21ai_1
*I *3530:Y O *D sky130_fd_sc_hd__a21oi_1
*CAP
1 *3533:A1 5.8219e-05
2 *3530:Y 5.8219e-05
3 *3533:A1 *3533:A2 1.33343e-05
4 *3421:C *3533:A1 1.92905e-05
5 *3530:A2 *3533:A1 0
6 *931:16 *3533:A1 4.18011e-05
*RES
1 *3530:Y *3533:A1 19.8902 
*END

*D_NET *942 0.005442
*CONN
*I *3538:B I *D sky130_fd_sc_hd__or2_1
*I *3542:A2 I *D sky130_fd_sc_hd__a21oi_1
*I *3546:D I *D sky130_fd_sc_hd__and4_1
*I *3539:B I *D sky130_fd_sc_hd__nand2_1
*I *3531:X O *D sky130_fd_sc_hd__and3_1
*CAP
1 *3538:B 2.23854e-05
2 *3542:A2 0
3 *3546:D 0.000142656
4 *3539:B 0
5 *3531:X 0.000383519
6 *942:33 0.000383315
7 *942:25 0.000390362
8 *942:16 0.000510836
9 *3546:D *3542:B1 0.000175251
10 *3546:D *3546:B 5.33005e-05
11 *3546:D *3546:C 2.27416e-05
12 *3546:D *998:20 0.000130419
13 *942:16 *1072:93 9.13083e-05
14 *942:16 *1085:66 3.65376e-05
15 *942:25 *1086:180 3.5298e-05
16 *942:33 *3541:B1 1.55885e-05
17 *942:33 *3544:A 3.25078e-05
18 *942:33 *3544:B 5.58941e-05
19 *942:33 *3703:A 7.32272e-05
20 *942:33 *998:31 0
21 *942:33 *1086:180 0.000218246
22 *3417:B *942:16 0.000566739
23 *3531:B *942:16 0.000159778
24 *3547:B1 *3546:D 0.000585509
25 *3547:B1 *942:33 0.000148911
26 *3628:D *942:16 0.000153054
27 *131:34 *942:16 9.2667e-05
28 *132:16 *3538:B 0
29 *132:16 *942:16 5.52238e-05
30 *132:16 *942:25 4.7194e-05
31 *132:18 *942:25 0.000142856
32 *132:36 *3546:D 2.14658e-05
33 *132:36 *942:33 2.19226e-05
34 *132:38 *3546:D 4.88637e-05
35 *369:43 *942:33 0.000481575
36 *369:54 *942:25 5.52238e-05
37 *369:54 *942:33 8.76257e-05
*RES
1 *3531:X *942:16 29.1393 
2 *942:16 *3539:B 9.3 
3 *942:16 *942:25 3.42857 
4 *942:25 *942:33 17.0179 
5 *942:33 *3546:D 15.6214 
6 *942:33 *3542:A2 9.3 
7 *942:25 *3538:B 9.72857 
*END

*D_NET *943 0.00528605
*CONN
*I *3533:A2 I *D sky130_fd_sc_hd__o21ai_1
*I *3543:C I *D sky130_fd_sc_hd__and3_1
*I *3532:X O *D sky130_fd_sc_hd__and3_1
*CAP
1 *3533:A2 0.000350584
2 *3543:C 0.000802378
3 *3532:X 0.000159136
4 *943:6 0.0013121
5 *3533:A2 *1061:207 2.00648e-05
6 *3533:A2 *1063:98 3.75595e-05
7 *3533:A2 *1071:24 0.000732576
8 *3533:A2 *1073:50 0
9 *3543:C *3412:C 9.23242e-05
10 *3543:C *1072:93 3.41099e-05
11 *3543:C *1073:50 7.06957e-05
12 *943:6 *1072:93 1.6539e-05
13 *3412:B *3543:C 4.46186e-06
14 *3412:D *3543:C 0.000126534
15 *3413:B *3543:C 0.000271345
16 *3415:C *3543:C 0
17 *3416:A1 *3533:A2 1.8115e-05
18 *3416:A3 *3543:C 5.52238e-05
19 *3417:B *3533:A2 1.93337e-05
20 *3421:C *3533:A2 1.32552e-05
21 *3423:A *3533:A2 0.000706032
22 *3533:A1 *3533:A2 1.33343e-05
23 *131:28 *3543:C 0
24 *132:36 *3543:C 0.00014285
25 *132:38 *3543:C 0.000144773
26 *132:40 *3543:C 8.74946e-05
27 *931:16 *3533:A2 5.52302e-05
*RES
1 *3532:X *943:6 11.0679 
2 *943:6 *3543:C 32.0768 
3 *943:6 *3533:A2 28.9272 
*END

*D_NET *944 0.00158673
*CONN
*I *3534:A3 I *D sky130_fd_sc_hd__a32o_1
*I *3533:Y O *D sky130_fd_sc_hd__o21ai_1
*CAP
1 *3534:A3 0.000234279
2 *3533:Y 0.000234279
3 *3534:A3 *3534:A2 5.02103e-05
4 *3534:A3 *3534:B1 3.66478e-05
5 *3534:A3 *974:53 9.39125e-05
6 *3534:A3 *1072:93 1.97865e-05
7 *3534:A3 *1073:50 0.000595916
8 *131:14 *3534:A3 0.000140933
9 *131:16 *3534:A3 0.000180764
*RES
1 *3533:Y *3534:A3 34.8321 
*END

*D_NET *945 0.000752666
*CONN
*I *3537:A I *D sky130_fd_sc_hd__or2_4
*I *3535:Y O *D sky130_fd_sc_hd__a21oi_1
*CAP
1 *3537:A 0.000310806
2 *3535:Y 0.000310806
3 *3537:A *3535:A1 9.45471e-05
4 *758:16 *3537:A 3.65069e-05
5 *805:8 *3537:A 0
*RES
1 *3535:Y *3537:A 33.0464 
*END

*D_NET *946 0.0001382
*CONN
*I *3537:B I *D sky130_fd_sc_hd__or2_4
*I *3536:X O *D sky130_fd_sc_hd__a31o_1
*CAP
1 *3537:B 4.05265e-05
2 *3536:X 4.05265e-05
3 *3537:B *997:30 0
4 *791:14 *3537:B 5.71472e-05
*RES
1 *3536:X *3537:B 19.5643 
*END

*D_NET *947 0.0107368
*CONN
*I *3541:A2 I *D sky130_fd_sc_hd__a32o_1
*I *3537:X O *D sky130_fd_sc_hd__or2_4
*CAP
1 *3541:A2 0.00499145
2 *3537:X 0.00499145
3 *3541:A2 *1063:23 0.000142192
4 *3541:A2 *1063:27 0.000246795
5 *3541:A2 *1083:29 0
6 *3367:B1 *3541:A2 6.53874e-05
7 *3379:A1 *3541:A2 0
8 *3455:A *3541:A2 0
9 *3536:B1 *3541:A2 0
10 *146:116 *3541:A2 2.11419e-05
11 *264:61 *3541:A2 6.2589e-06
12 *791:14 *3541:A2 0.000161504
13 *802:10 *3541:A2 0.000110632
14 *866:56 *3541:A2 0
*RES
1 *3537:X *3541:A2 48.6392 
*END

*D_NET *948 0.000322542
*CONN
*I *3540:A1 I *D sky130_fd_sc_hd__a21o_1
*I *3538:X O *D sky130_fd_sc_hd__or2_1
*CAP
1 *3540:A1 7.728e-05
2 *3538:X 7.728e-05
3 *3540:A1 *3540:A2 8.58017e-05
4 *3540:A1 *1086:180 7.83659e-05
5 *866:20 *3540:A1 3.81416e-06
*RES
1 *3538:X *3540:A1 29.1714 
*END

*D_NET *949 0.000361005
*CONN
*I *3540:A2 I *D sky130_fd_sc_hd__a21o_1
*I *3539:Y O *D sky130_fd_sc_hd__nand2_1
*CAP
1 *3540:A2 7.54686e-05
2 *3539:Y 7.54686e-05
3 *3540:A2 *974:63 5.54856e-05
4 *3540:A2 *1086:180 2.22631e-05
5 *3540:A1 *3540:A2 8.58017e-05
6 *132:10 *3540:A2 2.37761e-05
7 *866:20 *3540:A2 2.27416e-05
*RES
1 *3539:Y *3540:A2 29.7786 
*END

*D_NET *950 0.000254699
*CONN
*I *3541:A3 I *D sky130_fd_sc_hd__a32o_1
*I *3540:X O *D sky130_fd_sc_hd__a21o_1
*CAP
1 *3541:A3 5.59217e-05
2 *3540:X 5.59217e-05
3 *132:26 *3541:A3 0.000142856
*RES
1 *3540:X *3541:A3 19.9571 
*END

*D_NET *951 0.000794668
*CONN
*I *3544:A I *D sky130_fd_sc_hd__or3b_1
*I *3542:Y O *D sky130_fd_sc_hd__a21oi_1
*CAP
1 *3544:A 0.000212369
2 *3542:Y 0.000212369
3 *3544:A *3544:B 0.000242913
4 *3544:A *3545:A1 0
5 *3544:A *952:10 3.92854e-05
6 *3547:B1 *3544:A 5.52238e-05
7 *942:33 *3544:A 3.25078e-05
*RES
1 *3542:Y *3544:A 32.2071 
*END

*D_NET *952 0.00567239
*CONN
*I *3544:B I *D sky130_fd_sc_hd__or3b_1
*I *3549:C I *D sky130_fd_sc_hd__nand3_1
*I *3547:A2 I *D sky130_fd_sc_hd__o21ai_1
*I *3543:X O *D sky130_fd_sc_hd__and3_1
*CAP
1 *3544:B 0.000241742
2 *3549:C 0.000532337
3 *3547:A2 0
4 *3543:X 6.01842e-05
5 *952:16 0.00129256
6 *952:10 0.00106215
7 *3549:C *3548:B1 4.80729e-05
8 *3549:C *3550:A2 0
9 *3549:C *3550:B1 2.61099e-05
10 *3549:C *3551:A2 6.42145e-05
11 *3549:C *3554:A3 9.80173e-05
12 *3549:C *954:23 0.000214192
13 *3549:C *1004:10 7.6644e-05
14 *952:16 *3548:A2_N 7.83659e-05
15 *952:16 *3548:B1 0.00015234
16 *952:16 *3551:A2 3.90513e-05
17 *3544:A *3544:B 0.000242913
18 *3544:A *952:10 3.92854e-05
19 *3545:A2 *3544:B 0
20 *3547:B1 *3544:B 9.65075e-05
21 *3629:D *3544:B 0
22 *3630:D *3544:B 2.8266e-06
23 *3663:A *3544:B 0
24 *132:36 *3544:B 1.00375e-05
25 *135:18 *3549:C 6.87831e-06
26 *135:24 *3549:C 6.71755e-05
27 *264:61 *3544:B 0
28 *369:43 *3544:B 0.000126566
29 *369:43 *952:16 0.00103833
30 *942:33 *3544:B 5.58941e-05
*RES
1 *3543:X *952:10 19.3357 
2 *952:10 *952:16 16.4286 
3 *952:16 *3547:A2 13.8 
4 *952:16 *3549:C 21.7464 
5 *952:10 *3544:B 23.7286 
*END

*D_NET *953 0.000126884
*CONN
*I *3545:B1_N I *D sky130_fd_sc_hd__a21bo_1
*I *3544:X O *D sky130_fd_sc_hd__or3b_1
*CAP
1 *3545:B1_N 3.48685e-05
2 *3544:X 3.48685e-05
3 *3545:B1_N *3551:B1 5.71472e-05
*RES
1 *3544:X *3545:B1_N 19.1357 
*END

*D_NET *954 0.00398954
*CONN
*I *3550:A2 I *D sky130_fd_sc_hd__o211a_1
*I *3554:A3 I *D sky130_fd_sc_hd__a31o_1
*I *3548:A1_N I *D sky130_fd_sc_hd__a2bb2o_1
*I *3546:X O *D sky130_fd_sc_hd__and4_1
*CAP
1 *3550:A2 1.79444e-05
2 *3554:A3 0.00028271
3 *3548:A1_N 4.38759e-05
4 *3546:X 0.000425347
5 *954:23 0.000407837
6 *954:8 0.000576406
7 *3548:A1_N *1069:12 0.00015234
8 *3550:A2 *3550:B1 5.7661e-06
9 *3554:A3 *3550:B1 5.33005e-05
10 *3554:A3 *3557:A1 0
11 *3554:A3 *1061:117 0.000132691
12 *3554:A3 *1061:123 3.51442e-05
13 *3554:A3 *1069:12 0
14 *954:8 *3546:C 2.72695e-05
15 *954:8 *3549:A 2.32517e-05
16 *954:23 *1069:12 0.000185297
17 *2935:B1 *3548:A1_N 0.000150625
18 *2935:B1 *954:23 0.000193833
19 *3547:B1 *954:8 0.000478626
20 *3549:B *3550:A2 1.04232e-05
21 *3549:B *3554:A3 1.56e-05
22 *3549:B *954:23 1.74352e-05
23 *3549:C *3550:A2 0
24 *3549:C *3554:A3 9.80173e-05
25 *3549:C *954:23 0.000214192
26 *135:24 *954:23 0.000183713
27 *135:61 *3554:A3 2.89016e-05
28 *136:8 *954:8 9.60939e-05
29 *136:21 *3554:A3 4.22135e-06
30 *137:47 *3554:A3 2.95726e-05
31 *369:43 *3554:A3 9.91086e-05
*RES
1 *3546:X *954:8 21.3179 
2 *954:8 *3548:A1_N 15.7464 
3 *954:8 *954:23 9.23214 
4 *954:23 *3554:A3 23.5857 
5 *954:23 *3550:A2 9.72857 
*END

*D_NET *955 0.000847569
*CONN
*I *3548:A2_N I *D sky130_fd_sc_hd__a2bb2o_1
*I *3547:Y O *D sky130_fd_sc_hd__o21ai_1
*CAP
1 *3548:A2_N 0.000102798
2 *3547:Y 0.000102798
3 *3548:A2_N *3548:B1 7.97895e-05
4 *3548:A2_N *3551:A2 0.000148196
5 *3548:A2_N *1064:42 0.000142856
6 *3548:A2_N *1064:49 0.00010096
7 *2935:B1 *3548:A2_N 0
8 *369:43 *3548:A2_N 9.18051e-05
9 *952:16 *3548:A2_N 7.83659e-05
*RES
1 *3547:Y *3548:A2_N 31.725 
*END

*D_NET *956 0.00276323
*CONN
*I *3550:B1 I *D sky130_fd_sc_hd__o211a_1
*I *3555:B I *D sky130_fd_sc_hd__nor2_1
*I *3552:B I *D sky130_fd_sc_hd__xnor2_1
*I *3549:Y O *D sky130_fd_sc_hd__nand3_1
*CAP
1 *3550:B1 0.000113481
2 *3555:B 0.000228074
3 *3552:B 0.000241954
4 *3549:Y 2.23854e-05
5 *956:8 0.000537111
6 *956:6 0.000202949
7 *3552:B *2936:A 0.000229181
8 *3555:B *3557:A3 4.03318e-05
9 *3555:B *1064:83 0.000197991
10 *3555:B *1064:106 0.000159689
11 *956:8 *3549:A 5.52302e-05
12 *2997:B2 *3555:B 0
13 *3549:B *3550:B1 0.000208436
14 *3549:C *3550:B1 2.61099e-05
15 *3550:A2 *3550:B1 5.7661e-06
16 *3552:A *3552:B 5.49489e-05
17 *3554:A3 *3550:B1 5.33005e-05
18 *137:10 *3555:B 0
19 *369:28 *3552:B 4.88637e-05
20 *369:43 *3550:B1 2.28499e-05
21 *369:43 *3552:B 0.00021692
22 *369:43 *956:8 9.7659e-05
*RES
1 *3549:Y *956:6 9.72857 
2 *956:6 *956:8 1.76786 
3 *956:8 *3552:B 15.9964 
4 *956:8 *3555:B 22.9786 
5 *956:6 *3550:B1 12.4429 
*END

*D_NET *957 0.000524791
*CONN
*I *3551:B2 I *D sky130_fd_sc_hd__a22o_1
*I *3550:X O *D sky130_fd_sc_hd__o211a_1
*CAP
1 *3551:B2 0.000113106
2 *3550:X 0.000113106
3 *3551:B2 *1069:12 0.000134126
4 *2935:B1 *3551:B2 0.000145161
5 *135:24 *3551:B2 1.92905e-05
*RES
1 *3550:X *3551:B2 30.0821 
*END

*D_NET *958 0.00124835
*CONN
*I *3553:B2 I *D sky130_fd_sc_hd__a22o_1
*I *3552:Y O *D sky130_fd_sc_hd__xnor2_1
*CAP
1 *3553:B2 0.000425474
2 *3552:Y 0.000425474
3 *3553:B2 *2887:A 0
4 *3553:B2 *3553:B1 1.97695e-05
5 *3553:B2 *1081:50 2.38651e-06
6 *2794:B *3553:B2 5.52238e-05
7 *180:8 *3553:B2 0.000320024
*RES
1 *3552:Y *3553:B2 35.9214 
*END

*D_NET *959 0.000528539
*CONN
*I *3557:A2 I *D sky130_fd_sc_hd__a32o_1
*I *3554:X O *D sky130_fd_sc_hd__a31o_1
*CAP
1 *3557:A2 9.27658e-05
2 *3554:X 9.27658e-05
3 *3557:A2 *3557:B1 2.39852e-05
4 *3557:A2 *1061:24 5.41204e-05
5 *3557:A2 *1061:28 2.89016e-05
6 *137:40 *3557:A2 0.00018077
7 *137:47 *3557:A2 5.52302e-05
*RES
1 *3554:X *3557:A2 21.2071 
*END

*D_NET *960 0.00313847
*CONN
*I *3556:A I *D sky130_fd_sc_hd__inv_2
*I *3559:B I *D sky130_fd_sc_hd__nand2_1
*I *3558:B I *D sky130_fd_sc_hd__or2_1
*I *3563:A3 I *D sky130_fd_sc_hd__a31o_1
*I *3555:Y O *D sky130_fd_sc_hd__nor2_1
*CAP
1 *3556:A 2.23854e-05
2 *3559:B 2.51069e-05
3 *3558:B 0.000154413
4 *3563:A3 0
5 *3555:Y 0.000149567
6 *960:21 0.000284075
7 *960:12 0.000413611
8 *960:6 0.000481008
9 *3558:B *963:8 9.80173e-05
10 *960:6 *2931:B 9.90367e-05
11 *960:12 *1061:50 0.0004405
12 *960:12 *1061:61 0.00010326
13 *2783:A *3559:B 5.52302e-05
14 *2783:A *960:21 6.91157e-05
15 *2932:B *960:12 0.000201771
16 *2932:B *960:21 1.02504e-05
17 *2954:A *3556:A 0
18 *2997:B2 *960:12 0
19 *3552:A *960:6 0.000142053
20 *3552:A *960:12 5.62995e-05
21 *3558:A *3558:B 9.60875e-05
22 *3564:A2 *3558:B 2.04825e-05
23 *136:36 *960:6 1.21289e-05
24 *138:36 *3559:B 6.51101e-05
25 *138:36 *960:21 1.72148e-05
26 *140:32 *960:21 7.29667e-05
27 *380:8 *960:6 4.87854e-05
*RES
1 *3555:Y *960:6 13.1214 
2 *960:6 *960:12 12.5536 
3 *960:12 *3563:A3 13.8 
4 *960:12 *960:21 2.40179 
5 *960:21 *3558:B 16.3804 
6 *960:21 *3559:B 14.6125 
7 *960:6 *3556:A 9.72857 
*END

*D_NET *961 0.000883409
*CONN
*I *3557:A3 I *D sky130_fd_sc_hd__a32o_1
*I *3556:Y O *D sky130_fd_sc_hd__inv_2
*CAP
1 *3557:A3 0.000212706
2 *3556:Y 0.000212706
3 *3557:A3 *1061:28 5.71472e-05
4 *3552:A *3557:A3 0.000183713
5 *3555:B *3557:A3 4.03318e-05
6 *137:10 *3557:A3 0.000121573
7 *137:40 *3557:A3 5.52302e-05
*RES
1 *3556:Y *3557:A3 31.5464 
*END

*D_NET *962 0.000680739
*CONN
*I *3560:A2 I *D sky130_fd_sc_hd__a32o_1
*I *3558:X O *D sky130_fd_sc_hd__or2_1
*CAP
1 *3560:A2 0.000217652
2 *3558:X 0.000217652
3 *3560:A2 *3561:B 9.48089e-05
4 *3560:A2 *1061:85 0.000150625
*RES
1 *3558:X *3560:A2 31.3143 
*END

*D_NET *963 0.00263016
*CONN
*I *3560:A3 I *D sky130_fd_sc_hd__a32o_1
*I *3561:B I *D sky130_fd_sc_hd__xnor2_1
*I *3564:A3 I *D sky130_fd_sc_hd__o311a_1
*I *3559:Y O *D sky130_fd_sc_hd__nand2_1
*CAP
1 *3560:A3 0.000338612
2 *3561:B 0.000303733
3 *3564:A3 0.000102471
4 *3559:Y 0.000156204
5 *963:19 0.000688095
6 *963:8 0.000304424
7 *3560:A3 *1107:DIODE 3.44089e-05
8 *3560:A3 *3560:B1 1.1671e-05
9 *3561:B *3562:B2 5.018e-05
10 *2783:A *963:8 5.71472e-05
11 *3007:B1 *3560:A3 4.39422e-05
12 *3558:A *3561:B 5.49489e-05
13 *3558:A *963:8 2.14757e-05
14 *3558:B *963:8 9.80173e-05
15 *3560:A2 *3561:B 9.48089e-05
16 *3560:B2 *3560:A3 0.000141729
17 *3564:A1 *3564:A3 5.37741e-06
18 *3564:A2 *3560:A3 2.93304e-05
19 *3564:A2 *3564:A3 4.42631e-05
20 *3564:A2 *963:19 3.71887e-05
21 *138:23 *963:8 1.21289e-05
*RES
1 *3559:Y *963:8 15.9786 
2 *963:8 *3564:A3 15.4429 
3 *963:8 *963:19 1.03571 
4 *963:19 *3561:B 19.2643 
5 *963:19 *3560:A3 19.8893 
*END

*D_NET *964 0.000545548
*CONN
*I *3562:B2 I *D sky130_fd_sc_hd__a22o_1
*I *3561:Y O *D sky130_fd_sc_hd__xnor2_1
*CAP
1 *3562:B2 0.00018604
2 *3561:Y 0.00018604
3 *3562:B2 *1061:67 3.34295e-05
4 *3562:B2 *1061:85 8.98585e-05
5 *3561:B *3562:B2 5.018e-05
*RES
1 *3561:Y *3562:B2 30.6 
*END

*D_NET *965 0.000329615
*CONN
*I *3564:B1 I *D sky130_fd_sc_hd__o311a_1
*I *3563:X O *D sky130_fd_sc_hd__a31o_1
*CAP
1 *3564:B1 3.9157e-05
2 *3563:X 3.9157e-05
3 *3564:B1 *3564:C1 5.71472e-05
4 *3564:B1 *1061:67 0.000144773
5 *3564:A2 *3564:B1 3.72521e-05
6 *140:30 *3564:B1 1.21289e-05
*RES
1 *3563:X *3564:B1 20.3857 
*END

*D_NET *966 0.000483753
*CONN
*I *3565:A2_N I *D sky130_fd_sc_hd__a2bb2o_1
*I *3564:X O *D sky130_fd_sc_hd__o311a_1
*CAP
1 *3565:A2_N 0.000111017
2 *3564:X 0.000111017
3 *3565:A2_N *1061:67 5.33005e-05
4 *3565:A2_N *1064:106 1.00332e-05
5 *3565:A2_N *1064:121 0.000140063
6 *3565:A2_N *1081:123 5.83233e-05
*RES
1 *3564:X *3565:A2_N 30.0821 
*END

*D_NET *967 0.0298877
*CONN
*I *3649:A I *D sky130_fd_sc_hd__clkbuf_16
*I *1122:DIODE I *D sky130_fd_sc_hd__diode_2
*I *3648:A I *D sky130_fd_sc_hd__clkbuf_16
*I *1121:DIODE I *D sky130_fd_sc_hd__diode_2
*I *1114:DIODE I *D sky130_fd_sc_hd__diode_2
*I *1118:DIODE I *D sky130_fd_sc_hd__diode_2
*I *3644:A I *D sky130_fd_sc_hd__clkbuf_16
*I *1117:DIODE I *D sky130_fd_sc_hd__diode_2
*I *3645:A I *D sky130_fd_sc_hd__clkbuf_16
*I *3647:A I *D sky130_fd_sc_hd__clkbuf_16
*I *1120:DIODE I *D sky130_fd_sc_hd__diode_2
*I *3646:A I *D sky130_fd_sc_hd__clkbuf_16
*I *1119:DIODE I *D sky130_fd_sc_hd__diode_2
*I *1116:DIODE I *D sky130_fd_sc_hd__diode_2
*I *1115:DIODE I *D sky130_fd_sc_hd__diode_2
*I *3642:A I *D sky130_fd_sc_hd__clkbuf_16
*I *3643:A I *D sky130_fd_sc_hd__clkbuf_16
*I *3641:X O *D sky130_fd_sc_hd__clkbuf_16
*CAP
1 *3649:A 0.000118761
2 *1122:DIODE 0
3 *3648:A 3.27985e-05
4 *1121:DIODE 0
5 *1114:DIODE 0
6 *1118:DIODE 0
7 *3644:A 8.26488e-05
8 *1117:DIODE 0
9 *3645:A 4.85225e-05
10 *3647:A 2.17614e-05
11 *1120:DIODE 7.20397e-05
12 *3646:A 0
13 *1119:DIODE 0
14 *1116:DIODE 0
15 *1115:DIODE 0
16 *3642:A 0.000155025
17 *3643:A 0
18 *3641:X 0.000152819
19 *967:177 0.000425746
20 *967:168 0.00114262
21 *967:159 0.00128862
22 *967:131 0.00096286
23 *967:116 0.00144737
24 *967:110 0.00204018
25 *967:108 0.00156887
26 *967:104 0.000760403
27 *967:84 0.000413694
28 *967:73 0.000678409
29 *967:66 0.00126814
30 *967:33 0.000529355
31 *967:24 0.00100481
32 *967:16 0.00224373
33 *967:10 0.00308419
34 *967:8 0.000941425
35 *1120:DIODE *973:24 2.26327e-05
36 *3642:A *3579:RESET_B 0
37 *3644:A *3633:CLK 0.00010096
38 *967:10 *1086:164 0
39 *967:16 *1125:DIODE 4.00276e-06
40 *967:16 *1086:164 0
41 *967:24 *2870:A 1.21258e-05
42 *967:24 *1080:16 7.2754e-05
43 *967:33 *3596:CLK 5.09302e-05
44 *967:33 *969:80 5.52238e-05
45 *967:66 *3429:B1 1.96517e-05
46 *967:66 *3584:CLK 2.89016e-05
47 *967:66 *3584:RESET_B 0.000140925
48 *967:84 *3615:CLK 0.000114838
49 *967:84 *973:24 8.9163e-05
50 *967:104 *3621:CLK 0
51 *967:104 *3629:RESET_B 3.50449e-05
52 *967:104 *1086:180 0
53 *967:110 *3629:CLK 3.18676e-05
54 *967:110 *3629:RESET_B 6.6782e-05
55 *967:110 *971:80 0.000470484
56 *967:116 *971:27 0.000186379
57 *967:116 *971:80 6.87574e-05
58 *967:116 *1069:12 0.000148903
59 *967:131 *3549:A 1.40635e-05
60 *967:131 *3633:CLK 5.30209e-05
61 *967:131 *3633:RESET_B 8.84481e-05
62 *967:131 *1069:12 0.000313458
63 *967:159 *3629:RESET_B 3.46786e-05
64 *967:159 *1085:66 0.000697597
65 *967:168 *3525:A 2.89114e-05
66 *2793:A2 *3645:A 9.60939e-05
67 *2799:C1 *967:116 7.83587e-05
68 *2817:A_N *967:16 0.000146533
69 *2853:B *967:10 3.90513e-05
70 *2860:B2 *967:16 7.6644e-05
71 *2862:B *967:10 0
72 *2864:A1 *967:16 0.000175526
73 *2867:B1 *967:16 5.52302e-05
74 *2870:B *967:24 0.000354111
75 *2871:C *967:24 5.52238e-05
76 *2872:B1 *967:24 3.92757e-05
77 *2925:A2 *3649:A 0.000115961
78 *2925:A2 *967:177 2.24195e-05
79 *2925:B1 *3649:A 5.7661e-06
80 *2925:B1 *967:177 0.000221716
81 *2937:A *1120:DIODE 3.17163e-05
82 *2937:A *967:84 6.9253e-05
83 *2939:A *967:84 0
84 *2945:A *967:73 0.000271352
85 *2945:A *967:84 0.000312209
86 *2950:A *1120:DIODE 0.000104974
87 *2952:B *3647:A 9.71197e-05
88 *2952:C *3647:A 9.71197e-05
89 *3417:D *967:104 0
90 *3417:D *967:159 0
91 *3429:A3 *967:66 0.000108023
92 *3429:A3 *967:73 0.00010096
93 *3429:B2 *967:73 0.000122159
94 *3526:A2 *3648:A 3.45371e-05
95 *3526:A2 *967:168 0.000228406
96 *3526:A2 *967:177 0.000249834
97 *3526:A3 *967:168 4.87854e-05
98 *3526:B1 *967:168 0.000431857
99 *3532:A *967:159 0.000189115
100 *3534:A1 *967:159 6.43424e-05
101 *3553:A1 *967:131 0
102 *3584:D *967:66 1.40306e-05
103 *3613:D *967:66 3.80385e-05
104 *3621:D *967:104 0
105 *3631:D *967:116 0
106 *3631:D *967:131 0
107 *109:12 *967:10 0
108 *109:28 *967:16 5.33005e-05
109 *109:32 *967:16 0.000265914
110 *109:34 *967:16 9.76491e-05
111 *110:16 *967:16 3.07999e-05
112 *112:64 *967:16 3.13225e-05
113 *117:12 *1120:DIODE 5.33882e-05
114 *131:28 *967:159 1.20729e-05
115 *132:10 *967:110 2.89114e-05
116 *134:10 *967:116 0.000136951
117 *136:8 *967:131 0.00016345
118 *146:27 *967:73 0.000172803
119 *146:112 *967:10 0
120 *146:112 *967:104 0
121 *148:49 *3649:A 0.000139907
122 *150:19 *967:10 0
123 *150:47 *967:10 0
124 *150:51 *967:16 0
125 *151:14 *967:33 0.000274288
126 *151:32 *3642:A 0.00010096
127 *151:32 *967:33 0.00030669
128 *254:62 *967:8 0.000126629
129 *308:10 *967:24 3.69697e-05
130 *308:55 *967:10 0.00011833
131 *308:55 *967:16 0.000206317
132 *369:43 *967:131 0
133 *370:8 *967:84 0
*RES
1 *3641:X *967:8 15.9786 
2 *967:8 *967:10 9.83929 
3 *967:10 *967:16 27.3571 
4 *967:16 *967:24 21.3393 
5 *967:24 *3643:A 9.3 
6 *967:24 *967:33 7.94643 
7 *967:33 *3642:A 20.8893 
8 *967:33 *1115:DIODE 9.3 
9 *967:16 *1116:DIODE 9.3 
10 *967:10 *967:66 18.6429 
11 *967:66 *1119:DIODE 9.3 
12 *967:66 *967:73 8.75 
13 *967:73 *3646:A 9.3 
14 *967:73 *967:84 12.4821 
15 *967:84 *1120:DIODE 15.7464 
16 *967:84 *3647:A 14.7464 
17 *967:8 *967:104 4.07143 
18 *967:104 *967:108 5.03571 
19 *967:108 *967:110 19.0179 
20 *967:110 *967:116 12.3214 
21 *967:116 *3645:A 14.7464 
22 *967:116 *967:131 17.7321 
23 *967:131 *1117:DIODE 9.3 
24 *967:131 *3644:A 11.2821 
25 *967:110 *1118:DIODE 9.3 
26 *967:108 *1114:DIODE 9.3 
27 *967:104 *967:159 15.25 
28 *967:159 *1121:DIODE 9.3 
29 *967:159 *967:168 13.2857 
30 *967:168 *3648:A 10.0321 
31 *967:168 *967:177 5.875 
32 *967:177 *1122:DIODE 9.3 
33 *967:177 *3649:A 12.3357 
*END

*D_NET *968 0.0102014
*CONN
*I *3578:CLK I *D sky130_fd_sc_hd__dfrtp_1
*I *3650:A I *D sky130_fd_sc_hd__clkbuf_8
*I *3595:CLK I *D sky130_fd_sc_hd__dfxtp_1
*I *3602:CLK I *D sky130_fd_sc_hd__dfxtp_1
*I *3603:CLK I *D sky130_fd_sc_hd__dfxtp_1
*I *3601:CLK I *D sky130_fd_sc_hd__dfxtp_1
*I *3575:CLK I *D sky130_fd_sc_hd__dfrtp_1
*I *3580:CLK I *D sky130_fd_sc_hd__dfrtp_1
*I *3594:CLK I *D sky130_fd_sc_hd__dfxtp_1
*I *3598:CLK I *D sky130_fd_sc_hd__dfxtp_1
*I *3599:CLK I *D sky130_fd_sc_hd__dfxtp_1
*I *3600:CLK I *D sky130_fd_sc_hd__dfxtp_1
*I *3642:X O *D sky130_fd_sc_hd__clkbuf_16
*CAP
1 *3578:CLK 0.000243378
2 *3650:A 2.23854e-05
3 *3595:CLK 3.18784e-05
4 *3602:CLK 2.59937e-05
5 *3603:CLK 0
6 *3601:CLK 2.54459e-05
7 *3575:CLK 0.000392624
8 *3580:CLK 0
9 *3594:CLK 0
10 *3598:CLK 0
11 *3599:CLK 0
12 *3600:CLK 0.000533651
13 *3642:X 0
14 *968:111 8.76125e-05
15 *968:107 0.000461907
16 *968:84 0.000406222
17 *968:80 0.000950274
18 *968:78 0.000881879
19 *968:54 0.000517238
20 *968:45 0.000245554
21 *968:18 0.000793551
22 *968:16 0.000533958
23 *968:14 0.00117091
24 *968:4 0.00092911
25 *3575:CLK *2892:A 9.24825e-05
26 *3575:CLK *3580:D 8.39e-05
27 *3578:CLK *3578:D 6.15171e-05
28 *3578:CLK *1080:64 6.60826e-05
29 *3600:CLK *3752:A 0
30 *3602:CLK *2910:B 6.05161e-06
31 *968:14 *2892:A 5.71472e-05
32 *968:18 *3754:A 0
33 *968:18 *3755:A 9.15186e-06
34 *968:54 *3580:D 1.99099e-05
35 *968:80 *2896:A 1.18253e-05
36 *968:84 *2910:B 2.85188e-05
37 gpio_out[16] *3600:CLK 8.23597e-06
38 gpio_out[18] *3600:CLK 7.43578e-06
39 gpio_out[8] *968:18 0
40 gpio_out[9] *968:18 6.39829e-05
41 *1132:DIODE *3575:CLK 7.17235e-05
42 *2785:A *3600:CLK 0
43 *2846:A *968:16 0
44 *2850:C *968:80 0.000163486
45 *2850:C *968:84 0.000194691
46 *2850:D *968:80 7.06865e-05
47 *2890:B *968:16 0
48 *2891:A *968:16 0
49 *2891:B *968:54 0
50 *2891:C *968:14 9.50968e-06
51 *2891:C *968:16 0
52 *2892:B *3575:CLK 0
53 *2892:B *968:54 0
54 *2893:A *968:14 0.000197277
55 *2893:B *968:14 2.89016e-05
56 *2904:B *3602:CLK 2.84109e-05
57 *2904:B *968:80 9.97164e-05
58 *2907:B *968:84 0
59 *3594:D *968:14 4.01768e-05
60 *3594:D *968:45 4.79842e-05
61 *3594:D *968:54 1.41706e-05
62 *3599:D *3600:CLK 0
63 *3601:D *968:84 4.46186e-06
64 *3602:D *968:84 0
65 *3710:A *3578:CLK 3.13687e-05
66 *3728:A *968:80 0
67 *3731:A *3575:CLK 0.00010096
68 *3:13 *3575:CLK 2.8906e-05
69 *108:39 *3601:CLK 2.17647e-05
70 *151:32 *3600:CLK 0
71 *151:32 *968:16 0
72 *151:32 *968:18 0
73 *165:29 *968:80 0
74 *302:28 *968:14 0.000126923
75 *336:12 *968:14 2.89016e-05
76 *345:12 *968:84 0.000121573
*RES
1 *3642:X *968:4 9.3 
2 *968:4 *968:14 19.1607 
3 *968:14 *968:16 4.98214 
4 *968:16 *968:18 4.98214 
5 *968:18 *3600:CLK 23.0857 
6 *968:18 *3599:CLK 13.8 
7 *968:16 *3598:CLK 13.8 
8 *968:14 *968:45 2.55357 
9 *968:45 *3594:CLK 13.8 
10 *968:45 *968:54 2.55357 
11 *968:54 *3580:CLK 13.8 
12 *968:54 *3575:CLK 21.9429 
13 *968:4 *968:78 6.26786 
14 *968:78 *968:80 9.23214 
15 *968:80 *968:84 11.6071 
16 *968:84 *3601:CLK 9.83571 
17 *968:84 *3603:CLK 9.3 
18 *968:80 *3602:CLK 14.3357 
19 *968:78 *968:107 3.16071 
20 *968:107 *968:111 5.03571 
21 *968:111 *3595:CLK 9.83571 
22 *968:111 *3650:A 9.72857 
23 *968:107 *3578:CLK 18.0143 
*END

*D_NET *969 0.00997843
*CONN
*I *3582:CLK I *D sky130_fd_sc_hd__dfrtp_2
*I *3586:CLK I *D sky130_fd_sc_hd__dfrtp_1
*I *3567:CLK I *D sky130_fd_sc_hd__dfrtp_2
*I *3651:A I *D sky130_fd_sc_hd__clkinv_2
*I *3596:CLK I *D sky130_fd_sc_hd__dfxtp_1
*I *3581:CLK I *D sky130_fd_sc_hd__dfxtp_2
*I *3597:CLK I *D sky130_fd_sc_hd__dfxtp_1
*I *3587:CLK I *D sky130_fd_sc_hd__dfrtp_1
*I *3605:CLK I *D sky130_fd_sc_hd__dfxtp_1
*I *3604:CLK I *D sky130_fd_sc_hd__dfxtp_1
*I *3579:CLK I *D sky130_fd_sc_hd__dfrtp_1
*I *3643:X O *D sky130_fd_sc_hd__clkbuf_16
*CAP
1 *3582:CLK 0.000808844
2 *3586:CLK 0
3 *3567:CLK 9.246e-05
4 *3651:A 0
5 *3596:CLK 0.000394237
6 *3581:CLK 0
7 *3597:CLK 3.18784e-05
8 *3587:CLK 0.00013346
9 *3605:CLK 3.21518e-05
10 *3604:CLK 0.000399356
11 *3579:CLK 0.000452412
12 *3643:X 9.81555e-05
13 *969:80 0.000414428
14 *969:64 0.000208219
15 *969:33 0.000730612
16 *969:27 0.000573487
17 *969:25 0.000511393
18 *969:23 0.000373992
19 *969:21 0.000252131
20 *969:12 0.00093017
21 *969:10 0.00138476
22 *3567:CLK *3579:RESET_B 0
23 *3579:CLK *3579:D 1.08881e-05
24 *3587:CLK *2916:A 3.69047e-06
25 *3604:CLK *2916:A 0
26 *969:10 *1079:8 6.58195e-05
27 *969:23 *3579:RESET_B 0
28 *969:33 *2916:A 8.15843e-05
29 *2790:A_N *3567:CLK 0.000129868
30 *2805:B1 *3604:CLK 0
31 *2812:A_N *3604:CLK 0
32 *2827:A1 *3582:CLK 0
33 *2838:A2 *3582:CLK 9.01334e-05
34 *2851:B *3596:CLK 0.000318107
35 *2856:B *3582:CLK 0.000118339
36 *2913:B *3604:CLK 6.75007e-05
37 *2915:A *3604:CLK 0
38 *3581:D *3596:CLK 9.90367e-05
39 *3581:D *969:25 0
40 *3581:D *969:64 1.64343e-05
41 *3586:D *3582:CLK 9.76689e-05
42 *3587:D *969:25 0
43 *3587:D *969:27 0
44 *3605:D *3604:CLK 0
45 *3605:D *969:33 0.000147142
46 *3700:A *3582:CLK 0.000148177
47 *3719:A *969:33 0
48 *109:88 *3582:CLK 3.75052e-05
49 *113:29 *3582:CLK 0.000109918
50 *151:14 *3596:CLK 0.000143625
51 *151:14 *969:25 0
52 *151:14 *969:64 7.15846e-05
53 *151:32 *3596:CLK 4.72818e-05
54 *272:33 *3582:CLK 0.000245832
55 *308:40 *3582:CLK 0
56 *309:22 *3582:CLK 0
57 *967:33 *3596:CLK 5.09302e-05
58 *967:33 *969:80 5.52238e-05
*RES
1 *3643:X *969:10 20.55 
2 *969:10 *969:12 7.92857 
3 *969:12 *3579:CLK 16.8179 
4 *969:12 *969:21 4.5 
5 *969:21 *969:23 2.55357 
6 *969:23 *969:25 2.85714 
7 *969:25 *969:27 2.25 
8 *969:27 *969:33 10.3571 
9 *969:33 *3604:CLK 25.4071 
10 *969:33 *3605:CLK 9.83571 
11 *969:27 *3587:CLK 15.9786 
12 *969:25 *969:64 7.91071 
13 *969:64 *3597:CLK 9.83571 
14 *969:64 *3581:CLK 9.3 
15 *969:23 *969:80 5.03571 
16 *969:80 *3596:CLK 17.9786 
17 *969:80 *3651:A 9.3 
18 *969:21 *3567:CLK 16.05 
19 *969:10 *3586:CLK 9.3 
20 *969:10 *3582:CLK 35.8 
*END

*D_NET *970 0.0130534
*CONN
*I *3637:CLK I *D sky130_fd_sc_hd__dfrtp_4
*I *3636:CLK I *D sky130_fd_sc_hd__dfrtp_2
*I *3591:CLK I *D sky130_fd_sc_hd__dfxtp_1
*I *3590:CLK I *D sky130_fd_sc_hd__dfxtp_1
*I *3635:CLK I *D sky130_fd_sc_hd__dfrtp_2
*I *3634:CLK I *D sky130_fd_sc_hd__dfrtp_4
*I *3592:CLK I *D sky130_fd_sc_hd__dfxtp_1
*I *3593:CLK I *D sky130_fd_sc_hd__dfxtp_1
*I *3574:CLK I *D sky130_fd_sc_hd__dfrtp_1
*I *3571:CLK I *D sky130_fd_sc_hd__dfrtp_1
*I *3577:CLK I *D sky130_fd_sc_hd__dfrtp_1
*I *3569:CLK I *D sky130_fd_sc_hd__dfrtp_1
*I *3576:CLK I *D sky130_fd_sc_hd__dfrtp_1
*I *3644:X O *D sky130_fd_sc_hd__clkbuf_16
*CAP
1 *3637:CLK 0
2 *3636:CLK 0.00043315
3 *3591:CLK 0
4 *3590:CLK 0.000419019
5 *3635:CLK 0.000559128
6 *3634:CLK 0
7 *3592:CLK 8.51872e-05
8 *3593:CLK 0
9 *3574:CLK 0.000114482
10 *3571:CLK 0
11 *3577:CLK 0.000114135
12 *3569:CLK 0.000157106
13 *3576:CLK 0.00027733
14 *3644:X 0.000117917
15 *970:149 0.000458228
16 *970:147 0.000871913
17 *970:130 0.0010137
18 *970:128 0.000404925
19 *970:109 0.000507757
20 *970:58 0.000187869
21 *970:34 0.000804722
22 *970:28 0.000694416
23 *970:26 0.000491158
24 *970:22 0.000505661
25 *970:14 0.00080679
26 *970:8 0.000617991
27 *3569:CLK *3577:RESET_B 0.000118373
28 *3576:CLK *3575:D 1.58163e-05
29 *3576:CLK *3576:RESET_B 8.71761e-05
30 *3577:CLK *3577:D 6.58195e-05
31 *3590:CLK *2884:B 0
32 *3592:CLK *2886:B 6.8646e-06
33 *3635:CLK *3635:RESET_B 0.000141928
34 *3635:CLK *1081:123 7.26935e-05
35 *3636:CLK *2884:A 0
36 *970:14 *2886:B 0.000140933
37 *970:22 *2886:B 9.69119e-06
38 *970:26 *3574:D 0.000117189
39 *970:28 *3574:D 5.83233e-05
40 *970:28 *3577:D 0.000116481
41 *970:34 *3577:D 0.000177941
42 *970:58 *3571:D 4.4679e-05
43 *970:128 *1081:123 0
44 *970:149 *2884:A 0
45 *2844:A *970:109 0
46 *2888:A *970:22 2.8886e-05
47 *2888:B *970:8 6.58195e-05
48 *2888:B *970:14 0.000415259
49 *3561:A *3635:CLK 6.74911e-05
50 *3590:D *3590:CLK 5.95099e-05
51 *3591:D *970:147 0.000133331
52 *3592:D *3592:CLK 0.000128154
53 *3592:D *970:14 5.52302e-05
54 *3593:D *970:22 0.000427577
55 *3635:D *3635:CLK 0
56 *3636:D *3636:CLK 5.33334e-05
57 *3637:D *3635:CLK 0
58 *3709:A *3576:CLK 0.000183726
59 *3717:A *970:109 1.6959e-05
60 *3717:A *970:128 0
61 *3725:A *3635:CLK 6.48957e-05
62 *3725:A *970:128 0
63 *1:21 *3576:CLK 0.000332911
64 *14:13 *3577:CLK 0.000101535
65 *25:9 *970:26 0
66 *30:13 *970:28 0
67 *159:8 *970:130 5.30637e-06
68 *159:8 *970:147 3.65178e-05
69 *159:10 *970:128 0
70 *302:10 *3576:CLK 6.04162e-05
*RES
1 *3644:X *970:8 16.3536 
2 *970:8 *970:14 15.6964 
3 *970:14 *970:22 11.7143 
4 *970:22 *970:26 7.05357 
5 *970:26 *970:28 4.98214 
6 *970:28 *970:34 11.5893 
7 *970:34 *3576:CLK 26.425 
8 *970:34 *3569:CLK 12.3 
9 *970:28 *970:58 5.85714 
10 *970:58 *3577:CLK 21.3893 
11 *970:58 *3571:CLK 9.3 
12 *970:26 *3574:CLK 15.5679 
13 *970:22 *3593:CLK 9.3 
14 *970:14 *3592:CLK 15.7464 
15 *970:8 *970:109 3.57143 
16 *970:109 *3634:CLK 13.8 
17 *970:109 *970:128 10.8036 
18 *970:128 *970:130 0.946429 
19 *970:130 *3635:CLK 30.5679 
20 *970:130 *970:147 11.2143 
21 *970:147 *970:149 0.732143 
22 *970:149 *3590:CLK 20.9964 
23 *970:149 *3591:CLK 13.8 
24 *970:147 *3636:CLK 20.4786 
25 *970:128 *3637:CLK 9.3 
*END

*D_NET *971 0.0106865
*CONN
*I *3632:CLK I *D sky130_fd_sc_hd__dfrtp_4
*I *3652:A I *D sky130_fd_sc_hd__bufinv_16
*I *3629:CLK I *D sky130_fd_sc_hd__dfrtp_4
*I *3630:CLK I *D sky130_fd_sc_hd__dfrtp_1
*I *3631:CLK I *D sky130_fd_sc_hd__dfrtp_1
*I *3570:CLK I *D sky130_fd_sc_hd__dfrtp_1
*I *3633:CLK I *D sky130_fd_sc_hd__dfrtp_4
*I *3572:CLK I *D sky130_fd_sc_hd__dfrtp_1
*I *3573:CLK I *D sky130_fd_sc_hd__dfrtp_1
*I *3568:CLK I *D sky130_fd_sc_hd__dfrtp_2
*I *3645:X O *D sky130_fd_sc_hd__clkbuf_16
*CAP
1 *3632:CLK 0.000120255
2 *3652:A 0
3 *3629:CLK 1.60187e-05
4 *3630:CLK 0
5 *3631:CLK 0
6 *3570:CLK 0
7 *3633:CLK 0.000441465
8 *3572:CLK 0.000224687
9 *3573:CLK 0
10 *3568:CLK 0.000154488
11 *3645:X 0.000189427
12 *971:94 0.000214695
13 *971:80 0.000305867
14 *971:37 0.000290191
15 *971:35 0.000822732
16 *971:29 0.000794276
17 *971:27 0.000899639
18 *971:25 0.000710974
19 *971:10 0.000209425
20 *971:8 0.000338803
21 *3568:CLK *984:10 5.72433e-05
22 *3572:CLK *1081:68 0.000164115
23 *3632:CLK *3551:A2 0.000374038
24 *3633:CLK *2887:A 0.000419599
25 *3633:CLK *3633:RESET_B 0.000761602
26 *971:10 *984:10 6.8646e-06
27 *971:27 *3631:RESET_B 0.000263204
28 *971:27 *3702:A 4.70821e-05
29 *971:29 *1081:23 0.000142728
30 *971:35 *2887:A 3.34366e-05
31 *971:35 *1081:39 0
32 *971:80 *3631:RESET_B 0.000382212
33 *971:94 *3551:A2 3.34366e-05
34 *2793:A2 *3568:CLK 0.000171375
35 *2793:A2 *971:10 0.000138939
36 *2793:A2 *971:94 2.31791e-05
37 *2888:B *3572:CLK 0
38 *2888:B *3633:CLK 0
39 *2935:B1 *971:94 0
40 *3568:D *3568:CLK 5.17614e-05
41 *3644:A *3633:CLK 0.00010096
42 *3766:A *3632:CLK 4.73656e-05
43 *133:21 *971:80 8.63667e-05
44 *134:10 *3632:CLK 0.000219734
45 *134:10 *971:10 0.00012401
46 *134:10 *971:27 9.60875e-05
47 *134:10 *971:80 5.52302e-05
48 *134:10 *971:94 0.000225314
49 *134:19 *3632:CLK 0.000117189
50 *967:110 *3629:CLK 3.18676e-05
51 *967:110 *971:80 0.000470484
52 *967:116 *971:27 0.000186379
53 *967:116 *971:80 6.87574e-05
54 *967:131 *3633:CLK 5.30209e-05
*RES
1 *3645:X *971:8 16.3893 
2 *971:8 *971:10 1.94643 
3 *971:10 *3568:CLK 17.425 
4 *971:10 *971:25 4.5 
5 *971:25 *971:27 8.75 
6 *971:27 *971:29 8.33929 
7 *971:29 *971:35 9.64286 
8 *971:35 *971:37 0.946429 
9 *971:37 *3573:CLK 13.8 
10 *971:37 *3572:CLK 19.3536 
11 *971:35 *3633:CLK 27.4429 
12 *971:29 *3570:CLK 9.3 
13 *971:27 *3631:CLK 9.3 
14 *971:25 *971:80 9.98214 
15 *971:80 *3630:CLK 9.3 
16 *971:80 *3629:CLK 9.83571 
17 *971:8 *971:94 2.85714 
18 *971:94 *3652:A 13.8 
19 *971:94 *3632:CLK 18.7821 
*END

*D_NET *972 0.00919356
*CONN
*I *3606:CLK I *D sky130_fd_sc_hd__dfrtp_1
*I *3585:CLK I *D sky130_fd_sc_hd__dfrtp_2
*I *3653:A I *D sky130_fd_sc_hd__bufinv_16
*I *3638:CLK I *D sky130_fd_sc_hd__dfrtp_1
*I *3613:CLK I *D sky130_fd_sc_hd__dfrtp_4
*I *3584:CLK I *D sky130_fd_sc_hd__dfrtp_4
*I *3583:CLK I *D sky130_fd_sc_hd__dfrtp_2
*I *3609:CLK I *D sky130_fd_sc_hd__dfrtp_1
*I *3588:CLK I *D sky130_fd_sc_hd__dfrtp_1
*I *3589:CLK I *D sky130_fd_sc_hd__dfrtp_2
*I *3646:X O *D sky130_fd_sc_hd__clkbuf_16
*CAP
1 *3606:CLK 3.2426e-05
2 *3585:CLK 0
3 *3653:A 0
4 *3638:CLK 0.000581679
5 *3613:CLK 0
6 *3584:CLK 1.40568e-05
7 *3583:CLK 6.17285e-05
8 *3609:CLK 0
9 *3588:CLK 0
10 *3589:CLK 0.000645067
11 *3646:X 0.000222307
12 *972:87 0.000711386
13 *972:76 0.000416524
14 *972:66 0.000621546
15 *972:58 0.000510792
16 *972:56 0.000194433
17 *972:20 0.00102417
18 *972:12 0.000516326
19 *972:10 0.000343646
20 *972:8 0.000367006
21 *3584:CLK *3584:RESET_B 5.52238e-05
22 *3589:CLK *2873:A 0
23 *3589:CLK *2874:B 5.48312e-05
24 *3589:CLK *1077:33 0.00019549
25 *3589:CLK *1077:43 1.76039e-05
26 *3638:CLK *3638:RESET_B 0.000331516
27 *3638:CLK *1083:31 0
28 *3638:CLK *1083:33 0
29 *972:8 *2938:A2 0
30 *972:8 *1060:55 0
31 *972:10 *2938:A2 0
32 *972:12 *2938:A2 0
33 *972:20 *3588:RESET_B 0.000109036
34 *972:66 *1083:37 0
35 *972:66 *1083:46 0
36 *972:76 *1083:37 0
37 *972:87 *1083:33 0
38 *972:87 *1083:35 0
39 *1093:DIODE *3638:CLK 5.33005e-05
40 *2878:A2 *3589:CLK 5.52238e-05
41 *2878:B1 *3589:CLK 7.32272e-05
42 *2879:B *3589:CLK 0
43 *2882:A1 *972:20 0
44 *2883:A1 *3589:CLK 0
45 *3429:B2 *972:8 0
46 *3566:A1 *3638:CLK 0.000125412
47 *3583:D *972:12 0
48 *3588:D *3589:CLK 3.18676e-05
49 *3588:D *972:20 6.87574e-05
50 *3589:D *3589:CLK 3.79467e-05
51 *3609:D *972:12 3.34419e-05
52 *3613:D *972:87 3.79467e-05
53 *3638:D *3638:CLK 8.07313e-05
54 *3698:A *972:20 7.77652e-05
55 *112:70 *3589:CLK 0
56 *115:6 *972:20 0.000193883
57 *150:6 *3638:CLK 8.37235e-05
58 *150:47 *3638:CLK 0
59 *255:46 *3638:CLK 0.000743695
60 *309:46 *3638:CLK 0
61 *309:46 *972:76 0
62 *309:46 *972:87 0
63 *324:10 *3589:CLK 0.000155477
64 *324:18 *3589:CLK 0.000128154
65 *369:66 *3638:CLK 1.08359e-05
66 *369:72 *3638:CLK 0.000146474
67 *967:66 *3584:CLK 2.89016e-05
*RES
1 *3646:X *972:8 18.4786 
2 *972:8 *972:10 2.55357 
3 *972:10 *972:12 2.55357 
4 *972:12 *972:20 13.4643 
5 *972:20 *3589:CLK 31.9964 
6 *972:20 *3588:CLK 9.3 
7 *972:12 *3609:CLK 13.8 
8 *972:10 *3583:CLK 14.7464 
9 *972:8 *972:56 4.5 
10 *972:56 *972:58 2.58929 
11 *972:58 *972:66 15.0714 
12 *972:66 *972:76 8.96429 
13 *972:76 *3584:CLK 14.3357 
14 *972:76 *972:87 2.55357 
15 *972:87 *3613:CLK 13.8 
16 *972:87 *3638:CLK 31.6393 
17 *972:66 *3653:A 9.3 
18 *972:58 *3585:CLK 9.3 
19 *972:56 *3606:CLK 9.83571 
*END

*D_NET *973 0.0131885
*CONN
*I *3612:CLK I *D sky130_fd_sc_hd__dfrtp_1
*I *3616:CLK I *D sky130_fd_sc_hd__dfrtp_4
*I *3611:CLK I *D sky130_fd_sc_hd__dfrtp_1
*I *3610:CLK I *D sky130_fd_sc_hd__dfrtp_1
*I *3614:CLK I *D sky130_fd_sc_hd__dfrtp_4
*I *3615:CLK I *D sky130_fd_sc_hd__dfrtp_2
*I *3654:A I *D sky130_fd_sc_hd__clkinvlp_4
*I *3607:CLK I *D sky130_fd_sc_hd__dfrtp_1
*I *3608:CLK I *D sky130_fd_sc_hd__dfrtp_1
*I *3647:X O *D sky130_fd_sc_hd__clkbuf_16
*CAP
1 *3612:CLK 0
2 *3616:CLK 0.000199094
3 *3611:CLK 0.000164758
4 *3610:CLK 0.000310478
5 *3614:CLK 0
6 *3615:CLK 0.00103461
7 *3654:A 0.000110429
8 *3607:CLK 0
9 *3608:CLK 0.000186044
10 *3647:X 0
11 *973:87 0.000628373
12 *973:83 0.000352233
13 *973:81 0.000152926
14 *973:32 0.000617839
15 *973:24 0.0007172
16 *973:20 0.00144542
17 *973:12 0.000381823
18 *973:4 0.000298912
19 *3610:CLK *3611:RESET_B 0
20 *3610:CLK *1086:8 3.69865e-05
21 *3610:CLK *1086:14 4.79842e-05
22 *3610:CLK *1086:132 1.5376e-05
23 *3611:CLK *3611:RESET_B 8.2632e-05
24 *3615:CLK *1062:37 0.000467203
25 *3616:CLK *3614:RESET_B 0.000224592
26 *3616:CLK *1084:87 1.69115e-05
27 *973:20 *2945:B 7.11924e-05
28 *973:20 *2949:B1 9.90431e-05
29 *973:32 *2938:B1 0.000139907
30 *973:32 *1084:34 0.00034421
31 *973:32 *1084:41 0.000137333
32 *973:81 *1084:87 0.000200925
33 *973:87 *1084:87 2.94103e-05
34 *1120:DIODE *973:24 2.26327e-05
35 *2920:A *3610:CLK 0
36 *2920:A *973:32 0
37 *2921:A *973:20 0.00018077
38 *2939:A *3615:CLK 0
39 *2941:A *973:32 1.78353e-05
40 *2941:B *973:32 1.18064e-05
41 *2942:B *3608:CLK 0.000150618
42 *2943:B *3608:CLK 0.000200406
43 *2944:B *3654:A 2.59355e-05
44 *2945:C *3615:CLK 0.000248486
45 *2945:C *973:24 0.000117189
46 *2947:A_N *3654:A 2.14658e-05
47 *2947:A_N *973:32 0.000613013
48 *2947:B *973:32 4.8843e-05
49 *2949:A1 *973:20 0.000137505
50 *2950:A *973:24 0.000175519
51 *2951:B *3616:CLK 0
52 *2951:B *973:12 3.75052e-05
53 *3428:A2 *3615:CLK 1.97695e-05
54 *3433:A1 *3615:CLK 0
55 *3434:A1 *3615:CLK 0.000191963
56 *3607:D *3608:CLK 0
57 *3608:D *3608:CLK 5.71472e-05
58 *3610:D *3610:CLK 0
59 *3611:D *3610:CLK 0
60 *3611:D *3616:CLK 4.53124e-05
61 *3611:D *973:87 0
62 *3612:D *973:81 9.80173e-05
63 *3614:D *973:12 7.36588e-05
64 *3614:D *973:20 3.18676e-05
65 *3707:A *3610:CLK 8.15939e-05
66 *117:23 *3654:A 0.000367452
67 *117:23 *973:32 9.31893e-05
68 *143:32 *973:24 0
69 *143:49 *973:20 2.89114e-05
70 *144:36 *973:12 0
71 *145:24 *973:12 0.000126945
72 *145:24 *973:20 0.000181876
73 *353:22 *3610:CLK 5.25974e-05
74 *353:22 *973:20 1.98839e-05
75 *353:22 *973:81 0.000246056
76 *353:22 *973:87 4.88223e-05
77 *372:8 *3608:CLK 0.000200413
78 *372:8 *973:32 0.000117196
79 *374:10 *973:24 0.000191403
80 *857:29 *3615:CLK 0.000187012
81 *967:84 *3615:CLK 0.000114838
82 *967:84 *973:24 8.9163e-05
*RES
1 *3647:X *973:4 9.3 
2 *973:4 *973:12 12.6071 
3 *973:12 *973:20 11.3393 
4 *973:20 *973:24 9.48214 
5 *973:24 *973:32 17.6071 
6 *973:32 *3608:CLK 19.3179 
7 *973:32 *3607:CLK 13.8 
8 *973:24 *3654:A 12.3 
9 *973:20 *3615:CLK 31.6036 
10 *973:12 *3614:CLK 9.3 
11 *973:4 *973:81 4.78571 
12 *973:81 *973:83 4.5 
13 *973:83 *973:87 3.08929 
14 *973:87 *3610:CLK 20.2643 
15 *973:87 *3611:CLK 16.8 
16 *973:83 *3616:CLK 18.4786 
17 *973:81 *3612:CLK 9.3 
*END

*D_NET *974 0.010354
*CONN
*I *3655:A I *D sky130_fd_sc_hd__inv_6
*I *3620:CLK I *D sky130_fd_sc_hd__dfrtp_4
*I *3628:CLK I *D sky130_fd_sc_hd__dfrtp_4
*I *3621:CLK I *D sky130_fd_sc_hd__dfrtp_1
*I *3623:CLK I *D sky130_fd_sc_hd__dfrtp_4
*I *3622:CLK I *D sky130_fd_sc_hd__dfrtp_1
*I *3627:CLK I *D sky130_fd_sc_hd__dfrtp_1
*I *3648:X O *D sky130_fd_sc_hd__clkbuf_16
*CAP
1 *3655:A 0
2 *3620:CLK 0.000281559
3 *3628:CLK 0
4 *3621:CLK 0.000240064
5 *3623:CLK 0.000107632
6 *3622:CLK 0.000356154
7 *3627:CLK 0
8 *3648:X 0
9 *974:63 0.00104235
10 *974:53 0.00125653
11 *974:49 0.000399269
12 *974:19 0.000659014
13 *974:8 0.000353734
14 *974:4 0.000385098
15 *3620:CLK *3479:B1 4.27438e-05
16 *3620:CLK *3485:B1 6.58094e-05
17 *3621:CLK *3629:RESET_B 0
18 *3621:CLK *1086:180 0.000126198
19 *3622:CLK *1074:64 0
20 *3622:CLK *1085:77 0
21 *974:8 *1072:79 2.61375e-05
22 *974:8 *1074:64 0.000345526
23 *974:19 *3493:B1 1.721e-05
24 *974:19 *3493:B2 0.000125731
25 *974:19 *1074:64 0.000559342
26 *974:49 *1061:199 9.41642e-05
27 *974:49 *1072:79 0.000233626
28 *974:53 *1073:36 8.66324e-05
29 *974:53 *1074:64 0.000185485
30 *974:63 *3628:RESET_B 6.04916e-05
31 *974:63 *1073:30 3.84478e-05
32 *974:63 *1073:36 1.76039e-05
33 *974:63 *1085:52 0.000166085
34 *974:63 *1086:180 4.97567e-06
35 *3421:C *974:49 0.000177821
36 *3477:B1 *3620:CLK 1.98839e-05
37 *3479:A1 *3620:CLK 9.90367e-05
38 *3479:A2 *3620:CLK 9.60875e-05
39 *3480:A3 *3620:CLK 9.90431e-05
40 *3483:B *3620:CLK 6.12434e-05
41 *3485:A1 *3620:CLK 5.17614e-05
42 *3485:A2 *3620:CLK 9.7659e-05
43 *3524:B *974:49 9.41642e-05
44 *3526:A2 *974:49 0.000136951
45 *3534:A3 *974:53 9.39125e-05
46 *3540:A2 *974:63 5.54856e-05
47 *3622:D *3622:CLK 0.000128716
48 *3628:D *974:63 5.52238e-05
49 *124:10 *974:19 0
50 *126:50 *974:8 0.00019021
51 *126:50 *974:19 0.000362538
52 *131:14 *974:53 9.90364e-05
53 *131:14 *974:63 0.00017737
54 *132:10 *3621:CLK 9.1469e-05
55 *132:10 *974:63 3.99674e-05
56 *254:62 *3621:CLK 0.000249834
57 *369:66 *3621:CLK 0.000151071
58 *866:20 *974:63 1.2086e-05
59 *902:21 *974:49 0.000233626
60 *909:14 *3622:CLK 3.14048e-05
61 *909:14 *3623:CLK 7.47221e-05
62 *931:8 *974:8 6.49408e-05
63 *931:16 *974:8 3.10885e-05
64 *967:104 *3621:CLK 0
*RES
1 *3648:X *974:4 9.3 
2 *974:4 *974:8 9.17857 
3 *974:8 *3627:CLK 13.8 
4 *974:8 *974:19 11.9107 
5 *974:19 *3622:CLK 25.1929 
6 *974:19 *3623:CLK 11.4786 
7 *974:4 *974:49 15.2857 
8 *974:49 *974:53 9.17857 
9 *974:53 *974:63 20.3214 
10 *974:63 *3621:CLK 21.0679 
11 *974:63 *3628:CLK 13.8 
12 *974:53 *3620:CLK 20.6393 
13 *974:49 *3655:A 9.3 
*END

*D_NET *975 0.0120347
*CONN
*I *3625:CLK I *D sky130_fd_sc_hd__dfrtp_1
*I *3618:CLK I *D sky130_fd_sc_hd__dfrtp_1
*I *3619:CLK I *D sky130_fd_sc_hd__dfrtp_2
*I *3626:CLK I *D sky130_fd_sc_hd__dfrtp_4
*I *3617:CLK I *D sky130_fd_sc_hd__dfrtp_4
*I *3624:CLK I *D sky130_fd_sc_hd__dfrtp_4
*I *3656:A I *D sky130_fd_sc_hd__inv_6
*I *3649:X O *D sky130_fd_sc_hd__clkbuf_16
*CAP
1 *3625:CLK 7.63559e-05
2 *3618:CLK 0
3 *3619:CLK 0.00140827
4 *3626:CLK 0.000237996
5 *3617:CLK 4.73303e-05
6 *3624:CLK 0.000742667
7 *3656:A 0
8 *3649:X 0
9 *975:62 0.00170665
10 *975:60 0.000445398
11 *975:36 0.000433405
12 *975:21 0.00112199
13 *975:10 0.000639491
14 *975:4 0.000478911
15 *3617:CLK *3617:RESET_B 0.000227539
16 *3619:CLK *1062:67 5.19842e-06
17 *3624:CLK *3500:B1 0
18 *3624:CLK *1062:119 0.000381324
19 *975:10 *3517:A1 0
20 *975:21 *3517:A1 0.000152156
21 *975:36 *3517:A1 1.55485e-05
22 *975:36 *1062:123 3.34657e-05
23 *2923:A1 *975:60 8.47986e-05
24 *2923:A1 *975:62 0.000103384
25 *2923:A2 *975:10 0.000137983
26 *2923:A2 *975:62 3.87133e-05
27 *2924:A2 *3625:CLK 3.14193e-05
28 *2925:A2 *975:10 5.41794e-05
29 *3332:A *975:62 5.54204e-05
30 *3423:D_N *3619:CLK 5.37664e-05
31 *3447:A *3619:CLK 5.33334e-05
32 *3455:A *975:62 2.11419e-05
33 *3464:C1 *3619:CLK 0.000197262
34 *3464:C1 *975:62 0.000231806
35 *3517:B1 *975:10 0
36 *3519:A3 *975:21 5.58941e-05
37 *3619:D *3619:CLK 3.49811e-05
38 *3625:D *3625:CLK 2.59355e-05
39 *3625:D *975:60 0.000161268
40 *3625:D *975:62 5.66157e-05
41 *3626:D *3626:CLK 5.33882e-05
42 *3688:A *3619:CLK 3.23542e-05
43 *3689:A *3619:CLK 3.10885e-05
44 *118:61 *975:10 0.000288791
45 *119:33 *3626:CLK 0
46 *119:33 *975:36 0
47 *121:25 *3626:CLK 0.000105884
48 *121:25 *975:10 0.000203816
49 *121:25 *975:21 5.56962e-05
50 *121:25 *975:36 6.35254e-05
51 *126:18 *3624:CLK 5.03772e-05
52 *126:18 *975:21 4.33438e-05
53 *126:18 *975:36 2.03008e-05
54 *146:61 *3619:CLK 0.000181199
55 *146:61 *975:62 0.00016949
56 *148:49 *975:10 9.60875e-05
57 *148:73 *975:10 0.000517573
58 *245:49 *3626:CLK 0
59 *354:10 *3619:CLK 2.91794e-05
60 *369:104 *3619:CLK 2.54492e-05
61 *369:129 *3619:CLK 0.000227148
62 *851:59 *975:10 0
63 *863:25 *3619:CLK 5.58941e-05
64 *870:12 *3619:CLK 7.15591e-05
65 *870:12 *975:62 3.88819e-05
66 *909:14 *3617:CLK 0.000122101
*RES
1 *3649:X *975:4 9.3 
2 *975:4 *975:10 15.6607 
3 *975:10 *3656:A 13.8 
4 *975:10 *975:21 4.60714 
5 *975:21 *3624:CLK 23.8179 
6 *975:21 *975:36 3.16071 
7 *975:36 *3617:CLK 15.9786 
8 *975:36 *3626:CLK 19.3179 
9 *975:4 *975:60 6.75 
10 *975:60 *975:62 7.71429 
11 *975:62 *3619:CLK 44.3134 
12 *975:62 *3618:CLK 13.8 
13 *975:60 *3625:CLK 15.1571 
*END

*D_NET *976 0.00116832
*CONN
*I *2843:B I *D sky130_fd_sc_hd__and2_1
*I *3740:X O *D sky130_fd_sc_hd__clkbuf_1
*CAP
1 *2843:B 0.00056129
2 *3740:X 0.00056129
3 *2843:B *1086:14 4.57445e-05
*RES
1 *3740:X *2843:B 37.475 
*END

*D_NET *977 0.00135901
*CONN
*I *3750:A I *D sky130_fd_sc_hd__buf_2
*I *2839:X O *D sky130_fd_sc_hd__a22o_1
*CAP
1 *3750:A 0.000345741
2 *2839:X 0.000345741
3 *3750:A *2835:B 2.28335e-05
4 *3750:A *2873:A 0.000126439
5 *3750:A *2874:B 7.02611e-05
6 *3750:A *3751:A 0
7 *3750:A *1077:33 9.22948e-05
8 *3750:A *1077:43 0.000250201
9 *3750:A *1079:59 7.48301e-06
10 *2840:B1 *3750:A 0
11 *293:12 *3750:A 9.80173e-05
*RES
1 *2839:X *3750:A 34.5643 
*END

*D_NET *978 0.000680976
*CONN
*I *3751:A I *D sky130_fd_sc_hd__buf_2
*I *2842:X O *D sky130_fd_sc_hd__a22o_1
*CAP
1 *3751:A 0.000127065
2 *2842:X 0.000127065
3 *3751:A *1077:43 6.2198e-05
4 gpio_out[14] *3751:A 6.64853e-05
5 *2840:B1 *3751:A 0.000123288
6 *3750:A *3751:A 0
7 *116:14 *3751:A 5.33005e-05
8 *293:12 *3751:A 0.000121573
*RES
1 *2842:X *3751:A 31.0286 
*END

*D_NET *979 0.00496175
*CONN
*I *3405:A1 I *D sky130_fd_sc_hd__o21ai_1
*I *3371:A1 I *D sky130_fd_sc_hd__a21oi_2
*I *3368:A1 I *D sky130_fd_sc_hd__a21oi_1
*I *3357:B I *D sky130_fd_sc_hd__nand3_1
*I *3657:Y O *D sky130_fd_sc_hd__a31oi_1
*CAP
1 *3405:A1 0.00031087
2 *3371:A1 0
3 *3368:A1 0.000359446
4 *3357:B 0.000512109
5 *3657:Y 0
6 *979:10 0.00102958
7 *979:8 0.000222201
8 *979:6 0.000375049
9 *3405:A1 *1047:12 0
10 *3346:A2 *3405:A1 3.19998e-05
11 *3347:A *3368:A1 0.000215166
12 *3347:B *979:8 0
13 *3347:B *979:10 0
14 *3356:A1 *3357:B 4.88637e-05
15 *3356:A2 *3357:B 0.000415684
16 *3361:A1 *3357:B 0.000198698
17 *3361:A2 *3357:B 3.90513e-05
18 *3370:A *3368:A1 0
19 *3370:B *3368:A1 0
20 *3377:A *3357:B 0
21 *3377:A *979:10 0
22 *3379:A1 *3405:A1 3.34295e-05
23 *3379:A1 *979:8 0.000102545
24 *3657:B1 *3405:A1 0.000112563
25 *755:14 *979:8 1.50087e-05
26 *755:14 *979:10 6.95205e-05
27 *756:24 *3357:B 0
28 *756:24 *979:10 0
29 *757:29 *3405:A1 9.87672e-05
30 *760:12 *3405:A1 0.000247786
31 *760:14 *3405:A1 0.000148911
32 *760:22 *3405:A1 5.57e-05
33 *760:22 *979:8 5.01213e-05
34 *772:8 *3405:A1 0
35 *772:8 *979:8 0
36 *773:6 *3368:A1 2.15245e-05
37 *780:32 *3357:B 0
38 *780:42 *3357:B 0.000194556
39 *832:16 *3405:A1 5.26091e-05
*RES
1 *3657:Y *979:6 13.8 
2 *979:6 *979:8 1.94643 
3 *979:8 *979:10 3.16071 
4 *979:10 *3357:B 25.8357 
5 *979:10 *3368:A1 19.0679 
6 *979:8 *3371:A1 13.8 
7 *979:6 *3405:A1 21.3 
*END

*D_NET *980 0.00110429
*CONN
*I *3752:A I *D sky130_fd_sc_hd__buf_2
*I *3639:X O *D sky130_fd_sc_hd__clkbuf_1
*CAP
1 *3752:A 0.00024365
2 *3639:X 0.00024365
3 gpio_oeb[14] *3752:A 3.30448e-05
4 gpio_oeb[1] *3752:A 0.000239011
5 *2785:A *3752:A 0.000344932
6 *3600:CLK *3752:A 0
*RES
1 *3639:X *3752:A 34.7384 
*END

*D_NET *981 0.00481111
*CONN
*I *3122:A I *D sky130_fd_sc_hd__nand3_4
*I *3667:A I *D sky130_fd_sc_hd__nand3_1
*I *3763:X O *D sky130_fd_sc_hd__clkbuf_2
*CAP
1 *3122:A 0
2 *3667:A 0.000754427
3 *3763:X 0.000217956
4 *981:14 0.000972382
5 *3667:A *3126:B 0.000513983
6 *3667:A *986:6 1.33343e-05
7 *3100:A1 *3667:A 8.37642e-05
8 *3100:C1 *3667:A 0
9 *3107:B *3667:A 0.000146474
10 *3118:A_N *3667:A 5.52302e-05
11 *3118:B *3667:A 3.50985e-05
12 *3119:B *3667:A 0.000255972
13 *3119:C_N *3667:A 1.76039e-05
14 *3120:A2 *3667:A 0
15 *3128:B1 *3667:A 0
16 *3155:A *981:14 0.000202835
17 *3164:A *3667:A 0.000200413
18 *3667:B *3667:A 0.000157256
19 *3763:A *981:14 0.000206051
20 *506:30 *3667:A 0
21 *511:8 *3667:A 0.000141375
22 *514:34 *3667:A 0.000104236
23 *514:34 *981:14 0
24 *514:40 *3667:A 8.52283e-05
25 *532:36 *3667:A 0.000222878
26 *534:10 *3667:A 0
27 *547:27 *981:14 5.52302e-05
28 *547:43 *3667:A 0
29 *577:17 *981:14 8.66228e-05
30 *583:8 *3667:A 0.000139913
31 *583:8 *981:14 0.00014285
32 *593:20 *3667:A 0
*RES
1 *3763:X *981:14 24.8714 
2 *981:14 *3667:A 38.5679 
3 *981:14 *3122:A 9.3 
*END

*D_NET *982 0.00415951
*CONN
*I *3202:C I *D sky130_fd_sc_hd__and3_1
*I *3211:B1 I *D sky130_fd_sc_hd__o21a_1
*I *3217:C1 I *D sky130_fd_sc_hd__o211a_1
*I *3216:B1 I *D sky130_fd_sc_hd__o21ai_2
*I *3214:A2 I *D sky130_fd_sc_hd__a21o_1
*I *3666:X O *D sky130_fd_sc_hd__clkbuf_1
*CAP
1 *3202:C 7.86523e-05
2 *3211:B1 0.000310092
3 *3217:C1 0.000141973
4 *3216:B1 0.000230643
5 *3214:A2 0.00015031
6 *3666:X 6.80718e-05
7 *982:47 0.000440744
8 *982:14 0.000562274
9 *982:12 0.000404247
10 *982:10 0.000201025
11 *3202:C *1052:29 0
12 *3211:B1 *983:12 1.72894e-05
13 *3211:B1 *1052:29 0
14 *3217:C1 *983:23 7.30699e-05
15 *982:12 *983:12 6.73939e-05
16 *982:12 *1052:29 0
17 *982:14 *983:12 5.58941e-05
18 *3145:A *3216:B1 4.43256e-05
19 *3146:D_N *982:12 3.90513e-05
20 *3146:D_N *982:14 8.6642e-05
21 *3148:A *982:12 9.91086e-05
22 *3148:A *982:14 5.58941e-05
23 *3203:A1 *3202:C 9.50968e-06
24 *3212:A *3202:C 1.95435e-05
25 *3212:B *3211:B1 0.000162208
26 *3214:A1 *3214:A2 0.000132473
27 *3222:A1 *3211:B1 2.89016e-05
28 *3222:B1 *3211:B1 7.77751e-05
29 *3222:B1 *982:12 0
30 *3224:B *3211:B1 0
31 *119:61 *3214:A2 0
32 *119:61 *982:14 0
33 *119:72 *982:14 0
34 *566:14 *3217:C1 2.95726e-05
35 *569:6 *3216:B1 0.000190858
36 *570:10 *982:10 2.70899e-05
37 *570:10 *982:12 4.03916e-05
38 *572:10 *982:14 0
39 *576:8 *982:10 2.89016e-05
40 *579:16 *3202:C 0.000105696
41 *579:16 *982:10 9.25014e-06
42 *628:12 *3202:C 4.25523e-05
43 *638:25 *3211:B1 0
44 *648:8 *3211:B1 0.000128084
*RES
1 *3666:X *982:10 15.2196 
2 *982:10 *982:12 2.70536 
3 *982:12 *982:14 3.76786 
4 *982:14 *3214:A2 16.6929 
5 *982:14 *3216:B1 18.0321 
6 *982:12 *3217:C1 15.8893 
7 *982:10 *982:47 0.946429 
8 *982:47 *3211:B1 20.7018 
9 *982:47 *3202:C 16.0946 
*END

*D_NET *983 0.00246521
*CONN
*I *3218:A I *D sky130_fd_sc_hd__xnor2_2
*I *3145:B I *D sky130_fd_sc_hd__nand2_1
*I *3217:B1 I *D sky130_fd_sc_hd__o211a_1
*I *3767:X O *D sky130_fd_sc_hd__dlygate4sd1_1
*CAP
1 *3218:A 0
2 *3145:B 0.000132188
3 *3217:B1 0
4 *3767:X 0.000185388
5 *983:23 0.000441519
6 *983:12 0.000494719
7 *3145:B *1052:29 0
8 *3146:D_N *983:12 0.000127439
9 *3148:A *983:12 9.41642e-05
10 *3210:A *983:23 5.52302e-05
11 *3210:B *983:23 2.89114e-05
12 *3211:A2 *983:23 0.00030824
13 *3211:B1 *983:12 1.72894e-05
14 *3217:A2 *983:23 1.04232e-05
15 *3217:C1 *983:23 7.30699e-05
16 *3223:A2 *3145:B 0
17 *119:74 *983:23 0.000140933
18 *566:14 *983:23 2.89016e-05
19 *566:23 *983:23 4.29414e-05
20 *571:10 *3145:B 0.000154762
21 *647:12 *3145:B 5.80706e-06
22 *982:12 *983:12 6.73939e-05
23 *982:14 *983:12 5.58941e-05
*RES
1 *3767:X *983:12 21.7107 
2 *983:12 *3217:B1 9.3 
3 *983:12 *983:23 6.73214 
4 *983:23 *3145:B 21.1571 
5 *983:23 *3218:A 9.3 
*END

*D_NET *984 0.0060239
*CONN
*I *2962:A I *D sky130_fd_sc_hd__xor2_1
*I *3004:A I *D sky130_fd_sc_hd__or3b_1
*I *3768:X O *D sky130_fd_sc_hd__dlygate4sd1_1
*CAP
1 *2962:A 0.000125461
2 *3004:A 0
3 *3768:X 0.00133323
4 *984:10 0.00145869
5 *2962:A *3008:A 0.000174805
6 *984:10 *3008:A 4.73656e-05
7 *984:10 *3551:A2 0
8 *984:10 *3551:B1 0
9 *984:10 *3568:RESET_B 0
10 *984:10 *3630:RESET_B 0
11 *984:10 *985:20 0
12 *984:10 *1004:10 0
13 *984:10 *1068:10 0.000568552
14 *984:10 *1068:53 0.000848915
15 *2793:A2 *984:10 0
16 *2798:A1_N *984:10 0.000100625
17 *2934:B1_N *984:10 4.50033e-05
18 *2962:B *2962:A 1.33343e-05
19 *3002:A *2962:A 8.47107e-05
20 *3002:A *984:10 7.8327e-05
21 *3005:A1 *984:10 0
22 *3568:CLK *984:10 5.72433e-05
23 *3766:A *984:10 0.000184018
24 *1:21 *984:10 0.000271352
25 *134:10 *984:10 0.000285455
26 *134:19 *984:10 6.65302e-05
27 *254:29 *984:10 0
28 *263:6 *984:10 2.95726e-05
29 *352:35 *984:10 0
30 *363:25 *984:10 0
31 *366:10 *984:10 0.000111339
32 *386:8 *984:10 5.48488e-05
33 *386:17 *984:10 7.76647e-05
34 *971:10 *984:10 6.8646e-06
*RES
1 *3768:X *984:10 47.4786 
2 *984:10 *3004:A 13.8 
3 *984:10 *2962:A 17.0143 
*END

*D_NET *985 0.00422064
*CONN
*I *3021:A I *D sky130_fd_sc_hd__xnor2_2
*I *3769:X O *D sky130_fd_sc_hd__dlygate4sd1_1
*CAP
1 *3021:A 0
2 *3769:X 0.0011925
3 *985:20 0.0011925
4 *985:20 *2961:A_N 0.000216609
5 *985:20 *3008:A 0
6 *985:20 *1004:10 2.49484e-05
7 *2935:A1 *985:20 0.00012401
8 *2935:B1 *985:20 0.000224665
9 *2962:B *985:20 0
10 *2965:A2 *985:20 0.000123295
11 *3005:A1 *985:20 0.000103842
12 *3005:B1 *985:20 0.000339352
13 *3005:B2 *985:20 2.7814e-05
14 *3010:B1 *985:20 4.46186e-06
15 *3021:B *985:20 5.52238e-05
16 *135:24 *985:20 2.85406e-05
17 *135:48 *985:20 0.000135911
18 *136:94 *985:20 0
19 *363:25 *985:20 0.000158426
20 *385:18 *985:20 0.000268536
21 *386:17 *985:20 0
22 *388:10 *985:20 0
23 *388:21 *985:20 0
24 *431:10 *985:20 0
25 *984:10 *985:20 0
*RES
1 *3769:X *985:20 44.8893 
2 *985:20 *3021:A 9.3 
*END

*D_NET *986 0.00479761
*CONN
*I *3126:B I *D sky130_fd_sc_hd__nand2_1
*I *3166:A I *D sky130_fd_sc_hd__nand2_1
*I *3186:A2 I *D sky130_fd_sc_hd__a31o_1
*I *3172:C I *D sky130_fd_sc_hd__and4_1
*I *3667:Y O *D sky130_fd_sc_hd__nand3_1
*CAP
1 *3126:B 0.000610882
2 *3166:A 4.93071e-05
3 *3186:A2 6.14898e-05
4 *3172:C 0.000259554
5 *3667:Y 0
6 *986:8 0.000424196
7 *986:6 0.000717725
8 *986:4 0.00117615
9 *3094:B *3186:A2 0
10 *3127:A1 *3126:B 3.23658e-05
11 *3129:B *3126:B 9.25014e-06
12 *3167:B *3166:A 5.52238e-05
13 *3167:B *986:6 5.04705e-05
14 *3667:A *3126:B 0.000513983
15 *3667:A *986:6 1.33343e-05
16 *3667:B *986:6 1.74352e-05
17 *3667:C *986:6 5.52238e-05
18 *519:27 *3172:C 8.00806e-05
19 *519:37 *3186:A2 5.31122e-05
20 *534:10 *3126:B 3.69697e-05
21 *539:34 *3172:C 0.000109918
22 *539:34 *986:6 0.000156652
23 *539:34 *986:8 3.89017e-05
24 *541:10 *3126:B 0
25 *541:14 *3126:B 0
26 *542:24 *3126:B 2.06178e-05
27 *554:10 *3126:B 0.000145618
28 *589:27 *3186:A2 3.25078e-05
29 *593:20 *3126:B 7.6644e-05
*RES
1 *3667:Y *986:4 9.3 
2 *986:4 *986:6 7.51786 
3 *986:6 *986:8 1.35714 
4 *986:8 *3172:C 22.4607 
5 *986:8 *3186:A2 19.9429 
6 *986:6 *3166:A 10.5679 
7 *986:4 *3126:B 27.7286 
*END

*D_NET *987 0.0010372
*CONN
*I *3003:A I *D sky130_fd_sc_hd__inv_2
*I *3770:X O *D sky130_fd_sc_hd__dlygate4sd1_1
*CAP
1 *3003:A 0.000351287
2 *3770:X 0.000351287
3 *3028:B *3003:A 0
4 *3059:B *3003:A 1.02504e-05
5 *441:14 *3003:A 5.62995e-05
6 *485:8 *3003:A 7.83587e-05
7 *495:8 *3003:A 1.58163e-05
8 *498:14 *3003:A 8.31501e-05
9 *498:22 *3003:A 5.52238e-05
10 *535:14 *3003:A 3.55279e-05
*RES
1 *3770:X *3003:A 33.1893 
*END

*D_NET *988 0.000796912
*CONN
*I *3088:A I *D sky130_fd_sc_hd__xor2_2
*I *3771:X O *D sky130_fd_sc_hd__dlygate4sd1_1
*CAP
1 *3088:A 0.000304923
2 *3771:X 0.000304923
3 *3088:A *1056:82 0
4 *3088:B *3088:A 1.02504e-05
5 *499:40 *3088:A 6.16744e-05
6 *535:16 *3088:A 0.000115141
*RES
1 *3771:X *3088:A 32.2429 
*END

*D_NET *989 0.0038758
*CONN
*I *3043:B I *D sky130_fd_sc_hd__and3_1
*I *3759:X O *D sky130_fd_sc_hd__dlygate4sd1_1
*CAP
1 *3043:B 0.00141206
2 *3759:X 0.00141206
3 *3043:B *1058:21 5.33005e-05
4 *3043:B *1058:50 4.38265e-05
5 *3024:A1_N *3043:B 0.000187019
6 *3042:B1 *3043:B 0
7 *3043:C *3043:B 0.000162665
8 *3045:A *3043:B 2.89114e-05
9 *3046:B *3043:B 0
10 *122:108 *3043:B 0
11 *403:8 *3043:B 9.25014e-06
12 *403:32 *3043:B 0.000243635
13 *410:21 *3043:B 0.000210284
14 *417:21 *3043:B 0
15 *419:8 *3043:B 5.33005e-05
16 *452:10 *3043:B 5.9483e-05
*RES
1 *3759:X *3043:B 46.5225 
*END

*D_NET *990 0.0120401
*CONN
*I *3293:B1 I *D sky130_fd_sc_hd__o21a_1
*I *3326:B I *D sky130_fd_sc_hd__nand2_2
*I *3329:A2 I *D sky130_fd_sc_hd__o22ai_4
*I *3335:A2 I *D sky130_fd_sc_hd__a21oi_1
*I *3338:A2 I *D sky130_fd_sc_hd__a21oi_1
*I *3658:X O *D sky130_fd_sc_hd__clkbuf_1
*CAP
1 *3293:B1 0
2 *3326:B 0
3 *3329:A2 0.000127918
4 *3335:A2 8.61686e-05
5 *3338:A2 0.000650398
6 *3658:X 4.91556e-05
7 *990:78 0.00128484
8 *990:14 0.00082709
9 *990:12 0.000337271
10 *990:10 0.000248321
11 *990:6 0.00146348
12 *3338:A2 *1049:34 0.000127804
13 *3338:A2 *1049:36 7.70319e-05
14 *990:78 *1048:27 5.41794e-05
15 *990:78 *1049:14 0.000191485
16 *990:78 *1049:18 9.96147e-05
17 *990:78 *1049:20 0.000199549
18 *990:78 *1049:34 0.000446544
19 *3255:A *3338:A2 2.4905e-05
20 *3292:A1 *990:78 0
21 *3295:A *990:78 0.000265363
22 *3316:B *990:78 6.57914e-05
23 *3318:A2 *990:78 2.09897e-05
24 *3318:B1 *990:78 0.000172375
25 *3320:C *990:78 0
26 *3322:A1 *990:78 7.83659e-05
27 *3328:B *3338:A2 0
28 *3328:B *990:14 0
29 *3329:A1 *3329:A2 7.91024e-05
30 *3329:B1 *990:12 3.22738e-05
31 *3329:B1 *990:14 5.80706e-06
32 *3331:A *990:78 1.0945e-05
33 *3333:A *3338:A2 0
34 *684:10 *990:12 0.000344917
35 *684:23 *990:10 0.000429405
36 *684:23 *990:12 1.02504e-05
37 *716:12 *990:78 0
38 *716:21 *990:78 9.60939e-05
39 *720:16 *990:78 5.59013e-05
40 *732:6 *990:6 1.58163e-05
41 *732:6 *990:78 0.000163804
42 *739:8 *990:78 0.000316916
43 *742:10 *990:78 0.000206341
44 *742:12 *990:78 0.000389154
45 *745:10 *990:78 1.17968e-05
46 *747:12 *990:78 0.000131977
47 *757:14 *3338:A2 0.000194896
48 *757:14 *990:10 0.000237789
49 *757:14 *990:12 0.00014534
50 *819:14 *3338:A2 0.000348146
51 *819:14 *990:12 0.000150632
52 *819:14 *990:14 0.000201127
53 *826:32 *3338:A2 2.13687e-05
54 *828:12 *3338:A2 0.000551487
55 *832:16 *3338:A2 0.000990176
*RES
1 *3658:X *990:6 9.83571 
2 *990:6 *990:10 10.0893 
3 *990:10 *990:12 5.28571 
4 *990:12 *990:14 2.55357 
5 *990:14 *3338:A2 32.1447 
6 *990:14 *3335:A2 15.1571 
7 *990:12 *3329:A2 15.9964 
8 *990:10 *3326:B 13.8 
9 *990:6 *990:78 49.4107 
10 *990:78 *3293:B1 9.3 
*END

*D_NET *991 0.00014024
*CONN
*I *3753:A I *D sky130_fd_sc_hd__buf_2
*I *3640:X O *D sky130_fd_sc_hd__clkbuf_1
*CAP
1 *3753:A 7.01202e-05
2 *3640:X 7.01202e-05
*RES
1 *3640:X *3753:A 19.8679 
*END

*D_NET *992 0.00820522
*CONN
*I *3236:A I *D sky130_fd_sc_hd__nand2_1
*I *3246:A2 I *D sky130_fd_sc_hd__a32o_1
*I *3248:A1 I *D sky130_fd_sc_hd__a21oi_1
*I *3259:B1 I *D sky130_fd_sc_hd__a22o_1
*I *3250:A1 I *D sky130_fd_sc_hd__a21oi_1
*I *3659:X O *D sky130_fd_sc_hd__clkbuf_1
*CAP
1 *3236:A 0.000898398
2 *3246:A2 0.000257564
3 *3248:A1 0
4 *3259:B1 9.33484e-05
5 *3250:A1 3.65713e-05
6 *3659:X 0
7 *992:18 0.000506251
8 *992:16 0.000797556
9 *992:10 0.00112495
10 *992:4 0.00134455
11 *3236:A *1051:30 0.00107927
12 *3246:A2 *1050:39 0
13 *3246:A2 *1051:68 7.95888e-05
14 *3259:B1 *3259:B2 3.92757e-05
15 *3259:B1 *1050:39 0
16 *992:10 *1051:57 0
17 *992:10 *1051:68 0
18 *992:16 *1051:68 0
19 *992:16 *1051:83 0
20 *3245:B *992:16 5.7836e-06
21 *3246:B1 *3246:A2 1.19309e-05
22 *3246:B2 *3246:A2 0.000234668
23 *3248:B1 *992:16 2.28598e-05
24 *3257:A *3259:B1 0
25 *3277:B *3236:A 0
26 *3286:A2 *992:10 0
27 *3286:B1 *992:10 0
28 *3287:A2 *3236:A 9.60875e-05
29 *3287:B1 *3236:A 2.31704e-05
30 *3288:B *3236:A 0
31 *3299:A *3236:A 1.92905e-05
32 *3394:A2 *992:16 0
33 *3395:B *992:16 4.48206e-05
34 *3659:A *992:10 0
35 *118:102 *3250:A1 5.71472e-05
36 *118:102 *992:18 0.000173328
37 *118:113 *992:16 4.27935e-05
38 *118:113 *992:18 0.000400867
39 *659:16 *3236:A 0
40 *662:16 *3236:A 6.95299e-05
41 *691:8 *3236:A 0
42 *701:20 *3236:A 0
43 *705:8 *3236:A 0.000247686
44 *705:12 *992:10 0
45 *705:12 *992:16 0
46 *710:10 *3236:A 9.69119e-06
47 *710:31 *3236:A 3.08907e-05
48 *712:6 *3236:A 6.09804e-05
49 *712:6 *992:10 5.76121e-05
50 *712:23 *3236:A 0.000168224
51 *821:12 *992:16 0.000170532
*RES
1 *3659:X *992:4 9.3 
2 *992:4 *992:10 11.7679 
3 *992:10 *992:16 12.8571 
4 *992:16 *992:18 5.46429 
5 *992:18 *3250:A1 9.83571 
6 *992:18 *3259:B1 19.6393 
7 *992:16 *3248:A1 9.3 
8 *992:10 *3246:A2 26.8357 
9 *992:4 *3236:A 40.0857 
*END

*D_NET *993 0.0010596
*CONN
*I *3266:A1 I *D sky130_fd_sc_hd__a211o_1
*I *3760:X O *D sky130_fd_sc_hd__dlygate4sd1_1
*CAP
1 *3266:A1 0.000286867
2 *3760:X 0.000286867
3 *3265:A2 *3266:A1 0.000127446
4 *3266:B1 *3266:A1 0.000125731
5 *3281:A *3266:A1 0.000102197
6 *633:12 *3266:A1 7.80837e-05
7 *661:14 *3266:A1 1.02504e-05
8 *690:23 *3266:A1 4.21613e-05
*RES
1 *3760:X *3266:A1 32.6536 
*END

*D_NET *994 0.00417785
*CONN
*I *3049:D I *D sky130_fd_sc_hd__and4bb_1
*I *3032:A1_N I *D sky130_fd_sc_hd__o2bb2a_1
*I *3761:X O *D sky130_fd_sc_hd__dlygate4sd1_1
*CAP
1 *3049:D 0.000546664
2 *3032:A1_N 0.00014058
3 *3761:X 0.000444353
4 *994:10 0.0011316
5 *3032:A1_N *996:53 0.000203435
6 *3049:D *3086:A1_N 0.000261707
7 *3049:D *1056:82 0
8 *994:10 *3086:A1_N 0.000388146
9 *994:10 *3101:A2 6.05161e-06
10 *994:10 *1056:84 0
11 *3040:A1 *3032:A1_N 4.06312e-05
12 *3048:A *3032:A1_N 0.00014285
13 *3049:A_N *3049:D 9.22103e-06
14 *3049:B_N *3049:D 0.000268396
15 *3079:B1_N *3032:A1_N 9.60875e-05
16 *3080:A *3049:D 3.97677e-05
17 *3080:B *3049:D 0.000129868
18 *3084:B *3049:D 0.000139907
19 *458:19 *3032:A1_N 9.31893e-05
20 *460:36 *3049:D 3.14078e-05
21 *472:8 *994:10 6.39901e-05
*RES
1 *3761:X *994:10 22.0679 
2 *994:10 *3032:A1_N 18.5902 
3 *994:10 *3049:D 23.1393 
*END

*D_NET *995 0.00626854
*CONN
*I *3014:A I *D sky130_fd_sc_hd__and2_1
*I *3031:A1 I *D sky130_fd_sc_hd__a211o_1
*I *3035:B1 I *D sky130_fd_sc_hd__a22oi_2
*I *3015:A I *D sky130_fd_sc_hd__nand2_1
*I *3027:A1 I *D sky130_fd_sc_hd__a21o_1
*I *3660:X O *D sky130_fd_sc_hd__clkbuf_1
*CAP
1 *3014:A 0.000559299
2 *3031:A1 0.000246747
3 *3035:B1 0
4 *3015:A 1.79444e-05
5 *3027:A1 6.57119e-05
6 *3660:X 0
7 *995:38 0.00037129
8 *995:32 0.000926739
9 *995:12 0.000358402
10 *995:4 0.000517643
11 *3014:A *1057:51 5.7661e-06
12 *3014:A *1057:60 4.88546e-05
13 *3014:A *1057:72 0.00040765
14 *3015:A *3015:B 1.61893e-05
15 *3027:A1 *3015:B 2.89114e-05
16 *3031:A1 *3031:A2 0.000553544
17 *3031:A1 *1057:81 5.33005e-05
18 *3031:A1 *1057:94 4.08637e-05
19 *995:12 *3015:B 5.62995e-05
20 *995:38 *3016:A 4.46186e-06
21 *995:38 *1057:72 0
22 *995:38 *1057:81 9.41642e-05
23 *3023:A *995:12 6.01685e-05
24 *3023:B *995:12 9.60875e-05
25 *3024:A2_N *995:12 0.000126669
26 *3032:A2_N *995:32 0.00020112
27 *3032:A2_N *995:38 0.000148903
28 *3032:B1 *995:32 0.000184745
29 *3036:B *995:32 4.90803e-05
30 *3036:B *995:38 7.83587e-05
31 *3040:D1 *995:12 0.000142856
32 *3040:D1 *995:32 7.48301e-06
33 *3043:C *3031:A1 0
34 *3660:A *995:12 0.000285276
35 *400:12 *3031:A1 1.02504e-05
36 *407:10 *3031:A1 0.000503757
37 *412:34 *995:32 0
38 *412:34 *995:38 0
*RES
1 *3660:X *995:4 9.3 
2 *995:4 *995:12 8.17857 
3 *995:12 *3027:A1 10.2464 
4 *995:12 *3015:A 9.72857 
5 *995:4 *995:32 9.23214 
6 *995:32 *995:38 7.39286 
7 *995:38 *3035:B1 9.3 
8 *995:38 *3031:A1 26.3536 
9 *995:32 *3014:A 21.2286 
*END

*D_NET *996 0.00808894
*CONN
*I *3101:A1 I *D sky130_fd_sc_hd__a21o_1
*I *3079:A1 I *D sky130_fd_sc_hd__a21boi_1
*I *3090:A1_N I *D sky130_fd_sc_hd__o2bb2a_1
*I *3074:A1 I *D sky130_fd_sc_hd__a21oi_2
*I *3110:A1_N I *D sky130_fd_sc_hd__o2bb2a_1
*I *3661:X O *D sky130_fd_sc_hd__clkbuf_1
*CAP
1 *3101:A1 0.000419184
2 *3079:A1 0
3 *3090:A1_N 0
4 *3074:A1 0.000115743
5 *3110:A1_N 9.1168e-06
6 *3661:X 0
7 *996:53 0.00146597
8 *996:16 0.000266314
9 *996:14 0.00107637
10 *996:4 0.0019817
11 *3074:A1 *3075:A2 1.99099e-05
12 *3074:A1 *1056:120 9.57711e-05
13 *3101:A1 *3101:A2 2.34204e-05
14 *3101:A1 *1056:84 0.000138081
15 *3110:A1_N *1055:23 5.85759e-05
16 *996:14 *3073:A 0
17 *996:14 *1055:23 1.33251e-06
18 *996:14 *1056:50 5.10822e-05
19 *996:16 *1055:23 0.000513664
20 *3032:A1_N *996:53 0.000203435
21 *3032:A2_N *996:53 5.71472e-05
22 *3032:B1 *996:53 0
23 *3040:A1 *996:53 2.51654e-05
24 *3041:A2 *996:14 0.000126639
25 *3048:A *996:53 0.00014285
26 *3050:A_N *996:14 4.58194e-05
27 *3050:B *996:14 0.000186662
28 *3050:B *996:53 5.52302e-05
29 *3078:B1 *3074:A1 7.00299e-05
30 *3084:B *996:53 9.64979e-05
31 *3089:A *996:14 0
32 *3095:B *996:53 7.49387e-06
33 *3097:A1_N *996:53 9.60875e-05
34 *3104:A *3101:A1 0
35 *3104:B *3101:A1 0
36 *3110:B1 *3110:A1_N 5.66525e-05
37 *3110:B1 *996:16 0.000183726
38 *447:29 *996:16 1.74352e-05
39 *450:27 *996:14 7.33786e-06
40 *450:36 *996:14 0
41 *454:10 *996:14 0
42 *454:19 *996:14 0
43 *454:38 *996:14 0
44 *460:36 *996:53 0
45 *462:10 *996:53 0
46 *462:34 *996:53 0
47 *466:10 *996:14 0
48 *470:25 *3101:A1 4.79842e-05
49 *473:33 *996:53 0
50 *475:12 *996:53 0.000115634
51 *498:22 *996:53 0.000171368
52 *507:10 *996:53 9.91086e-05
53 *516:12 *996:14 4.08587e-06
54 *516:12 *996:16 3.63188e-05
*RES
1 *3661:X *996:4 9.3 
2 *996:4 *996:14 23.0312 
3 *996:14 *996:16 5.04018 
4 *996:16 *3110:A1_N 9.84911 
5 *996:16 *3074:A1 21.1571 
6 *996:14 *3090:A1_N 9.3 
7 *996:4 *996:53 25.9464 
8 *996:53 *3079:A1 9.3 
9 *996:53 *3101:A1 25.9607 
*END

*D_NET *997 0.00692091
*CONN
*I *3488:A3 I *D sky130_fd_sc_hd__a31o_1
*I *3513:D I *D sky130_fd_sc_hd__nand4_1
*I *3512:A3 I *D sky130_fd_sc_hd__a31o_1
*I *3507:A2 I *D sky130_fd_sc_hd__a21o_1
*I *3536:A2 I *D sky130_fd_sc_hd__a31o_1
*I *3662:X O *D sky130_fd_sc_hd__clkbuf_1
*CAP
1 *3488:A3 0
2 *3513:D 3.88967e-05
3 *3512:A3 0
4 *3507:A2 0.000152737
5 *3536:A2 0
6 *3662:X 0
7 *997:63 0.000528715
8 *997:51 0.000561767
9 *997:43 0.000464364
10 *997:30 0.000892328
11 *997:6 0.0012098
12 *3513:D *3487:A2 9.54798e-06
13 *997:30 *1112:DIODE 5.33005e-05
14 *997:30 *3453:A3 9.71197e-05
15 *997:30 *3523:A 4.51641e-05
16 *997:30 *1042:20 4.33438e-05
17 *997:30 *1042:22 1.36251e-05
18 *997:30 *1059:107 6.30292e-05
19 *997:43 *3492:B1 0
20 *997:43 *1059:107 6.01673e-05
21 *3387:A *997:30 0
22 *3453:A1 *997:30 1.56e-05
23 *3487:A1 *3513:D 9.95912e-06
24 *3487:A1 *997:43 1.04832e-05
25 *3487:A1 *997:51 0.000208252
26 *3488:A2 *997:43 4.23539e-05
27 *3492:A1 *997:51 0.000123137
28 *3492:A1 *997:63 8.6229e-06
29 *3492:A2 *997:51 6.05161e-06
30 *3500:A3 *997:51 1.98839e-05
31 *3502:B2 *997:43 0
32 *3507:A1 *3507:A2 2.89016e-05
33 *3507:B1 *3507:A2 0.000148196
34 *3508:B *997:30 0.000148196
35 *3508:B *997:43 4.45694e-05
36 *3512:A2 *3507:A2 2.48938e-05
37 *3512:A2 *997:63 3.51442e-05
38 *3512:B1 *997:63 2.14658e-05
39 *3513:B *3513:D 1.26641e-05
40 *3513:B *997:63 9.02385e-06
41 *3519:A3 *997:63 0.000271352
42 *3527:B1 *997:30 6.27272e-06
43 *3528:B *997:30 6.05161e-06
44 *3534:A1 *997:30 0.000173097
45 *3536:A3 *997:30 7.48091e-05
46 *3537:B *997:30 0
47 *118:85 *997:63 1.30748e-05
48 *127:28 *3507:A2 4.01768e-05
49 *245:10 *3507:A2 0
50 *245:10 *997:63 0
51 *369:169 *997:30 0
52 *369:179 *997:30 0.000180602
53 *369:183 *997:30 1.40849e-05
54 *758:16 *997:30 0.000358971
55 *791:14 *997:30 2.95726e-05
56 *792:18 *997:30 1.33343e-05
57 *808:36 *997:43 0.000137983
58 *814:14 *997:30 0.000148196
59 *814:14 *997:43 1.02504e-05
60 *814:35 *997:43 6.61033e-05
61 *814:35 *997:63 1.77294e-05
62 *879:22 *997:51 0
63 *879:22 *997:63 0
64 *917:32 *997:43 1.26634e-05
65 *917:32 *997:63 8.6229e-06
66 *939:10 *997:30 0
67 *939:16 *997:30 0.000186662
*RES
1 *3662:X *997:6 13.8 
2 *997:6 *997:30 41.5893 
3 *997:30 *3536:A2 9.3 
4 *997:6 *997:43 9.96429 
5 *997:43 *997:51 8.08036 
6 *997:51 *997:63 14.5625 
7 *997:63 *3507:A2 16.9964 
8 *997:63 *3512:A3 13.8 
9 *997:51 *3513:D 14.3804 
10 *997:43 *3488:A3 9.3 
*END

*D_NET *998 0.0042868
*CONN
*I *3411:C I *D sky130_fd_sc_hd__and4_1
*I *3542:B1 I *D sky130_fd_sc_hd__a21oi_1
*I *3543:B I *D sky130_fd_sc_hd__and3_1
*I *3545:A1 I *D sky130_fd_sc_hd__a21bo_1
*I *3546:B I *D sky130_fd_sc_hd__and4_1
*I *3663:X O *D sky130_fd_sc_hd__clkbuf_1
*CAP
1 *3411:C 0.000237122
2 *3542:B1 2.26944e-05
3 *3543:B 0.000119419
4 *3545:A1 0.00018284
5 *3546:B 3.04135e-05
6 *3663:X 0.000369649
7 *998:31 0.000351938
8 *998:20 0.000112433
9 *998:18 0.00013651
10 *998:14 0.000688247
11 *998:14 *1061:170 2.47833e-05
12 *998:14 *1071:30 9.23805e-05
13 *3411:D *3411:C 0.000356028
14 *3544:A *3545:A1 0
15 *3546:A *998:20 5.71472e-05
16 *3546:D *3542:B1 0.000175251
17 *3546:D *3546:B 5.33005e-05
18 *3546:D *998:20 0.000130419
19 *3547:B1 *3543:B 0.000186669
20 *3663:A *3545:A1 0.000312029
21 *3663:A *998:14 2.77235e-05
22 *3663:A *998:18 0
23 *3663:A *998:31 6.70402e-05
24 *132:38 *3542:B1 4.38128e-05
25 *132:40 *3542:B1 0.000142856
26 *132:40 *998:20 4.18895e-05
27 *132:62 *998:14 0.000223732
28 *132:62 *998:18 0.000100474
29 *942:33 *998:31 0
*RES
1 *3663:X *998:14 19.8893 
2 *998:14 *998:18 6.14286 
3 *998:18 *998:20 1.35714 
4 *998:20 *3546:B 9.83571 
5 *998:20 *998:31 5.53571 
6 *998:31 *3545:A1 17.8714 
7 *998:31 *3543:B 15.5679 
8 *998:18 *3542:B1 11.0679 
9 *998:14 *3411:C 17.2107 
*END

*D_NET *999 0.000987544
*CONN
*I *3100:A2 I *D sky130_fd_sc_hd__o221a_1
*I *3762:X O *D sky130_fd_sc_hd__dlymetal6s4s_1
*CAP
1 *3100:A2 0.000348019
2 *3762:X 0.000348019
3 *3100:A1 *3100:A2 6.42338e-05
4 *3120:A2 *3100:A2 3.6572e-05
5 *3134:A1 *3100:A2 5.52238e-05
6 *3762:A *3100:A2 7.02611e-05
7 *548:55 *3100:A2 4.46186e-06
8 *563:6 *3100:A2 6.07526e-05
*RES
1 *3762:X *3100:A2 32.6536 
*END

*D_NET *1000 0.000853188
*CONN
*I *3765:A I *D sky130_fd_sc_hd__dlymetal6s2s_1
*I *2989:A I *D sky130_fd_sc_hd__and4_1
*I *3764:X O *D sky130_fd_sc_hd__dlymetal6s2s_1
*CAP
1 *3765:A 0
2 *2989:A 7.39161e-05
3 *3764:X 0.000173185
4 *1000:14 0.000247101
5 *2989:A *1058:44 7.50473e-05
6 *1000:14 *3016:A 5.52238e-05
7 *1000:14 *1058:44 1.74352e-05
8 *2988:B *1000:14 5.71472e-05
9 *3032:A2_N *1000:14 9.89015e-05
10 *408:10 *1000:14 5.52302e-05
11 *412:21 *1000:14 0
*RES
1 *3764:X *1000:14 22.3357 
2 *1000:14 *2989:A 11.0679 
3 *1000:14 *3765:A 9.3 
*END

*D_NET *1001 0.000550084
*CONN
*I *3016:A I *D sky130_fd_sc_hd__nand2_1
*I *3765:X O *D sky130_fd_sc_hd__dlymetal6s2s_1
*CAP
1 *3016:A 0.000162121
2 *3765:X 0.000162121
3 *3016:A *1057:72 5.52238e-05
4 *3016:A *1058:44 5.33433e-05
5 *2993:A *3016:A 0
6 *3032:A2_N *3016:A 5.75896e-05
7 *995:38 *3016:A 4.46186e-06
8 *1000:14 *3016:A 5.52238e-05
*RES
1 *3765:X *3016:A 31.3321 
*END

*D_NET *1002 0.00773474
*CONN
*I *3754:A I *D sky130_fd_sc_hd__buf_2
*I *2812:X O *D sky130_fd_sc_hd__and2b_1
*CAP
1 *3754:A 0.00191621
2 *2812:X 0.00191621
3 *3754:A *2909:B1 0
4 *3754:A *3755:A 0.0036698
5 *3754:A *1079:10 0.000137829
6 *151:32 *3754:A 2.13687e-05
7 *151:65 *3754:A 7.33209e-05
8 *968:18 *3754:A 0
*RES
1 *2812:X *3754:A 42.6073 
*END

*D_NET *1003 0.00448093
*CONN
*I *3312:B I *D sky130_fd_sc_hd__nand2b_1
*I *3309:A1 I *D sky130_fd_sc_hd__a21oi_1
*I *3324:A2 I *D sky130_fd_sc_hd__a21oi_1
*I *3304:A1 I *D sky130_fd_sc_hd__a21oi_1
*I *3299:B I *D sky130_fd_sc_hd__nand3_1
*I *3664:X O *D sky130_fd_sc_hd__clkbuf_1
*CAP
1 *3312:B 0.000275208
2 *3309:A1 0
3 *3324:A2 8.83747e-05
4 *3304:A1 0.000190935
5 *3299:B 7.05819e-05
6 *3664:X 0
7 *1003:47 0.000609533
8 *1003:8 0.000776832
9 *1003:6 0.000650974
10 *1003:4 0.000381609
11 *1003:47 *3664:A 7.02611e-05
12 *3247:A *3324:A2 1.97695e-05
13 *3299:A *3299:B 1.04232e-05
14 *3299:C *3304:A1 7.83587e-05
15 *3303:C *3304:A1 9.60939e-05
16 *3304:A2 *3304:A1 5.33005e-05
17 *3309:A2 *3312:B 7.43578e-06
18 *3309:A2 *1003:47 2.89114e-05
19 *3309:B1 *3312:B 2.91794e-05
20 *3310:B *3312:B 1.28809e-05
21 *3312:A_N *3312:B 1.02504e-05
22 *672:20 *3304:A1 1.98839e-05
23 *710:76 *3324:A2 4.52233e-05
24 *725:10 *3304:A1 9.55563e-05
25 *726:12 *3304:A1 0.000171368
26 *728:27 *3304:A1 0.000133262
27 *735:12 *3312:B 7.93005e-05
28 *738:8 *3312:B 3.82227e-06
29 *741:14 *3312:B 0
30 *744:8 *3324:A2 9.99668e-05
31 *747:12 *3324:A2 9.82592e-05
32 *748:12 *3312:B 0.00027338
*RES
1 *3664:X *1003:4 9.3 
2 *1003:4 *1003:6 0.535714 
3 *1003:6 *1003:8 5.46429 
4 *1003:8 *3299:B 10.2643 
5 *1003:8 *3304:A1 23.925 
6 *1003:6 *3324:A2 20.6036 
7 *1003:4 *1003:47 3.82143 
8 *1003:47 *3309:A1 9.3 
9 *1003:47 *3312:B 24.0723 
*END

*D_NET *1004 0.00909404
*CONN
*I *3417:A_N I *D sky130_fd_sc_hd__and4b_1
*I *3546:C I *D sky130_fd_sc_hd__and4_1
*I *3547:A1 I *D sky130_fd_sc_hd__o21ai_1
*I *3549:A I *D sky130_fd_sc_hd__nand3_1
*I *3548:B1 I *D sky130_fd_sc_hd__a2bb2o_1
*I *3665:X O *D sky130_fd_sc_hd__clkbuf_1
*CAP
1 *3417:A_N 0.000915661
2 *3546:C 0.000568912
3 *3547:A1 3.82418e-05
4 *3549:A 0.000663596
5 *3548:B1 0.000136161
6 *3665:X 0
7 *1004:23 0.00127075
8 *1004:10 0.000412866
9 *1004:4 0.00119237
10 *3417:A_N *2928:A 5.33005e-05
11 *3417:A_N *3551:B1 2.07491e-05
12 *3417:A_N *3637:RESET_B 4.25473e-05
13 *3417:A_N *3665:A 0.000226507
14 *3417:A_N *1068:10 3.84385e-05
15 *3546:C *1068:10 5.52302e-05
16 *3549:A *3633:RESET_B 5.048e-05
17 *3549:A *1064:83 6.97972e-05
18 *1004:10 *3551:A2 0.000125327
19 *1004:10 *3551:B1 4.12921e-06
20 *1004:10 *1061:154 1.90936e-05
21 *2918:A2 *3417:A_N 0.000180777
22 *2928:C *3417:A_N 0.000186669
23 *2934:A1 *3417:A_N 2.79092e-05
24 *2934:A2 *3417:A_N 0.000919037
25 *2935:B1 *3548:B1 8.6432e-05
26 *2935:B1 *1004:10 3.46786e-05
27 *3546:D *3546:C 2.27416e-05
28 *3547:B1 *3546:C 0.000171033
29 *3548:A2_N *3548:B1 7.97895e-05
30 *3549:B *3549:A 4.46186e-06
31 *3549:C *3548:B1 4.80729e-05
32 *3549:C *1004:10 7.6644e-05
33 *3632:D *1004:10 3.8341e-05
34 *129:56 *3417:A_N 0.000128168
35 *129:64 *3417:A_N 0.0002083
36 *135:24 *1004:10 8.15095e-05
37 *135:48 *1004:10 0.000145161
38 *136:8 *3549:A 0.000167119
39 *136:21 *3549:A 0
40 *352:8 *3417:A_N 9.71197e-05
41 *359:8 *3417:A_N 5.52302e-05
42 *368:12 *3417:A_N 7.83587e-05
43 *369:43 *3548:B1 5.52302e-05
44 *952:16 *3548:B1 0.00015234
45 *954:8 *3546:C 2.72695e-05
46 *954:8 *3549:A 2.32517e-05
47 *956:8 *3549:A 5.52302e-05
48 *967:131 *3549:A 1.40635e-05
49 *984:10 *1004:10 0
50 *985:20 *1004:10 2.49484e-05
*RES
1 *3665:X *1004:4 9.3 
2 *1004:4 *1004:10 10.8393 
3 *1004:10 *3548:B1 17.4964 
4 *1004:10 *1004:23 4.5 
5 *1004:23 *3549:A 27.5857 
6 *1004:23 *3547:A1 10.0321 
7 *1004:23 *3546:C 16.4071 
8 *1004:4 *3417:A_N 38.3179 
*END

*D_NET *1005 0.000568248
*CONN
*I *3665:A I *D sky130_fd_sc_hd__clkbuf_1
*I *3766:X O *D sky130_fd_sc_hd__dlygate4sd1_1
*CAP
1 *3665:A 0.000136983
2 *3766:X 0.000136983
3 *3665:A *3551:B1 6.4086e-05
4 *3414:B *3665:A 3.69047e-06
5 *3417:A_N *3665:A 0.000226507
6 *135:57 *3665:A 0
*RES
1 *3766:X *3665:A 22.0464 
*END

*D_NET *1006 0.00806633
*CONN
*I *3755:A I *D sky130_fd_sc_hd__buf_2
*I *2820:Y O *D sky130_fd_sc_hd__a21oi_1
*CAP
1 *3755:A 0.00205187
2 *2820:Y 0.00205187
3 *3755:A *1078:72 6.24445e-05
4 *2820:A2 *3755:A 5.16852e-05
5 *2852:A2 *3755:A 0
6 *2904:A *3755:A 0.000169504
7 *3754:A *3755:A 0.0036698
8 *968:18 *3755:A 9.15186e-06
*RES
1 *2820:Y *3755:A 43.6316 
*END

*D_NET *1007 0.000346296
*CONN
*I *3569:D I *D sky130_fd_sc_hd__dfrtp_1
*I *3708:X O *D sky130_fd_sc_hd__dlygate4sd3_1
*CAP
1 *3569:D 0.000153372
2 *3708:X 0.000153372
3 *3569:D *3577:RESET_B 2.8266e-06
4 *3708:A *3569:D 3.67257e-05
5 *302:10 *3569:D 0
*RES
1 *3708:X *3569:D 29.8857 
*END

*D_NET *1008 0.00034016
*CONN
*I *3575:D I *D sky130_fd_sc_hd__dfrtp_1
*I *3709:X O *D sky130_fd_sc_hd__dlygate4sd3_1
*CAP
1 *3575:D 0.00010592
2 *3709:X 0.00010592
3 *3575:D *2892:A 9.25014e-06
4 *3576:CLK *3575:D 1.58163e-05
5 *302:10 *3575:D 0.000103253
*RES
1 *3709:X *3575:D 29.475 
*END

*D_NET *1009 0.000692139
*CONN
*I *3578:D I *D sky130_fd_sc_hd__dfrtp_1
*I *3710:X O *D sky130_fd_sc_hd__dlygate4sd3_1
*CAP
1 *3578:D 0.000237254
2 *3710:X 0.000237254
3 *3578:D *1080:64 5.47047e-05
4 *3578:CLK *3578:D 6.15171e-05
5 *3710:A *3578:D 0.000101409
*RES
1 *3710:X *3578:D 31.7429 
*END

*D_NET *1010 0.000405708
*CONN
*I *3572:D I *D sky130_fd_sc_hd__dfrtp_1
*I *3711:X O *D sky130_fd_sc_hd__dlygate4sd3_1
*CAP
1 *3572:D 0.000157115
2 *3711:X 0.000157115
3 *2888:B *3572:D 9.14786e-05
*RES
1 *3711:X *3572:D 30.3857 
*END

*D_NET *1011 0.000365584
*CONN
*I *3576:D I *D sky130_fd_sc_hd__dfrtp_1
*I *3712:X O *D sky130_fd_sc_hd__dlygate4sd3_1
*CAP
1 *3576:D 0.000167359
2 *3712:X 0.000167359
3 *3576:D *3577:RESET_B 0
4 *3576:D *1080:81 0
5 *183:8 *3576:D 3.08664e-05
*RES
1 *3712:X *3576:D 29.8857 
*END

*D_NET *1012 0.00094263
*CONN
*I *3573:D I *D sky130_fd_sc_hd__dfrtp_1
*I *3713:X O *D sky130_fd_sc_hd__dlygate4sd3_1
*CAP
1 *3573:D 0.00046947
2 *3713:X 0.00046947
3 *3573:D *2887:A 3.69047e-06
4 *2794:B *3573:D 0
*RES
1 *3713:X *3573:D 33.2964 
*END

*D_NET *1013 0.000744207
*CONN
*I *3579:D I *D sky130_fd_sc_hd__dfrtp_1
*I *3714:X O *D sky130_fd_sc_hd__dlygate4sd3_1
*CAP
1 *3579:D 0.000279297
2 *3714:X 0.000279297
3 *3579:D *3579:RESET_B 0
4 *3579:D *1080:58 0.000142856
5 *3579:CLK *3579:D 1.08881e-05
6 *177:6 *3579:D 3.18676e-05
*RES
1 *3714:X *3579:D 32.908 
*END

*D_NET *1014 0.00940874
*CONN
*I *3482:A2 I *D sky130_fd_sc_hd__a311o_1
*I *3474:B I *D sky130_fd_sc_hd__and3_1
*I *3466:A1 I *D sky130_fd_sc_hd__a21oi_1
*I *3472:A2 I *D sky130_fd_sc_hd__a31o_1
*I *3467:A2 I *D sky130_fd_sc_hd__a311o_1
*I *3409:B I *D sky130_fd_sc_hd__nor2_1
*I *3410:A2 I *D sky130_fd_sc_hd__a211o_1
*I *3481:A1 I *D sky130_fd_sc_hd__a21oi_1
*I *3446:D I *D sky130_fd_sc_hd__nand4_1
*I *3430:B1 I *D sky130_fd_sc_hd__a22oi_1
*I *3668:X O *D sky130_fd_sc_hd__buf_6
*CAP
1 *3482:A2 0
2 *3474:B 0.000132035
3 *3466:A1 0
4 *3472:A2 0.000106022
5 *3467:A2 0
6 *3409:B 2.23854e-05
7 *3410:A2 0.000120051
8 *3481:A1 0
9 *3446:D 0.000209908
10 *3430:B1 0.00058355
11 *3668:X 0.000125998
12 *1014:79 0.000498675
13 *1014:69 0.000470355
14 *1014:65 0.000346299
15 *1014:63 0.000197025
16 *1014:59 0.000245503
17 *1014:57 4.26031e-05
18 *1014:20 0.00093894
19 *1014:12 0.000204127
20 *1014:8 0.000184643
21 *3410:A2 *1062:37 2.14658e-05
22 *3410:A2 *1067:58 0.000127601
23 *3430:B1 *3431:A2 0
24 *3430:B1 *1025:23 0
25 *3430:B1 *1086:58 3.23542e-05
26 *3430:B1 *1086:85 0.000374522
27 *3472:A2 *1059:16 0.00018459
28 *3472:A2 *1059:18 5.59013e-05
29 *3474:B *1086:85 0
30 *1014:20 *1025:21 0
31 *1014:20 *1059:56 4.43157e-05
32 *1014:20 *1086:85 0.000140375
33 *1014:59 *1086:85 0.000170385
34 *1014:63 *1086:85 0.000230482
35 *1014:79 *1059:18 0
36 *1014:79 *1059:26 0
37 *1014:79 *1062:37 4.13595e-05
38 *1014:79 *1067:58 0.000212153
39 *3358:B *3430:B1 6.89005e-05
40 *3373:A *1014:8 4.1331e-06
41 *3409:A *1014:79 0.000171615
42 *3410:B1 *3410:A2 0.000134124
43 *3431:A1 *3430:B1 7.27899e-05
44 *3431:B1 *3430:B1 0.000109789
45 *3434:A2 *3410:A2 5.83233e-05
46 *3435:A2 *3430:B1 6.4549e-05
47 *3437:B *3430:B1 0
48 *3437:B *3446:D 1.76184e-05
49 *3438:B *3446:D 2.06178e-05
50 *3440:A *3410:A2 5.52302e-05
51 *3445:B1 *3446:D 8.14025e-06
52 *3446:B *3446:D 3.79027e-06
53 *3450:A3 *3446:D 9.90431e-05
54 *3450:B1 *1014:79 0.00015234
55 *3451:B2 *1014:79 5.64954e-05
56 *3466:A2 *1014:59 6.62961e-05
57 *3466:A2 *1014:63 0.000228558
58 *3467:A1 *1014:63 5.7661e-06
59 *3467:A1 *1014:65 9.60939e-05
60 *3467:A1 *1014:69 9.90367e-05
61 *3467:A3 *3472:A2 0.000195555
62 *3467:A3 *1014:69 1.69961e-05
63 *3467:A3 *1014:79 5.71472e-05
64 *3481:A2 *3474:B 1.08359e-05
65 *3481:A2 *1014:8 1.08359e-05
66 *3481:A2 *1014:12 7.16429e-05
67 *3481:B1 *1014:8 9.25014e-06
68 *3481:B1 *1014:12 0.000123288
69 *3481:B1 *1014:20 5.52238e-05
70 *3482:A3 *1014:59 5.52302e-05
71 *3482:C1 *1014:20 8.25512e-05
72 *146:61 *3410:A2 2.00751e-05
73 *147:12 *3430:B1 6.05161e-06
74 *147:55 *3472:A2 0
75 *147:55 *1014:79 0.000549542
76 *354:10 *3410:A2 5.06883e-05
77 *369:140 *1014:79 3.47375e-05
78 *788:18 *3446:D 5.33334e-05
79 *790:10 *3430:B1 0
80 *798:22 *1014:8 9.25014e-06
81 *798:37 *1014:65 2.44318e-05
82 *803:14 *1014:8 4.90803e-05
83 *881:22 *1014:79 4.59075e-05
84 *885:21 *1014:8 0
85 *892:12 *3474:B 0.000150625
86 *892:12 *1014:8 5.84547e-05
87 *900:8 *1014:63 8.25843e-06
88 *900:8 *1014:65 2.87555e-06
*RES
1 *3668:X *1014:8 16.6571 
2 *1014:8 *1014:12 6.14286 
3 *1014:12 *1014:20 8.23214 
4 *1014:20 *3430:B1 25.8179 
5 *1014:20 *3446:D 26.0143 
6 *1014:12 *3481:A1 9.3 
7 *1014:8 *1014:57 4.5 
8 *1014:57 *1014:59 1.76786 
9 *1014:59 *1014:63 3.01786 
10 *1014:63 *1014:65 1.76786 
11 *1014:65 *1014:69 1.78571 
12 *1014:69 *1014:79 19.6429 
13 *1014:79 *3410:A2 21.8 
14 *1014:79 *3409:B 9.72857 
15 *1014:69 *3467:A2 9.3 
16 *1014:65 *3472:A2 21.4607 
17 *1014:63 *3466:A1 9.3 
18 *1014:59 *3474:B 20.55 
19 *1014:57 *3482:A2 9.3 
*END

*D_NET *1015 0.000451165
*CONN
*I *3570:D I *D sky130_fd_sc_hd__dfrtp_1
*I *3715:X O *D sky130_fd_sc_hd__dlygate4sd3_1
*CAP
1 *3570:D 0.00016414
2 *3715:X 0.00016414
3 *3570:D *3569:RESET_B 8.9179e-05
4 *3570:D *3570:RESET_B 0
5 *3570:D *1081:39 1.6271e-05
6 *174:6 *3570:D 1.74352e-05
*RES
1 *3715:X *3570:D 29.8857 
*END

*D_NET *1016 0.000706988
*CONN
*I *2884:B I *D sky130_fd_sc_hd__xor2_1
*I *2774:A I *D sky130_fd_sc_hd__inv_2
*I *3716:X O *D sky130_fd_sc_hd__dlygate4sd3_1
*CAP
1 *2884:B 0.000268405
2 *2774:A 6.72359e-05
3 *3716:X 0
4 *1016:4 0.000335641
5 *3590:CLK *2884:B 0
6 *3590:D *2884:B 3.5707e-05
7 *3716:A *2884:B 0
*RES
1 *3716:X *1016:4 9.3 
2 *1016:4 *2774:A 10.5679 
3 *1016:4 *2884:B 22.9071 
*END

*D_NET *1017 0.000128014
*CONN
*I *2885:B1 I *D sky130_fd_sc_hd__a21oi_1
*I *3717:X O *D sky130_fd_sc_hd__dlygate4sd3_1
*CAP
1 *2885:B1 7.41148e-06
2 *3717:X 7.41148e-06
3 *2885:A1 *2885:B1 5.65955e-05
4 *2885:A2 *2885:B1 5.65955e-05
*RES
1 *3717:X *2885:B1 19.1357 
*END

*D_NET *1018 0.000970522
*CONN
*I *2886:B I *D sky130_fd_sc_hd__nor2_1
*I *3718:X O *D sky130_fd_sc_hd__dlygate4sd3_1
*CAP
1 *2886:B 0.00027838
2 *3718:X 0.00027838
3 *2844:B *2886:B 0
4 *2844:C *2886:B 0
5 *2886:A *2886:B 4.56121e-05
6 *2888:A *2886:B 5.33005e-05
7 *2888:B *2886:B 5.52238e-05
8 *3592:CLK *2886:B 6.8646e-06
9 *3592:D *2886:B 0.000102138
10 *3716:A *2886:B 0
11 *970:14 *2886:B 0.000140933
12 *970:22 *2886:B 9.69119e-06
*RES
1 *3718:X *2886:B 33.8679 
*END

*D_NET *1019 0.000685745
*CONN
*I *2916:A I *D sky130_fd_sc_hd__xor2_1
*I *3719:X O *D sky130_fd_sc_hd__dlygate4sd3_1
*CAP
1 *2916:A 0.000294265
2 *3719:X 0.000294265
3 *2847:B *2916:A 0
4 *3587:CLK *2916:A 3.69047e-06
5 *3604:CLK *2916:A 0
6 *3605:D *2916:A 0
7 *3719:A *2916:A 0
8 *156:32 *2916:A 1.19402e-05
9 *969:33 *2916:A 8.15843e-05
*RES
1 *3719:X *2916:A 32.6179 
*END

*D_NET *1020 0.00196717
*CONN
*I *2887:A I *D sky130_fd_sc_hd__nor2_1
*I *3720:X O *D sky130_fd_sc_hd__dlygate4sd3_1
*CAP
1 *2887:A 0.000617938
2 *3720:X 0.000617938
3 *2887:A *2936:A 6.05161e-06
4 *2887:A *1081:39 0
5 *2887:A *1081:50 0
6 *2887:A *1081:89 0.000200413
7 *2887:A *1081:105 6.81083e-05
8 *3553:B2 *2887:A 0
9 *3573:D *2887:A 3.69047e-06
10 *3633:CLK *2887:A 0.000419599
11 *971:35 *2887:A 3.34366e-05
*RES
1 *3720:X *2887:A 39.6 
*END

*D_NET *1021 0.00183225
*CONN
*I *2909:B1 I *D sky130_fd_sc_hd__a21oi_1
*I *3721:X O *D sky130_fd_sc_hd__dlygate4sd3_1
*CAP
1 *2909:B1 0.000835509
2 *3721:X 0.000835509
3 *2848:C *2909:B1 3.17148e-05
4 *2851:B *2909:B1 6.27272e-06
5 *3602:D *2909:B1 6.27272e-06
6 *3754:A *2909:B1 0
7 *303:22 *2909:B1 6.3075e-05
8 *343:16 *2909:B1 3.25078e-05
9 *343:20 *2909:B1 2.13884e-05
*RES
1 *3721:X *2909:B1 37.6915 
*END

*D_NET *1022 0.00126706
*CONN
*I *2910:B I *D sky130_fd_sc_hd__nor2_1
*I *3722:X O *D sky130_fd_sc_hd__dlygate4sd3_1
*CAP
1 *2910:B 0.00040304
2 *3722:X 0.00040304
3 *2850:C *2910:B 2.09269e-05
4 *2850:D *2910:B 0.000100536
5 *2904:B *2910:B 5.15644e-05
6 *2907:B *2910:B 0
7 *2910:A *2910:B 9.83388e-05
8 *3602:CLK *2910:B 6.05161e-06
9 *303:22 *2910:B 3.34682e-05
10 *343:20 *2910:B 0
11 *345:12 *2910:B 0.000121573
12 *968:84 *2910:B 2.85188e-05
*RES
1 *3722:X *2910:B 34.9393 
*END

*D_NET *1023 0.000885219
*CONN
*I *2914:B1 I *D sky130_fd_sc_hd__a21oi_1
*I *3723:X O *D sky130_fd_sc_hd__dlygate4sd3_1
*CAP
1 *2914:B1 0.000304744
2 *3723:X 0.000304744
3 *3727:A *2914:B1 9.46929e-05
4 *156:19 *2914:B1 0
5 *157:8 *2914:B1 7.83587e-05
6 *157:12 *2914:B1 6.79057e-05
7 *345:36 *2914:B1 3.47737e-05
*RES
1 *3723:X *2914:B1 32.35 
*END

*D_NET *1024 6.37568e-05
*CONN
*I *2915:B I *D sky130_fd_sc_hd__nor2_1
*I *3724:X O *D sky130_fd_sc_hd__dlygate4sd3_1
*CAP
1 *2915:B 3.18784e-05
2 *3724:X 3.18784e-05
*RES
1 *3724:X *2915:B 19.1357 
*END

*D_NET *1025 0.00398408
*CONN
*I *3437:C I *D sky130_fd_sc_hd__and3_1
*I *3436:A2 I *D sky130_fd_sc_hd__a21oi_1
*I *3445:A3 I *D sky130_fd_sc_hd__a31o_1
*I *3431:A2 I *D sky130_fd_sc_hd__a211o_1
*I *3459:B I *D sky130_fd_sc_hd__nand2b_1
*I *3669:X O *D sky130_fd_sc_hd__buf_1
*CAP
1 *3437:C 5.7236e-05
2 *3436:A2 0
3 *3445:A3 0.000145345
4 *3431:A2 0.000240552
5 *3459:B 2.80913e-06
6 *3669:X 9.79066e-05
7 *1025:40 0.000211908
8 *1025:23 0.000368182
9 *1025:21 0.000359968
10 *1025:8 0.00034238
11 *3431:A2 *3431:C1 3.43477e-05
12 *3431:A2 *1086:58 0
13 *3445:A3 *1086:85 1.18064e-05
14 *3459:B *3431:C1 1.38106e-05
15 *1025:21 *3431:C1 0.000153646
16 *3379:A2 *1025:8 6.73313e-05
17 *3430:B1 *3431:A2 0
18 *3430:B1 *1025:23 0
19 *3431:A1 *3431:A2 5.80706e-06
20 *3436:B1 *3445:A3 0.000101545
21 *3437:B *1025:21 0.00012134
22 *3437:B *1025:23 9.25014e-06
23 *3438:A *3445:A3 4.00025e-05
24 *3438:B *3445:A3 0
25 *3481:A2 *3445:A3 0
26 *3482:C1 *1025:8 0
27 *3482:C1 *1025:21 0
28 *118:14 *3445:A3 9.90367e-05
29 *118:14 *1025:40 0.000432237
30 *785:16 *3431:A2 9.25014e-06
31 *785:16 *3445:A3 5.52238e-05
32 *785:16 *1025:21 3.34366e-05
33 *785:16 *1025:23 0.000121573
34 *785:16 *1025:40 0.000444673
35 *785:22 *3445:A3 0.000176022
36 *788:18 *3437:C 1.22081e-05
37 *790:10 *1025:23 7.6644e-05
38 *790:16 *3431:A2 0
39 *793:10 *1025:21 0.000125724
40 *803:14 *3459:B 1.28809e-05
41 *803:14 *1025:8 0
42 *885:21 *1025:8 0
43 *1014:20 *1025:21 0
*RES
1 *3669:X *1025:8 15.7464 
2 *1025:8 *3459:B 13.9295 
3 *1025:8 *1025:21 6.125 
4 *1025:21 *1025:23 1.64286 
5 *1025:23 *3431:A2 17.7286 
6 *1025:23 *1025:40 8.73214 
7 *1025:40 *3445:A3 22.3357 
8 *1025:40 *3436:A2 9.3 
9 *1025:21 *3437:C 14.4071 
*END

*D_NET *1026 0.000942571
*CONN
*I *2884:A I *D sky130_fd_sc_hd__xor2_1
*I *3725:X O *D sky130_fd_sc_hd__dlygate4sd3_1
*CAP
1 *2884:A 0.000471285
2 *3725:X 0.000471285
3 *3636:CLK *2884:A 0
4 *970:149 *2884:A 0
*RES
1 *3725:X *2884:A 33.475 
*END

*D_NET *1027 0.00155696
*CONN
*I *2953:A I *D sky130_fd_sc_hd__xor2_1
*I *3726:X O *D sky130_fd_sc_hd__dlygate4sd3_1
*CAP
1 *2953:A 0.000564729
2 *3726:X 0.000564729
3 *2951:B *2953:A 0.00012501
4 *145:24 *2953:A 0.000242184
5 *147:104 *2953:A 3.18676e-05
6 *353:22 *2953:A 2.84398e-05
*RES
1 *3726:X *2953:A 35.9393 
*END

*D_NET *1028 0.00142263
*CONN
*I *2911:A1 I *D sky130_fd_sc_hd__o21ai_1
*I *2912:A1 I *D sky130_fd_sc_hd__a21oi_1
*I *3727:X O *D sky130_fd_sc_hd__dlygate4sd3_1
*CAP
1 *2911:A1 0
2 *2912:A1 0.000290675
3 *3727:X 0.000115062
4 *1028:8 0.000405737
5 gpio_oeb[23] *2912:A1 5.71472e-05
6 *2912:A2 *2912:A1 5.52238e-05
7 *2912:B1 *2912:A1 0.000174825
8 *3603:D *2912:A1 0.000148903
9 *345:25 *1028:8 3.22022e-05
10 *345:34 *1028:8 0.000142856
11 *345:36 *2912:A1 0
*RES
1 *3727:X *1028:8 11.4964 
2 *1028:8 *2912:A1 24.3536 
3 *1028:8 *2911:A1 9.3 
*END

*D_NET *1029 0.00116534
*CONN
*I *2896:A I *D sky130_fd_sc_hd__xor2_1
*I *3728:X O *D sky130_fd_sc_hd__dlygate4sd3_1
*CAP
1 *2896:A 0.000332559
2 *3728:X 0.000332559
3 *2850:D *2896:A 0.000101422
4 *2896:B *2896:A 9.90431e-05
5 *2899:A *2896:A 4.03622e-05
6 *2904:A *2896:A 5.65955e-05
7 *2904:C *2896:A 1.91039e-05
8 *165:29 *2896:A 3.88309e-05
9 *339:22 *2896:A 0.00013304
10 *968:80 *2896:A 1.18253e-05
*RES
1 *3728:X *2896:A 33.1893 
*END

*D_NET *1030 0.000464921
*CONN
*I *2907:A I *D sky130_fd_sc_hd__xor2_1
*I *3729:X O *D sky130_fd_sc_hd__dlygate4sd3_1
*CAP
1 *2907:A 0.000105922
2 *3729:X 0.000105922
3 *2907:B *2907:A 5.68713e-05
4 *3729:A *2907:A 0.000196205
*RES
1 *3729:X *2907:A 21.1893 
*END

*D_NET *1031 0.00188653
*CONN
*I *2892:A I *D sky130_fd_sc_hd__xnor2_1
*I *3730:X O *D sky130_fd_sc_hd__dlygate4sd3_1
*CAP
1 *2892:A 0.000497258
2 *3730:X 0.000497258
3 *2889:A *2892:A 8.32171e-05
4 *2891:B *2892:A 0
5 *2892:B *2892:A 0
6 *2894:A3 *2892:A 1.69115e-05
7 *3575:CLK *2892:A 9.24825e-05
8 *3575:D *2892:A 9.25014e-06
9 *3731:A *2892:A 2.32517e-05
10 *162:8 *2892:A 0.00012501
11 *302:10 *2892:A 0.000304503
12 *302:12 *2892:A 0.000151333
13 *302:28 *2892:A 2.89114e-05
14 *968:14 *2892:A 5.71472e-05
*RES
1 *3730:X *2892:A 39.9393 
*END

*D_NET *1032 0.000366906
*CONN
*I *3595:D I *D sky130_fd_sc_hd__dfxtp_1
*I *3731:X O *D sky130_fd_sc_hd__dlygate4sd3_1
*CAP
1 *3595:D 0.000155976
2 *3731:X 0.000155976
3 *3595:D *1080:64 5.49544e-05
*RES
1 *3731:X *3595:D 29.9438 
*END

*D_NET *1033 0.00153911
*CONN
*I *2943:A I *D sky130_fd_sc_hd__xnor2_1
*I *3732:X O *D sky130_fd_sc_hd__dlygate4sd3_1
*CAP
1 *2943:A 0.000722846
2 *3732:X 0.000722846
3 *2942:A *2943:A 1.58163e-05
4 *2942:B *2943:A 3.18676e-05
5 *2943:B *2943:A 4.57352e-05
*RES
1 *3732:X *2943:A 36.7607 
*END

*D_NET *1034 0.000614501
*CONN
*I *2902:A1 I *D sky130_fd_sc_hd__o21a_1
*I *3733:X O *D sky130_fd_sc_hd__dlygate4sd3_1
*CAP
1 *2902:A1 8.42305e-05
2 *3733:X 8.42305e-05
3 *2901:A1 *2902:A1 8.00806e-05
4 *2902:A2 *2902:A1 5.71472e-05
5 *2902:B1 *2902:A1 0.000144773
6 *2906:A *2902:A1 4.46186e-06
7 *151:32 *2902:A1 0
8 *307:52 *2902:A1 7.38748e-05
9 *339:65 *2902:A1 8.57023e-05
*RES
1 *3733:X *2902:A1 30.9036 
*END

*D_NET *1035 0.000419741
*CONN
*I *2948:A I *D sky130_fd_sc_hd__xor2_1
*I *3734:X O *D sky130_fd_sc_hd__dlygate4sd3_1
*CAP
1 *2948:A 4.25809e-05
2 *3734:X 4.25809e-05
3 *2920:B *2948:A 0.000125057
4 *2920:D *2948:A 2.28598e-05
5 *2948:B *2948:A 0.000186662
*RES
1 *3734:X *2948:A 20.7786 
*END

*D_NET *1036 0.00507429
*CONN
*I *3522:B I *D sky130_fd_sc_hd__and3_1
*I *3535:A1 I *D sky130_fd_sc_hd__a21oi_1
*I *3521:A2 I *D sky130_fd_sc_hd__a21oi_1
*I *3487:A2 I *D sky130_fd_sc_hd__a21oi_1
*I *3508:C_N I *D sky130_fd_sc_hd__or3b_4
*I *3670:X O *D sky130_fd_sc_hd__buf_8
*CAP
1 *3522:B 0.000119526
2 *3535:A1 0.000288736
3 *3521:A2 1.92218e-05
4 *3487:A2 8.57904e-05
5 *3508:C_N 0.000160127
6 *3670:X 0
7 *1036:53 0.000521198
8 *1036:18 0.000680002
9 *1036:8 0.000655361
10 *1036:4 0.00031499
11 *3521:A2 *3670:A 5.59013e-05
12 *3521:A2 *1042:18 5.59013e-05
13 *1036:8 *3670:A 2.28598e-05
14 *1099:DIODE *1036:18 0.000165085
15 *3387:A *3535:A1 1.92905e-05
16 *3387:A *1036:18 5.52238e-05
17 *3387:B *1036:8 1.21289e-05
18 *3387:B *1036:18 0.000102117
19 *3403:B *3535:A1 2.87379e-05
20 *3407:B1 *3535:A1 9.60337e-06
21 *3487:A1 *3487:A2 5.48198e-05
22 *3508:A *3508:C_N 1.33343e-05
23 *3508:A *1036:18 0.000295925
24 *3509:C *3508:C_N 2.72859e-05
25 *3513:B *3487:A2 1.30413e-05
26 *3513:D *3487:A2 9.54798e-06
27 *3521:B1 *1036:8 0.000136951
28 *3521:B1 *1036:53 3.13843e-05
29 *3522:A *3522:B 5.86356e-05
30 *3523:C *1036:8 5.52302e-05
31 *3529:B2 *3535:A1 6.82648e-05
32 *3535:B1 *3535:A1 5.33005e-05
33 *3537:A *3535:A1 9.45471e-05
34 *118:85 *3487:A2 0
35 *758:16 *3535:A1 9.45735e-05
36 *805:8 *3535:A1 3.03278e-05
37 *805:35 *3535:A1 5.45746e-05
38 *813:6 *1036:18 0.000137983
39 *814:14 *1036:18 0
40 *823:14 *1036:8 2.28598e-05
41 *823:24 *1036:8 5.33005e-05
42 *823:24 *1036:18 9.41642e-05
43 *826:32 *3535:A1 5.59013e-05
44 *829:12 *3535:A1 7.79781e-06
45 *830:20 *1036:53 1.71615e-05
46 *833:14 *3535:A1 3.49114e-05
47 *833:14 *1036:53 8.38473e-05
48 *879:22 *3487:A2 4.75908e-05
49 *934:6 *3522:B 5.52302e-05
*RES
1 *3670:X *1036:4 9.3 
2 *1036:4 *1036:8 3.83929 
3 *1036:8 *1036:18 9.33929 
4 *1036:18 *3508:C_N 11.9071 
5 *1036:18 *3487:A2 20.2464 
6 *1036:8 *3521:A2 19.0321 
7 *1036:4 *1036:53 6.75 
8 *1036:53 *3535:A1 21.2643 
9 *1036:53 *3522:B 16.0143 
*END

*D_NET *1037 0.000430223
*CONN
*I *2938:B1 I *D sky130_fd_sc_hd__a21oi_1
*I *3735:X O *D sky130_fd_sc_hd__dlygate4sd3_1
*CAP
1 *2938:B1 4.6349e-05
2 *3735:X 4.6349e-05
3 *2938:A1 *2938:B1 5.71472e-05
4 *2947:A_N *2938:B1 4.72818e-05
5 *2947:B *2938:B1 9.31893e-05
6 *973:32 *2938:B1 0.000139907
*RES
1 *3735:X *2938:B1 20.7786 
*END

*D_NET *1038 0.000635488
*CONN
*I *2949:B1 I *D sky130_fd_sc_hd__a21oi_1
*I *3736:X O *D sky130_fd_sc_hd__dlygate4sd3_1
*CAP
1 *2949:B1 0.000134402
2 *3736:X 0.000134402
3 *2775:A *2949:B1 1.02504e-05
4 *2949:A1 *2949:B1 8.15939e-05
5 *2951:B *2949:B1 0
6 *3614:D *2949:B1 7.48356e-05
7 *145:24 *2949:B1 0.00010096
8 *375:14 *2949:B1 0
9 *973:20 *2949:B1 9.90431e-05
*RES
1 *3736:X *2949:B1 31.4036 
*END

*D_NET *1039 0.000250976
*CONN
*I *2894:B1 I *D sky130_fd_sc_hd__a31o_1
*I *3737:X O *D sky130_fd_sc_hd__dlygate4sd3_1
*CAP
1 *2894:B1 2.12523e-05
2 *3737:X 2.12523e-05
3 *2849:A *2894:B1 5.52302e-05
4 *2894:A1 *2894:B1 5.52238e-05
5 *3596:D *2894:B1 9.80173e-05
*RES
1 *3737:X *2894:B1 19.5464 
*END

*D_NET *1040 0.000414758
*CONN
*I *2897:B1 I *D sky130_fd_sc_hd__a21o_1
*I *3738:X O *D sky130_fd_sc_hd__dlygate4sd3_1
*CAP
1 *2897:B1 0.000108454
2 *3738:X 0.000108454
3 *2891:A *2897:B1 0.000100474
4 *151:32 *2897:B1 2.59355e-05
5 *307:52 *2897:B1 3.10819e-05
6 *339:22 *2897:B1 4.03577e-05
*RES
1 *3738:X *2897:B1 29.7786 
*END

*D_NET *1041 0.00052387
*CONN
*I *2903:B1 I *D sky130_fd_sc_hd__a21o_1
*I *3739:X O *D sky130_fd_sc_hd__dlygate4sd3_1
*CAP
1 *2903:B1 8.13839e-05
2 *3739:X 8.13839e-05
3 *2906:A *2903:B1 0.000154762
4 *153:12 *2903:B1 0.00015304
5 *307:31 *2903:B1 5.33005e-05
*RES
1 *3739:X *2903:B1 30.0821 
*END

*D_NET *1042 0.0082062
*CONN
*I *3494:A1 I *D sky130_fd_sc_hd__a31o_1
*I *3495:D I *D sky130_fd_sc_hd__and4_1
*I *3662:A I *D sky130_fd_sc_hd__clkbuf_1
*I *3670:A I *D sky130_fd_sc_hd__buf_8
*I *3453:A3 I *D sky130_fd_sc_hd__a31o_1
*I *3452:A2 I *D sky130_fd_sc_hd__a21oi_1
*I *3669:A I *D sky130_fd_sc_hd__buf_1
*I *3668:A I *D sky130_fd_sc_hd__buf_6
*I *3671:X O *D sky130_fd_sc_hd__buf_6
*CAP
1 *3494:A1 0.000160386
2 *3495:D 8.01357e-05
3 *3662:A 0.000325632
4 *3670:A 0.000319137
5 *3453:A3 0.000310184
6 *3452:A2 0
7 *3669:A 1.92805e-05
8 *3668:A 0
9 *3671:X 1.40355e-05
10 *1042:94 0.000331384
11 *1042:28 0.000308994
12 *1042:22 0.000316887
13 *1042:20 0.000595836
14 *1042:18 0.000872833
15 *1042:14 0.000747665
16 *1042:8 0.000231715
17 *3453:A3 *3453:B1 5.80706e-06
18 *1042:20 *3523:A 8.33655e-05
19 *3373:A *1042:28 0.000165637
20 *3379:B1 *1042:28 0
21 *3387:B *3670:A 0.000274941
22 *3453:A2 *3453:A3 0.000102207
23 *3473:B *1042:28 5.64954e-05
24 *3475:A *1042:28 0
25 *3495:A *3494:A1 0.00014285
26 *3495:B *1042:94 7.83659e-05
27 *3495:C *3494:A1 6.42194e-05
28 *3495:C *3495:D 5.33334e-05
29 *3496:C_N *1042:8 5.52302e-05
30 *3496:C_N *1042:94 6.09572e-05
31 *3502:B1 *1042:8 2.89114e-05
32 *3502:B1 *1042:14 3.05222e-05
33 *3502:B1 *1042:18 2.39654e-05
34 *3502:B2 *1042:14 0
35 *3502:B2 *1042:18 0
36 *3521:A2 *3670:A 5.59013e-05
37 *3521:A2 *1042:18 5.59013e-05
38 *3521:B1 *3670:A 5.33005e-05
39 *3523:C *3670:A 2.22043e-05
40 *3523:C *1042:20 0.000137464
41 *3529:A2 *1042:20 0.000220455
42 *3536:A3 *1042:20 0.00012401
43 *3536:A3 *1042:22 5.31101e-05
44 *3536:A3 *1042:28 3.39401e-05
45 *369:169 *3453:A3 0
46 *369:183 *1042:18 0
47 *792:18 *3453:A3 2.44318e-05
48 *792:18 *1042:28 2.84494e-05
49 *796:20 *3669:A 0.000130419
50 *796:20 *1042:28 9.90367e-05
51 *798:14 *3669:A 0.000142856
52 *798:14 *1042:28 9.71197e-05
53 *805:8 *1042:28 0
54 *805:35 *3670:A 1.87004e-05
55 *805:35 *1042:18 0
56 *805:46 *1042:14 0
57 *805:46 *1042:18 0
58 *805:76 *1042:94 0
59 *808:36 *1042:14 3.34366e-05
60 *808:36 *1042:94 6.81083e-05
61 *821:45 *3662:A 0.000315159
62 *821:45 *1042:14 1.53725e-05
63 *821:45 *1042:18 0
64 *823:14 *3670:A 5.41794e-05
65 *823:14 *1042:18 2.1527e-05
66 *823:24 *1042:18 6.7848e-05
67 *823:24 *1042:20 2.53056e-05
68 *830:28 *1042:20 0.0001928
69 *885:21 *1042:28 2.20678e-05
70 *917:32 *3662:A 5.52302e-05
71 *939:16 *1042:20 0
72 *997:30 *3453:A3 9.71197e-05
73 *997:30 *1042:20 4.33438e-05
74 *997:30 *1042:22 1.36251e-05
75 *1036:8 *3670:A 2.28598e-05
*RES
1 *3671:X *1042:8 14.3357 
2 *1042:8 *1042:14 2.30357 
3 *1042:14 *1042:18 5.16964 
4 *1042:18 *1042:20 8.16964 
5 *1042:20 *1042:22 0.732143 
6 *1042:22 *1042:28 10.4286 
7 *1042:28 *3668:A 9.3 
8 *1042:28 *3669:A 10.6571 
9 *1042:22 *3452:A2 13.8 
10 *1042:20 *3453:A3 27.3714 
11 *1042:18 *3670:A 19.8625 
12 *1042:14 *3662:A 18.6571 
13 *1042:8 *1042:94 6.75 
14 *1042:94 *3495:D 10.6571 
15 *1042:94 *3494:A1 12.3179 
*END

*D_NET *1043 0.000362179
*CONN
*I *3580:D I *D sky130_fd_sc_hd__dfrtp_1
*I *3741:X O *D sky130_fd_sc_hd__clkbuf_1
*CAP
1 *3580:D 0.000129184
2 *3741:X 0.000129184
3 *2892:B *3580:D 0
4 *3575:CLK *3580:D 8.39e-05
5 *968:54 *3580:D 1.99099e-05
*RES
1 *3741:X *3580:D 30.3857 
*END

*D_NET *1044 0.00127026
*CONN
*I *3354:A1 I *D sky130_fd_sc_hd__o21bai_4
*I *3746:X O *D sky130_fd_sc_hd__clkbuf_2
*CAP
1 *3354:A1 0.000262173
2 *3746:X 0.000262173
3 *3353:A *3354:A1 8.89289e-05
4 *3353:B *3354:A1 3.69047e-06
5 *3405:A2 *3354:A1 0.00010326
6 *3746:A *3354:A1 0.000133553
7 *749:16 *3354:A1 0.00020455
8 *769:10 *3354:A1 0.000101545
9 *781:51 *3354:A1 0.000110386
*RES
1 *3746:X *3354:A1 35.0464 
*END

*D_NET *1045 0.00068279
*CONN
*I *3350:A I *D sky130_fd_sc_hd__nor2_1
*I *3747:X O *D sky130_fd_sc_hd__clkbuf_1
*CAP
1 *3350:A 0.000288744
2 *3747:X 0.000288744
3 *3350:A *3748:A 4.1331e-06
4 *760:10 *3350:A 0
5 *808:14 *3350:A 0.000101169
6 *828:12 *3350:A 0
*RES
1 *3747:X *3350:A 31.8321 
*END

*D_NET *1046 0.00170822
*CONN
*I *3343:A3 I *D sky130_fd_sc_hd__a31oi_4
*I *3657:A3 I *D sky130_fd_sc_hd__a31oi_1
*I *3748:X O *D sky130_fd_sc_hd__buf_1
*CAP
1 *3343:A3 0
2 *3657:A3 0.000208144
3 *3748:X 0.000207744
4 *1046:8 0.000415888
5 *3657:A3 *3348:A1 0.000121573
6 *3657:A3 *1047:12 0
7 *1046:8 *3748:A 2.51989e-05
8 *1046:8 *1047:12 0
9 *3343:A2 *3657:A3 6.88463e-06
10 *3343:A2 *1046:8 2.83284e-06
11 *3348:A2 *3657:A3 0.000137983
12 *3354:B1_N *3657:A3 6.9253e-05
13 *3406:B *3657:A3 0.000148189
14 *3657:A1 *3657:A3 5.41609e-05
15 *751:16 *1046:8 5.0725e-05
16 *751:26 *1046:8 9.15186e-06
17 *768:8 *1046:8 0
18 *772:8 *3657:A3 1.18451e-05
19 *780:10 *3657:A3 4.73656e-05
20 *780:16 *3657:A3 0.000170661
21 *828:12 *1046:8 2.06178e-05
*RES
1 *3748:X *1046:8 17.8714 
2 *1046:8 *3657:A3 20.1393 
3 *1046:8 *3343:A3 13.8 
*END

*D_NET *1047 0.00342261
*CONN
*I *3748:A I *D sky130_fd_sc_hd__buf_1
*I *3348:A1 I *D sky130_fd_sc_hd__a2111oi_2
*I *3346:A1 I *D sky130_fd_sc_hd__a21oi_1
*I *3749:X O *D sky130_fd_sc_hd__buf_1
*CAP
1 *3748:A 0.000204079
2 *3348:A1 0.000163892
3 *3346:A1 3.78112e-05
4 *3749:X 0.000323631
5 *1047:12 0.000494209
6 *1047:6 0.000820215
7 *3342:C *3748:A 3.18676e-05
8 *3346:A2 *1047:12 2.86991e-05
9 *3348:D1 *3348:A1 8.46829e-05
10 *3349:C_N *3748:A 0.00018372
11 *3350:A *3748:A 4.1331e-06
12 *3350:B *3748:A 0.00018372
13 *3405:A1 *1047:12 0
14 *3406:B *1047:12 2.83916e-05
15 *3657:A3 *3348:A1 0.000121573
16 *3657:A3 *1047:12 0
17 *760:10 *3748:A 0
18 *760:10 *1047:12 0
19 *760:47 *3346:A1 5.49489e-05
20 *760:47 *3348:A1 5.33005e-05
21 *772:8 *3348:A1 7.17836e-05
22 *772:8 *1047:12 0.000103267
23 *780:16 *3348:A1 1.3142e-05
24 *828:12 *3748:A 9.06586e-05
25 *832:16 *1047:12 0.000299691
26 *1046:8 *3748:A 2.51989e-05
27 *1046:8 *1047:12 0
*RES
1 *3749:X *1047:6 12.7107 
2 *1047:6 *1047:12 15.5 
3 *1047:12 *3346:A1 9.83571 
4 *1047:12 *3348:A1 21.6036 
5 *1047:6 *3748:A 22.9607 
*END

*D_NET *1048 0.00738972
*CONN
*I *3308:B I *D sky130_fd_sc_hd__and3_1
*I *3300:A2 I *D sky130_fd_sc_hd__a21o_1
*I *3303:B I *D sky130_fd_sc_hd__and3_1
*I *3295:C I *D sky130_fd_sc_hd__and3_1
*I *3311:A3 I *D sky130_fd_sc_hd__a41o_1
*I *3672:X O *D sky130_fd_sc_hd__buf_8
*CAP
1 *3308:B 0.000158835
2 *3300:A2 3.62004e-05
3 *3303:B 0.00030879
4 *3295:C 0.000141771
5 *3311:A3 0.00026861
6 *3672:X 0
7 *1048:46 0.000743822
8 *1048:31 0.000798488
9 *1048:27 0.000605321
10 *1048:4 0.00045721
11 *3295:C *1049:34 1.08359e-05
12 *3311:A3 *3672:A 9.8621e-05
13 *1048:31 *1049:18 4.02462e-05
14 *1048:31 *1049:20 0.000204011
15 *1048:31 *1049:34 0.000104077
16 *3282:A *3311:A3 2.58821e-05
17 *3282:B *3311:A3 0.000266479
18 *3282:C *3311:A3 7.49387e-06
19 *3300:B1 *3303:B 0.00016345
20 *3307:A *3308:B 5.82076e-05
21 *3307:A *3311:A3 0.000231635
22 *3307:A *1048:27 0.000222666
23 *3307:B *3311:A3 5.36e-05
24 *3309:A2 *1048:31 3.48235e-05
25 *3325:B *3295:C 0.000176226
26 *3325:B *1048:46 0.000135028
27 *702:14 *3311:A3 0.000234065
28 *705:12 *3303:B 0
29 *706:16 *3303:B 0
30 *706:34 *3311:A3 4.2884e-05
31 *710:61 *3300:A2 5.7661e-06
32 *710:61 *3303:B 4.51726e-05
33 *710:61 *1048:46 0.000101218
34 *710:76 *1048:46 0.000429449
35 *721:8 *3295:C 6.05161e-06
36 *726:12 *3303:B 5.33005e-05
37 *729:8 *3303:B 5.80706e-06
38 *733:10 *3308:B 0.000139913
39 *733:12 *1048:31 5.08481e-05
40 *733:34 *1048:31 1.08359e-05
41 *737:14 *3311:A3 0.000145457
42 *741:14 *3295:C 0.000198705
43 *741:14 *1048:31 0.000485292
44 *747:12 *1048:27 2.84494e-05
45 *990:78 *1048:27 5.41794e-05
*RES
1 *3672:X *1048:4 9.3 
2 *1048:4 *3311:A3 17.925 
3 *1048:4 *1048:27 11.9107 
4 *1048:27 *1048:31 13.125 
5 *1048:31 *3295:C 17.1571 
6 *1048:31 *1048:46 12.0179 
7 *1048:46 *3303:B 23.8714 
8 *1048:46 *3300:A2 10.0321 
9 *1048:27 *3308:B 11.4786 
*END

*D_NET *1049 0.0107732
*CONN
*I *3319:A2 I *D sky130_fd_sc_hd__a31o_1
*I *3672:A I *D sky130_fd_sc_hd__buf_8
*I *3664:A I *D sky130_fd_sc_hd__clkbuf_1
*I *3333:B I *D sky130_fd_sc_hd__and2_1
*I *3337:C I *D sky130_fd_sc_hd__and3_1
*I *3330:B I *D sky130_fd_sc_hd__xnor2_2
*I *3673:X O *D sky130_fd_sc_hd__buf_8
*CAP
1 *3319:A2 9.20722e-05
2 *3672:A 5.10859e-05
3 *3664:A 7.27597e-05
4 *3333:B 0.000141285
5 *3337:C 6.08739e-05
6 *3330:B 0.00017302
7 *3673:X 0.00037349
8 *1049:36 0.000406931
9 *1049:34 0.0016208
10 *1049:20 0.0015266
11 *1049:18 0.000357063
12 *1049:14 0.000624182
13 *3295:C *1049:34 1.08359e-05
14 *3307:A *3672:A 6.57914e-05
15 *3307:B *3672:A 0.000225193
16 *3311:A3 *3672:A 9.8621e-05
17 *3318:A2 *1049:14 4.75956e-06
18 *3318:A2 *1049:18 8.6229e-06
19 *3320:C *1049:14 2.06655e-06
20 *3325:B *1049:34 0.000295123
21 *3333:A *1049:34 7.95746e-05
22 *3337:B *3333:B 7.32272e-05
23 *3337:B *1049:36 3.52028e-05
24 *3338:A2 *1049:34 0.000127804
25 *3338:A2 *1049:36 7.70319e-05
26 *3339:A *3330:B 5.52238e-05
27 *3339:A *1049:36 1.14483e-05
28 *3339:B *3330:B 0.00014183
29 *3366:B2 *3330:B 6.42338e-05
30 *3366:B2 *1049:36 1.85502e-05
31 *3401:A *1049:34 2.82057e-05
32 *3749:A *3337:C 8.55713e-05
33 *718:23 *1049:14 0.000188586
34 *718:32 *1049:14 0.000108564
35 *720:16 *1049:34 0.000229234
36 *733:34 *1049:14 9.71259e-06
37 *733:34 *1049:18 0
38 *733:47 *1049:14 5.98338e-05
39 *736:18 *1049:34 0.000288468
40 *739:8 *1049:34 0.000109491
41 *739:16 *1049:34 0.000246319
42 *741:14 *1049:34 5.01876e-06
43 *745:10 *1049:14 0.000100823
44 *746:12 *1049:14 0.000113043
45 *747:12 *1049:34 0
46 *751:14 *1049:34 0
47 *756:16 *3330:B 0.000169383
48 *757:14 *3330:B 0
49 *757:14 *1049:36 0
50 *759:10 *1049:36 0
51 *760:10 *1049:34 3.82242e-05
52 *761:12 *1049:34 0
53 *761:12 *1049:36 0
54 *808:14 *1049:34 0.000186247
55 *826:16 *1049:34 0
56 *828:12 *1049:34 0.000482156
57 *830:20 *1049:34 7.3237e-05
58 *990:78 *1049:14 0.000191485
59 *990:78 *1049:18 9.96147e-05
60 *990:78 *1049:20 0.000199549
61 *990:78 *1049:34 0.000446544
62 *1003:47 *3664:A 7.02611e-05
63 *1048:31 *1049:18 4.02462e-05
64 *1048:31 *1049:20 0.000204011
65 *1048:31 *1049:34 0.000104077
*RES
1 *3673:X *1049:14 23.3714 
2 *1049:14 *1049:18 3.39286 
3 *1049:18 *1049:20 4.98214 
4 *1049:20 *1049:34 42.0893 
5 *1049:34 *1049:36 3.16071 
6 *1049:36 *3330:B 18.4429 
7 *1049:36 *3337:C 14.6304 
8 *1049:34 *3333:B 16.4071 
9 *1049:20 *3664:A 15.1571 
10 *1049:18 *3672:A 15.9786 
11 *1049:14 *3319:A2 14.7464 
*END

*D_NET *1050 0.00983115
*CONN
*I *3269:A1 I *D sky130_fd_sc_hd__a21oi_1
*I *3283:A2 I *D sky130_fd_sc_hd__a2111o_1
*I *3251:A1 I *D sky130_fd_sc_hd__a211o_1
*I *3253:B I *D sky130_fd_sc_hd__and3_1
*I *3244:A1 I *D sky130_fd_sc_hd__a21oi_4
*I *3674:X O *D sky130_fd_sc_hd__buf_6
*CAP
1 *3269:A1 0
2 *3283:A2 0.000106468
3 *3251:A1 7.29416e-05
4 *3253:B 0.000362896
5 *3244:A1 0
6 *3674:X 0.000981178
7 *1050:39 0.00135655
8 *1050:24 0.000991948
9 *1050:22 0.000285337
10 *1050:18 0.00108881
11 *3251:A1 *1051:99 0.000266212
12 *3253:B *1051:99 0.000490416
13 *3283:A2 *3283:A1 0.000179745
14 *3283:A2 *1051:57 4.18895e-05
15 *1050:18 *1051:30 7.44648e-05
16 *1050:22 *1051:36 0.000344932
17 *1050:39 *3259:B2 0
18 *1050:39 *1051:83 0
19 *1050:39 *1051:105 0
20 *3185:A *1050:18 9.90367e-05
21 *3220:B *1050:39 0.000197984
22 *3246:A2 *1050:39 0
23 *3246:B1 *1050:39 0.000174805
24 *3251:C1 *1050:39 7.38556e-05
25 *3259:B1 *1050:39 0
26 *3260:A *1050:39 9.10492e-05
27 *3260:B *1050:39 0
28 *3271:A1 *1050:18 6.91215e-06
29 *3271:A2 *1050:18 3.92854e-05
30 *3280:A *1050:18 0.000264101
31 *3281:A *1050:18 0
32 *3283:D1 *3283:A2 2.14757e-05
33 *3284:A *1050:22 6.37408e-06
34 *3284:A *1050:24 6.19181e-05
35 *3286:A2 *1050:24 5.39552e-05
36 *3659:A *1050:18 0.000197984
37 *631:10 *3283:A2 0.000306317
38 *631:10 *1050:22 0.000250201
39 *631:10 *1050:24 3.17148e-05
40 *631:25 *1050:22 0.000115474
41 *641:8 *3251:A1 6.20656e-05
42 *644:10 *1050:39 0
43 *649:25 *1050:39 0
44 *649:42 *1050:24 0
45 *649:42 *1050:39 0
46 *654:10 *1050:18 9.90367e-05
47 *659:16 *1050:18 0.00059451
48 *690:27 *1050:18 0.000368457
49 *706:8 *1050:18 7.08482e-05
50 *821:12 *1050:39 0
*RES
1 *3674:X *1050:18 41.0857 
2 *1050:18 *1050:22 9.17857 
3 *1050:22 *1050:24 1.94643 
4 *1050:24 *3244:A1 13.8 
5 *1050:24 *1050:39 16.1964 
6 *1050:39 *3253:B 19.175 
7 *1050:39 *3251:A1 16.4071 
8 *1050:22 *3283:A2 17.2286 
9 *1050:18 *3269:A1 9.3 
*END

*D_NET *1051 0.0133833
*CONN
*I *3236:B I *D sky130_fd_sc_hd__nand2_1
*I *3269:A2 I *D sky130_fd_sc_hd__a21oi_1
*I *3248:A2 I *D sky130_fd_sc_hd__a21oi_1
*I *3253:C I *D sky130_fd_sc_hd__and3_1
*I *3251:A2 I *D sky130_fd_sc_hd__a211o_1
*I *3259:B2 I *D sky130_fd_sc_hd__a22o_1
*I *3250:A2 I *D sky130_fd_sc_hd__a21oi_1
*I *3246:A3 I *D sky130_fd_sc_hd__a32o_1
*I *3244:A2 I *D sky130_fd_sc_hd__a21oi_4
*I *3283:A1 I *D sky130_fd_sc_hd__a2111o_1
*I *3675:X O *D sky130_fd_sc_hd__clkbuf_4
*CAP
1 *3236:B 0
2 *3269:A2 0
3 *3248:A2 0
4 *3253:C 5.00847e-06
5 *3251:A2 0
6 *3259:B2 0.000263411
7 *3250:A2 0
8 *3246:A3 0
9 *3244:A2 0
10 *3283:A1 5.73611e-05
11 *3675:X 0.000249931
12 *1051:105 0.000527721
13 *1051:99 0.000602521
14 *1051:93 0.000688832
15 *1051:83 0.000833334
16 *1051:68 0.000649792
17 *1051:57 0.000426652
18 *1051:36 0.000453917
19 *1051:30 0.00133831
20 *1051:16 0.00145627
21 *3185:A *1051:16 1.60597e-05
22 *3185:A *1051:30 5.33005e-05
23 *3204:B *1051:36 2.82057e-05
24 *3220:B *1051:105 0
25 *3236:A *1051:30 0.00107927
26 *3243:B1 *1051:16 7.77751e-05
27 *3245:B *1051:83 1.90936e-05
28 *3246:A2 *1051:68 7.95888e-05
29 *3246:B1 *1051:57 3.34295e-05
30 *3246:B1 *1051:68 0
31 *3248:B1 *1051:93 5.52302e-05
32 *3251:A1 *1051:99 0.000266212
33 *3251:C1 *1051:105 0
34 *3252:A *1051:105 0
35 *3252:B *1051:105 4.79842e-05
36 *3253:A *1051:93 4.00025e-05
37 *3253:B *1051:99 0.000490416
38 *3254:B *1051:99 3.37729e-05
39 *3257:A *3259:B2 0
40 *3257:A *1051:105 0
41 *3257:B *1051:105 0.000127446
42 *3259:A1 *3259:B2 5.52302e-05
43 *3259:B1 *3259:B2 3.92757e-05
44 *3260:B *3259:B2 3.80953e-06
45 *3278:B *1051:30 0.000149633
46 *3280:A *1051:30 9.73881e-05
47 *3283:A2 *3283:A1 0.000179745
48 *3283:A2 *1051:57 4.18895e-05
49 *3283:D1 *3283:A1 0.000136951
50 *3284:A *1051:36 0.000175519
51 *3284:B *1051:57 9.90431e-05
52 *3284:B *1051:68 5.52238e-05
53 *3286:A2 *1051:57 0.000148911
54 *3286:B2 *1051:57 5.22045e-05
55 *3294:A *1051:16 0.000158497
56 *3501:B *1051:93 0
57 *118:113 *1051:83 5.52302e-05
58 *118:113 *1051:93 4.10641e-05
59 *611:8 *1051:30 0
60 *631:10 *1051:57 2.6269e-05
61 *631:25 *1051:36 2.26327e-05
62 *641:8 *1051:99 1.21289e-05
63 *641:8 *1051:105 5.52302e-05
64 *649:42 *1051:36 5.7599e-05
65 *662:8 *1051:30 3.69047e-06
66 *669:14 *1051:30 0.000175512
67 *674:8 *1051:93 0.000125731
68 *674:16 *3253:C 1.95435e-05
69 *674:16 *1051:93 0.000146474
70 *674:16 *1051:99 1.32552e-05
71 *695:8 *1051:30 0.000192306
72 *698:12 *1051:30 0.00024744
73 *701:20 *1051:30 9.23271e-05
74 *706:8 *1051:30 9.1084e-05
75 *821:12 *1051:83 0.000192204
76 *992:10 *1051:57 0
77 *992:10 *1051:68 0
78 *992:16 *1051:68 0
79 *992:16 *1051:83 0
80 *1050:18 *1051:30 7.44648e-05
81 *1050:22 *1051:36 0.000344932
82 *1050:39 *3259:B2 0
83 *1050:39 *1051:83 0
84 *1050:39 *1051:105 0
*RES
1 *3675:X *1051:16 22.675 
2 *1051:16 *1051:30 34.4643 
3 *1051:30 *1051:36 13.9821 
4 *1051:36 *3283:A1 11.0679 
5 *1051:36 *1051:57 14.5179 
6 *1051:57 *3244:A2 9.3 
7 *1051:57 *1051:68 7.58929 
8 *1051:68 *3246:A3 13.8 
9 *1051:68 *1051:83 13.0893 
10 *1051:83 *1051:93 15.5714 
11 *1051:93 *1051:99 8.875 
12 *1051:99 *1051:105 10.0179 
13 *1051:105 *3250:A2 13.8 
14 *1051:105 *3259:B2 18.0679 
15 *1051:99 *3251:A2 9.3 
16 *1051:93 *3253:C 9.49643 
17 *1051:83 *3248:A2 9.3 
18 *1051:30 *3269:A2 9.3 
19 *1051:16 *3236:B 9.3 
*END

*D_NET *1052 0.00601284
*CONN
*I *3199:A1 I *D sky130_fd_sc_hd__a21oi_4
*I *3203:A2 I *D sky130_fd_sc_hd__a21oi_2
*I *3213:B I *D sky130_fd_sc_hd__nand2_1
*I *3219:B I *D sky130_fd_sc_hd__xnor2_1
*I *3198:C I *D sky130_fd_sc_hd__and3_1
*I *3676:X O *D sky130_fd_sc_hd__buf_6
*CAP
1 *3199:A1 1.64323e-05
2 *3203:A2 0.000297086
3 *3213:B 0
4 *3219:B 0.000330559
5 *3198:C 0.00029959
6 *3676:X 0
7 *1052:29 0.000799762
8 *1052:25 0.00103834
9 *1052:23 0.000404519
10 *1052:4 0.000415621
11 *3145:B *1052:29 0
12 *3198:B *1052:25 0
13 *3199:B1 *3198:C 5.7993e-06
14 *3202:C *1052:29 0
15 *3203:A1 *3203:A2 0.000575092
16 *3203:B1 *3203:A2 0
17 *3205:A *1052:25 0
18 *3205:D *3203:A2 0.00010096
19 *3211:B1 *1052:29 0
20 *3212:B *1052:29 6.09476e-05
21 *3222:A2 *1052:29 0.000197269
22 *3222:B2 *1052:29 0.000364967
23 *3666:A *3198:C 5.52302e-05
24 *3676:A *3198:C 4.38128e-05
25 *118:85 *1052:29 0
26 *118:102 *3219:B 4.87931e-05
27 *118:102 *1052:29 1.00375e-05
28 *119:61 *3219:B 0
29 *566:27 *1052:29 9.10431e-06
30 *566:31 *1052:29 6.26653e-05
31 *579:10 *1052:25 0
32 *580:12 *1052:25 4.94362e-05
33 *580:22 *3198:C 2.08174e-05
34 *580:22 *3199:A1 9.90431e-05
35 *580:30 *3198:C 0.000102545
36 *581:10 *3198:C 0.000129944
37 *581:10 *1052:23 0
38 *581:10 *1052:25 0
39 *624:8 *3199:A1 9.90431e-05
40 *624:38 *3198:C 6.8646e-06
41 *624:38 *1052:23 0
42 *628:12 *1052:25 0
43 *628:12 *1052:29 0
44 *629:23 *3203:A2 6.12481e-05
45 *638:12 *1052:29 0
46 *638:57 *1052:23 0
47 *638:57 *1052:25 0
48 *639:10 *3219:B 0.000101545
49 *640:8 *3219:B 3.57163e-05
50 *642:10 *1052:29 7.57869e-05
51 *645:8 *3219:B 8.02709e-05
52 *645:17 *3219:B 1.39841e-05
53 *647:12 *1052:29 0
54 *982:12 *1052:29 0
*RES
1 *3676:X *1052:4 9.3 
2 *1052:4 *3198:C 23.6571 
3 *1052:4 *1052:23 6.44643 
4 *1052:23 *1052:25 4.67857 
5 *1052:25 *1052:29 10.6786 
6 *1052:29 *3219:B 20.3 
7 *1052:29 *3213:B 13.8 
8 *1052:25 *3203:A2 20.9429 
9 *1052:23 *3199:A1 14.7464 
*END

*D_NET *1053 0.00740598
*CONN
*I *3234:B1_N I *D sky130_fd_sc_hd__a21bo_1
*I *3191:B2 I *D sky130_fd_sc_hd__a2bb2o_1
*I *3180:B I *D sky130_fd_sc_hd__nand2b_1
*I *3190:B I *D sky130_fd_sc_hd__and4b_1
*I *3195:A2 I *D sky130_fd_sc_hd__a21bo_1
*I *3194:C I *D sky130_fd_sc_hd__nand3b_1
*I *3189:C I *D sky130_fd_sc_hd__and3_1
*I *3192:A2 I *D sky130_fd_sc_hd__a21oi_1
*I *3677:X O *D sky130_fd_sc_hd__buf_4
*CAP
1 *3234:B1_N 0.000339967
2 *3191:B2 0
3 *3180:B 0.000797716
4 *3190:B 0
5 *3195:A2 0
6 *3194:C 8.19748e-05
7 *3189:C 0.000121447
8 *3192:A2 0.000287461
9 *3677:X 0.000176134
10 *1053:66 0.000890402
11 *1053:46 0.000223624
12 *1053:22 0.00068481
13 *1053:18 0.000636059
14 *1053:16 0.000401693
15 *1053:14 0.000366323
16 *1053:8 0.000791926
17 *3190:C *3180:B 3.97677e-05
18 *3191:A2_N *1053:16 0.000113038
19 *3191:A2_N *1053:18 1.02504e-05
20 *3192:B1 *3192:A2 0.000140933
21 *3194:A_N *1053:46 0
22 *3194:B *3194:C 0.000142927
23 *3197:A1 *3194:C 0
24 *3226:A *3180:B 4.0342e-06
25 *3226:D *3180:B 0
26 *3232:A1 *1053:8 5.75803e-05
27 *3234:A1 *3234:B1_N 2.77173e-05
28 *3234:A2 *3234:B1_N 2.89114e-05
29 *3235:B *3234:B1_N 2.44318e-05
30 *547:43 *1053:18 0
31 *547:43 *1053:46 0
32 *556:33 *3234:B1_N 0.000142856
33 *556:33 *1053:8 1.88048e-05
34 *563:12 *3194:C 0.000186662
35 *585:10 *1053:46 1.02504e-05
36 *586:12 *3189:C 5.52302e-05
37 *586:12 *3192:A2 2.89114e-05
38 *586:19 *3189:C 9.52453e-05
39 *586:19 *3192:A2 9.31893e-05
40 *586:25 *3180:B 0
41 *591:21 *3180:B 3.47797e-05
42 *593:41 *3180:B 0.000129515
43 *593:41 *1053:18 1.18064e-05
44 *593:41 *1053:66 0.000142856
45 *593:47 *3194:C 1.24368e-05
46 *593:47 *1053:18 0
47 *593:47 *1053:46 0
48 *597:16 *1053:8 0
49 *597:16 *1053:14 0
50 *601:8 *1053:14 0
51 *601:19 *1053:14 0
52 *605:10 *1053:14 0
53 *605:10 *1053:16 0
54 *610:8 *3180:B 0
55 *617:6 *3180:B 6.26774e-06
56 *661:10 *3234:B1_N 4.8035e-05
*RES
1 *3677:X *1053:8 16.9607 
2 *1053:8 *1053:14 4.73214 
3 *1053:14 *1053:16 1.94643 
4 *1053:16 *1053:18 4.07143 
5 *1053:18 *1053:22 7.5 
6 *1053:22 *3192:A2 14.9964 
7 *1053:22 *3189:C 11.1393 
8 *1053:18 *1053:46 6.67857 
9 *1053:46 *3194:C 12.3357 
10 *1053:46 *3195:A2 9.3 
11 *1053:16 *1053:66 5.85714 
12 *1053:66 *3190:B 9.3 
13 *1053:66 *3180:B 28.4116 
14 *1053:14 *3191:B2 13.8 
15 *1053:8 *3234:B1_N 18.4429 
*END

*D_NET *1054 0.000643136
*CONN
*I *3577:D I *D sky130_fd_sc_hd__dfrtp_1
*I *3742:X O *D sky130_fd_sc_hd__clkbuf_1
*CAP
1 *3577:D 0.000102264
2 *3742:X 0.000102264
3 *3577:D *3571:D 7.83659e-05
4 *3577:CLK *3577:D 6.58195e-05
5 *14:13 *3577:D 0
6 *970:28 *3577:D 0.000116481
7 *970:34 *3577:D 0.000177941
*RES
1 *3742:X *3577:D 31.3679 
*END

*D_NET *1055 0.0101255
*CONN
*I *3083:A2 I *D sky130_fd_sc_hd__a221o_1
*I *3086:A1_N I *D sky130_fd_sc_hd__o2bb2a_1
*I *3082:A1 I *D sky130_fd_sc_hd__a22o_1
*I *3073:A I *D sky130_fd_sc_hd__and2_4
*I *3075:A1 I *D sky130_fd_sc_hd__a211o_1
*I *3678:X O *D sky130_fd_sc_hd__buf_6
*CAP
1 *3083:A2 7.61756e-05
2 *3086:A1_N 0.000781134
3 *3082:A1 0
4 *3073:A 0.000106453
5 *3075:A1 0.000285717
6 *3678:X 0
7 *1055:63 0.00090543
8 *1055:54 0.000970322
9 *1055:23 0.00130777
10 *1055:4 0.000564832
11 *3083:A2 *1056:82 1.46576e-05
12 *3086:A1_N *3086:A2_N 3.7675e-05
13 *1055:23 *3090:A2_N 9.71197e-05
14 *1055:23 *1056:33 5.52302e-05
15 *1055:23 *1056:40 0.000484518
16 *3049:D *3086:A1_N 0.000261707
17 *3075:B1 *3075:A1 6.65398e-05
18 *3075:C1 *3075:A1 0
19 *3081:B *3086:A1_N 0.000183985
20 *3082:A2 *1055:54 5.52302e-05
21 *3082:B1 *1055:54 3.25649e-05
22 *3082:B1 *1055:63 1.98839e-05
23 *3084:B *3083:A2 0.000161411
24 *3084:B *3086:A1_N 0.00026537
25 *3084:B *1055:54 0
26 *3089:B *1055:54 0.000105856
27 *3090:B1 *3073:A 0
28 *3090:B1 *1055:54 7.77652e-05
29 *3090:B2 *1055:23 9.33978e-07
30 *3090:B2 *1055:54 3.81416e-06
31 *3092:A2 *1055:54 0.000113119
32 *3095:B *1055:54 3.34624e-05
33 *3097:A1_N *1055:54 1.77651e-05
34 *3097:A1_N *1055:63 4.58194e-05
35 *3103:B *3086:A1_N 3.7675e-05
36 *3110:A1_N *1055:23 5.85759e-05
37 *3110:B1 *3075:A1 6.05161e-06
38 *3110:B1 *1055:23 8.94364e-05
39 *3110:B2 *3075:A1 6.4443e-05
40 *3113:A *3075:A1 0.000247057
41 *3113:B *3075:A1 0
42 *3771:A *3086:A1_N 0.000125044
43 *450:36 *3073:A 0
44 *450:36 *1055:54 0
45 *460:36 *3083:A2 9.25014e-06
46 *460:36 *3086:A1_N 0.000263663
47 *460:54 *3083:A2 0.000117189
48 *462:34 *1055:54 6.799e-05
49 *472:8 *3086:A1_N 0.000364953
50 *472:19 *3086:A1_N 0.000268521
51 *481:8 *3075:A1 0
52 *481:19 *3075:A1 0
53 *516:12 *1055:23 3.80385e-05
54 *521:6 *3083:A2 7.13226e-06
55 *535:16 *3086:A1_N 5.1791e-05
56 *536:8 *3075:A1 0.000186662
57 *536:8 *1055:23 8.66063e-05
58 *994:10 *3086:A1_N 0.000388146
59 *996:14 *3073:A 0
60 *996:14 *1055:23 1.33251e-06
61 *996:16 *1055:23 0.000513664
*RES
1 *3678:X *1055:4 9.3 
2 *1055:4 *3075:A1 25.3536 
3 *1055:4 *1055:23 9.30357 
4 *1055:23 *3073:A 19.9429 
5 *1055:23 *1055:54 23.3571 
6 *1055:54 *3082:A1 9.3 
7 *1055:54 *1055:63 5.44643 
8 *1055:63 *3086:A1_N 42.0545 
9 *1055:63 *3083:A2 16.1973 
*END

*D_NET *1056 0.0123768
*CONN
*I *3075:A2 I *D sky130_fd_sc_hd__a211o_1
*I *3074:A2 I *D sky130_fd_sc_hd__a21oi_2
*I *3090:A2_N I *D sky130_fd_sc_hd__o2bb2a_1
*I *3079:A2 I *D sky130_fd_sc_hd__a21boi_1
*I *3086:A2_N I *D sky130_fd_sc_hd__o2bb2a_1
*I *3101:A2 I *D sky130_fd_sc_hd__a21o_1
*I *3083:A1 I *D sky130_fd_sc_hd__a221o_1
*I *3073:B I *D sky130_fd_sc_hd__and2_4
*I *3110:A2_N I *D sky130_fd_sc_hd__o2bb2a_1
*I *3109:A1 I *D sky130_fd_sc_hd__mux2_2
*I *3679:X O *D sky130_fd_sc_hd__buf_2
*CAP
1 *3075:A2 0.000362559
2 *3074:A2 0
3 *3090:A2_N 6.2125e-05
4 *3079:A2 0
5 *3086:A2_N 7.03356e-05
6 *3101:A2 0.000147749
7 *3083:A1 0
8 *3073:B 0
9 *3110:A2_N 0
10 *3109:A1 0.000375518
11 *3679:X 0.000267862
12 *1056:120 0.000505681
13 *1056:84 0.000486977
14 *1056:82 0.000842513
15 *1056:71 0.000970745
16 *1056:50 0.000626061
17 *1056:40 0.000610283
18 *1056:33 0.000358442
19 *1056:29 0.000477036
20 *1056:10 0.000938073
21 *3101:A2 *1057:107 0
22 *3101:A2 *1074:64 2.8266e-06
23 *3049:D *1056:82 0
24 *3051:D_N *1056:71 1.02936e-05
25 *3052:A *1056:10 8.15095e-05
26 *3052:A *1056:29 0.000128154
27 *3061:A1 *3109:A1 2.60984e-05
28 *3061:B1 *3109:A1 0.000268396
29 *3061:C1 *1056:10 0.000148196
30 *3070:A2 *3109:A1 9.20581e-06
31 *3074:A1 *3075:A2 1.99099e-05
32 *3074:A1 *1056:120 9.57711e-05
33 *3075:C1 *3075:A2 0.000113737
34 *3075:C1 *1056:120 1.19402e-05
35 *3076:B *3075:A2 0
36 *3078:B1 *3075:A2 0
37 *3078:B1 *1056:29 0
38 *3078:B1 *1056:120 0
39 *3080:B *1056:82 4.79842e-05
40 *3083:A2 *1056:82 1.46576e-05
41 *3083:B2 *1056:71 7.26559e-05
42 *3083:B2 *1056:82 9.41642e-05
43 *3083:C1 *1056:71 9.41642e-05
44 *3086:A1_N *3086:A2_N 3.7675e-05
45 *3088:A *1056:82 0
46 *3088:B *1056:82 0
47 *3089:A *1056:71 0.000181796
48 *3090:B1 *1056:71 9.60875e-05
49 *3092:A1 *1056:71 6.82922e-05
50 *3095:A *1056:71 0.000137983
51 *3095:B *1056:71 6.08004e-05
52 *3096:A *1056:82 0.000660965
53 *3101:A1 *3101:A2 2.34204e-05
54 *3101:A1 *1056:84 0.000138081
55 *3103:B *3086:A2_N 8.50063e-06
56 *3104:B *1056:82 0
57 *3104:B *1056:84 0
58 *3113:A *1056:29 0
59 *3661:A *1056:71 1.52978e-05
60 *3771:A *1056:82 0
61 *450:36 *1056:71 0.000170654
62 *454:38 *1056:50 5.33786e-05
63 *470:25 *3101:A2 0
64 *478:10 *1056:29 0.000153047
65 *479:10 *1056:10 5.74562e-05
66 *479:21 *1056:29 0.000222683
67 *481:8 *1056:29 2.93474e-05
68 *481:8 *1056:120 2.37761e-05
69 *481:19 *1056:120 4.40142e-05
70 *485:8 *1056:29 0
71 *487:6 *3109:A1 3.81416e-06
72 *496:18 *1056:71 9.71197e-05
73 *499:40 *1056:82 0
74 *504:10 *1056:50 0.000116749
75 *504:10 *1056:71 2.28499e-05
76 *506:22 *1056:82 0.000170952
77 *521:6 *1056:71 0.000228558
78 *521:6 *1056:82 0.000246572
79 *535:14 *1056:10 0.000271352
80 *994:10 *3101:A2 6.05161e-06
81 *994:10 *1056:84 0
82 *996:14 *1056:50 5.10822e-05
83 *1055:23 *3090:A2_N 9.71197e-05
84 *1055:23 *1056:33 5.52302e-05
85 *1055:23 *1056:40 0.000484518
*RES
1 *3679:X *1056:10 18.9429 
2 *1056:10 *3109:A1 18.4429 
3 *1056:10 *1056:29 7.21429 
4 *1056:29 *1056:33 5.03571 
5 *1056:33 *3110:A2_N 9.3 
6 *1056:33 *1056:40 4.64286 
7 *1056:40 *1056:50 13.7679 
8 *1056:50 *3073:B 9.3 
9 *1056:50 *1056:71 19.7679 
10 *1056:71 *3083:A1 9.3 
11 *1056:71 *1056:82 20.3214 
12 *1056:82 *1056:84 5.58929 
13 *1056:84 *3101:A2 16.3893 
14 *1056:84 *3086:A2_N 14.7464 
15 *1056:82 *3079:A2 13.8 
16 *1056:40 *3090:A2_N 10.2464 
17 *1056:29 *1056:120 3.16071 
18 *1056:120 *3074:A2 13.8 
19 *1056:120 *3075:A2 19.8893 
*END

*D_NET *1057 0.00786701
*CONN
*I *3017:A2 I *D sky130_fd_sc_hd__a21oi_2
*I *3042:A2 I *D sky130_fd_sc_hd__a21oi_2
*I *3030:A2 I *D sky130_fd_sc_hd__a21o_1
*I *3033:A2 I *D sky130_fd_sc_hd__a21boi_2
*I *3031:A2 I *D sky130_fd_sc_hd__a211o_1
*I *3035:B2 I *D sky130_fd_sc_hd__a22oi_2
*I *3014:B I *D sky130_fd_sc_hd__and2_1
*I *3015:B I *D sky130_fd_sc_hd__nand2_1
*I *3027:A2 I *D sky130_fd_sc_hd__a21o_1
*I *3018:A2 I *D sky130_fd_sc_hd__a21o_1
*I *3680:X O *D sky130_fd_sc_hd__buf_2
*CAP
1 *3017:A2 0
2 *3042:A2 3.8046e-05
3 *3030:A2 0
4 *3033:A2 0
5 *3031:A2 0.000177882
6 *3035:B2 2.23854e-05
7 *3014:B 0
8 *3015:B 8.70917e-05
9 *3027:A2 0
10 *3018:A2 0.000207708
11 *3680:X 0
12 *1057:107 0.000288589
13 *1057:94 0.000607167
14 *1057:81 0.000635821
15 *1057:72 0.000443833
16 *1057:60 0.000394666
17 *1057:51 0.000187624
18 *1057:29 0.000243054
19 *1057:23 0.000340757
20 *1057:4 0.00027941
21 *3018:A2 *3018:A1 5.71472e-05
22 *3042:A2 *3042:A1 9.90431e-05
23 *1057:107 *3033:A1 6.74911e-05
24 *1057:107 *1058:50 0.000146554
25 *1057:107 *1074:64 0
26 *3014:A *1057:51 5.7661e-06
27 *3014:A *1057:60 4.88546e-05
28 *3014:A *1057:72 0.00040765
29 *3015:A *3015:B 1.61893e-05
30 *3016:A *1057:72 5.52238e-05
31 *3016:B *3035:B2 0
32 *3017:B1 *1057:72 3.63366e-05
33 *3027:A1 *3015:B 2.89114e-05
34 *3028:A *1057:29 0.000247786
35 *3031:A1 *3031:A2 0.000553544
36 *3031:A1 *1057:81 5.33005e-05
37 *3031:A1 *1057:94 4.08637e-05
38 *3032:B1 *1057:51 1.69961e-05
39 *3032:B1 *1057:60 0.000226507
40 *3032:B1 *1057:72 0.000132251
41 *3032:B2 *3031:A2 1.08359e-05
42 *3033:B1_N *3035:B2 0
43 *3033:B1_N *1057:94 0.000117631
44 *3034:B *1057:94 5.71472e-05
45 *3035:A2 *1057:94 0.00014285
46 *3036:A *3031:A2 0.000387723
47 *3036:B *1057:72 3.0285e-05
48 *3053:B *3018:A2 0
49 *3101:A2 *1057:107 0
50 *3660:A *1057:29 0
51 *3680:A *1057:29 7.46341e-05
52 *3680:A *1057:51 9.60939e-05
53 *398:10 *3031:A2 0.000128146
54 *398:23 *3031:A2 7.55759e-05
55 *412:34 *1057:72 0
56 *415:10 *3018:A2 0.000148903
57 *419:8 *3018:A2 5.71472e-05
58 *440:6 *3018:A2 2.22999e-05
59 *440:6 *1057:23 1.97756e-05
60 *452:10 *1057:29 0
61 *472:8 *1057:107 0.000153047
62 *995:12 *3015:B 5.62995e-05
63 *995:38 *1057:72 0
64 *995:38 *1057:81 9.41642e-05
*RES
1 *3680:X *1057:4 9.3 
2 *1057:4 *3018:A2 22.2643 
3 *1057:4 *1057:23 0.946429 
4 *1057:23 *1057:29 12.1607 
5 *1057:29 *3027:A2 9.3 
6 *1057:29 *3015:B 11.5143 
7 *1057:23 *1057:51 2.51786 
8 *1057:51 *3014:B 9.3 
9 *1057:51 *1057:60 2.60714 
10 *1057:60 *1057:72 16.5536 
11 *1057:72 *3035:B2 9.72857 
12 *1057:72 *1057:81 1.76786 
13 *1057:81 *3031:A2 25.7107 
14 *1057:81 *1057:94 7.10714 
15 *1057:94 *3033:A2 9.3 
16 *1057:94 *1057:107 14.8214 
17 *1057:107 *3030:A2 9.3 
18 *1057:107 *3042:A2 10.2464 
19 *1057:60 *3017:A2 9.3 
*END

*D_NET *1058 0.00637628
*CONN
*I *3033:A1 I *D sky130_fd_sc_hd__a21boi_2
*I *3042:A1 I *D sky130_fd_sc_hd__a21oi_2
*I *3030:A1 I *D sky130_fd_sc_hd__a21o_1
*I *3017:A1 I *D sky130_fd_sc_hd__a21oi_2
*I *3018:A1 I *D sky130_fd_sc_hd__a21o_1
*I *3681:X O *D sky130_fd_sc_hd__buf_6
*CAP
1 *3033:A1 7.88662e-05
2 *3042:A1 0.000140291
3 *3030:A1 0
4 *3017:A1 9.21471e-05
5 *3018:A1 0.000158905
6 *3681:X 0
7 *1058:50 0.000315436
8 *1058:44 0.00137023
9 *1058:21 0.00154919
10 *1058:4 0.000499733
11 *2982:C *3042:A1 1.21371e-05
12 *2989:A *1058:44 7.50473e-05
13 *2989:B *1058:44 5.52238e-05
14 *2993:A *1058:44 1.39726e-05
15 *3016:A *1058:44 5.33433e-05
16 *3016:B *1058:21 5.33005e-05
17 *3016:B *1058:44 0.000173083
18 *3018:A2 *3018:A1 5.71472e-05
19 *3024:A1_N *3017:A1 0.000136957
20 *3024:A1_N *1058:44 1.17921e-05
21 *3028:A *3018:A1 0.000139913
22 *3042:A2 *3042:A1 9.90431e-05
23 *3043:B *1058:21 5.33005e-05
24 *3043:B *1058:50 4.38265e-05
25 *3046:A *1058:50 0
26 *3046:B *1058:50 0
27 *3660:A *1058:21 4.02462e-05
28 *3680:A *1058:21 0.00010326
29 *3681:A *3018:A1 9.60875e-05
30 *3761:A *1058:44 8.03313e-05
31 *412:34 *3017:A1 6.51803e-05
32 *412:34 *1058:44 0.000205065
33 *413:23 *3033:A1 0
34 *413:23 *1058:50 0
35 *414:21 *1058:44 1.02504e-05
36 *419:8 *3018:A1 4.14279e-05
37 *419:8 *1058:21 0.000146799
38 *436:21 *3018:A1 0.00016641
39 *452:10 *1058:21 6.8646e-06
40 *1000:14 *1058:44 1.74352e-05
41 *1057:107 *3033:A1 6.74911e-05
42 *1057:107 *1058:50 0.000146554
*RES
1 *3681:X *1058:4 9.3 
2 *1058:4 *3018:A1 13.1214 
3 *1058:4 *1058:21 18.6607 
4 *1058:21 *3017:A1 16.1304 
5 *1058:21 *1058:44 23.7411 
6 *1058:44 *1058:50 8.5 
7 *1058:50 *3030:A1 9.3 
8 *1058:50 *3042:A1 12.3357 
9 *1058:44 *3033:A1 15.4429 
*END

*D_NET *1059 0.0137447
*CONN
*I *3523:A I *D sky130_fd_sc_hd__or3_4
*I *3496:B I *D sky130_fd_sc_hd__or3b_4
*I *3488:B1 I *D sky130_fd_sc_hd__a31o_1
*I *3456:B1 I *D sky130_fd_sc_hd__o21ai_1
*I *3475:B I *D sky130_fd_sc_hd__or3b_4
*I *3467:C1 I *D sky130_fd_sc_hd__a311o_1
*I *3482:B1 I *D sky130_fd_sc_hd__a311o_1
*I *3431:C1 I *D sky130_fd_sc_hd__a211o_1
*I *3410:C1 I *D sky130_fd_sc_hd__a211o_1
*I *3434:B1 I *D sky130_fd_sc_hd__o21ai_1
*I *3682:X O *D sky130_fd_sc_hd__buf_2
*CAP
1 *3523:A 0.000318786
2 *3496:B 4.05627e-05
3 *3488:B1 0
4 *3456:B1 1.645e-05
5 *3475:B 5.5939e-05
6 *3467:C1 0
7 *3482:B1 0
8 *3431:C1 0.000632037
9 *3410:C1 0
10 *3434:B1 0.000163039
11 *3682:X 0
12 *1059:107 0.000451684
13 *1059:56 0.00124699
14 *1059:26 0.000788616
15 *1059:18 0.00132243
16 *1059:16 0.000307812
17 *1059:14 0.000413278
18 *1059:12 0.000302304
19 *1059:6 0.000638632
20 *1059:4 0.000391868
21 *3523:A *1112:DIODE 4.13496e-05
22 *1059:6 *1112:DIODE 4.39965e-05
23 *1059:6 *3682:A 8.46829e-05
24 *1059:12 *3682:A 9.90431e-05
25 *1059:12 *1086:109 0
26 *1059:14 *1086:109 0
27 *1059:16 *1086:85 0
28 *1059:16 *1086:109 0
29 *1059:26 *3435:A1 4.95618e-05
30 *1059:26 *3435:B1 0.000129107
31 *1059:26 *3451:A2 4.66511e-05
32 *1059:56 *1086:85 7.6644e-05
33 *2775:A *3434:B1 4.78056e-05
34 *2949:A2 *3434:B1 5.84782e-05
35 *3367:A1 *3431:C1 0
36 *3387:A *3523:A 0.000251164
37 *3410:A1 *1059:26 6.81335e-05
38 *3410:B1 *1059:26 4.54415e-05
39 *3430:B2 *3431:C1 7.88765e-05
40 *3431:A1 *3431:C1 4.46186e-06
41 *3431:A2 *3431:C1 3.43477e-05
42 *3434:A1 *3434:B1 1.3701e-05
43 *3434:A2 *3434:B1 0
44 *3435:A2 *1059:26 4.23591e-05
45 *3435:A3 *3434:B1 0.00014285
46 *3435:B2 *1059:26 7.43578e-06
47 *3438:B *1059:26 0
48 *3450:B1 *1059:26 0
49 *3451:B2 *1059:26 0
50 *3457:B1 *3456:B1 9.90367e-05
51 *3459:A_N *3431:C1 5.33005e-05
52 *3459:B *3431:C1 1.38106e-05
53 *3465:A *3431:C1 4.08637e-05
54 *3466:A2 *3431:C1 0
55 *3472:A2 *1059:16 0.00018459
56 *3472:A2 *1059:18 5.59013e-05
57 *3475:A *3475:B 0.00014285
58 *3481:B1 *1059:56 6.64521e-05
59 *3482:C1 *1059:56 0.000125731
60 *3487:B1 *1059:107 0.00018465
61 *3508:B *1059:107 0.00019342
62 *3529:A2 *3523:A 0.000174812
63 *118:14 *3431:C1 5.34213e-05
64 *127:12 *1059:6 5.33005e-05
65 *127:12 *1059:12 9.71197e-05
66 *146:61 *3434:B1 5.59013e-05
67 *147:27 *1059:26 0.000342694
68 *147:29 *1059:26 0.00010096
69 *243:23 *3434:B1 0
70 *243:31 *3431:C1 1.10632e-05
71 *369:140 *1059:26 0
72 *369:169 *1059:12 3.0987e-05
73 *369:169 *1059:14 5.44167e-05
74 *369:169 *1059:16 6.22029e-05
75 *369:169 *1059:18 3.52655e-05
76 *369:169 *1059:26 9.69119e-06
77 *369:169 *1059:56 0.000140933
78 *369:169 *1059:107 0.00017309
79 *369:179 *1059:107 6.76574e-05
80 *758:16 *3456:B1 9.90367e-05
81 *758:16 *1059:12 6.53427e-05
82 *758:16 *1059:14 1.52978e-05
83 *784:23 *3431:C1 0
84 *785:16 *3431:C1 0.000148189
85 *789:19 *3431:C1 0
86 *791:14 *3431:C1 0.000293415
87 *793:10 *3431:C1 0.000101545
88 *798:37 *1059:16 9.6732e-05
89 *798:37 *1059:18 5.80706e-06
90 *803:14 *3431:C1 0.000203099
91 *803:14 *1059:56 1.99099e-05
92 *805:54 *3496:B 0.000318107
93 *808:36 *3496:B 0.000318107
94 *823:24 *3523:A 9.25014e-06
95 *879:22 *1059:12 0.000172021
96 *879:22 *1059:107 0.000246326
97 *939:16 *3523:A 0.000102207
98 *997:30 *3523:A 4.51641e-05
99 *997:30 *1059:107 6.30292e-05
100 *997:43 *1059:107 6.01673e-05
101 *1014:20 *1059:56 4.43157e-05
102 *1014:79 *1059:18 0
103 *1014:79 *1059:26 0
104 *1025:21 *3431:C1 0.000153646
105 *1042:20 *3523:A 8.33655e-05
*RES
1 *3682:X *1059:4 9.3 
2 *1059:4 *1059:6 1.76786 
3 *1059:6 *1059:12 8.60714 
4 *1059:12 *1059:14 2.55357 
5 *1059:14 *1059:16 4.98214 
6 *1059:16 *1059:18 1.64286 
7 *1059:18 *1059:26 17.1786 
8 *1059:26 *3434:B1 22.3357 
9 *1059:26 *3410:C1 9.3 
10 *1059:18 *1059:56 21.8393 
11 *1059:56 *3431:C1 32.9071 
12 *1059:56 *3482:B1 9.3 
13 *1059:16 *3467:C1 13.8 
14 *1059:14 *3475:B 15.1571 
15 *1059:12 *3456:B1 14.7464 
16 *1059:6 *1059:107 20.6607 
17 *1059:107 *3488:B1 9.3 
18 *1059:107 *3496:B 12.3 
19 *1059:4 *3523:A 26.4964 
*END

*D_NET *1060 0.0214016
*CONN
*I *3499:B1 I *D sky130_fd_sc_hd__o21ai_1
*I *3682:A I *D sky130_fd_sc_hd__buf_2
*I *3505:B1 I *D sky130_fd_sc_hd__o21ai_1
*I *3479:B1 I *D sky130_fd_sc_hd__o21ai_1
*I *3485:B1 I *D sky130_fd_sc_hd__o21ai_1
*I *3442:B I *D sky130_fd_sc_hd__and3_1
*I *2945:B I *D sky130_fd_sc_hd__and3_1
*I *2937:C I *D sky130_fd_sc_hd__and3_1
*I *2938:A2 I *D sky130_fd_sc_hd__a21oi_1
*I *3491:B1 I *D sky130_fd_sc_hd__o21a_1
*I *3683:X O *D sky130_fd_sc_hd__buf_2
*CAP
1 *3499:B1 6.05511e-05
2 *3682:A 0.000896593
3 *3505:B1 0.00044712
4 *3479:B1 5.60713e-05
5 *3485:B1 0.000485903
6 *3442:B 0
7 *2945:B 0.000310373
8 *2937:C 0
9 *2938:A2 0.000262931
10 *3491:B1 0.000251707
11 *3683:X 0
12 *1060:135 0.00172509
13 *1060:70 0.000755733
14 *1060:55 0.00134997
15 *1060:45 0.00103221
16 *1060:39 0.000918418
17 *1060:37 0.000463024
18 *1060:29 0.00126221
19 *1060:23 0.000711367
20 *1060:4 0.000386662
21 *2938:A2 *1084:41 0
22 *3491:B1 *3527:A2 0.000185643
23 *3491:B1 *3683:A 4.58194e-05
24 *3491:B1 *1061:207 8.25843e-06
25 *3491:B1 *1074:64 0.000171375
26 *3682:A *1112:DIODE 8.66164e-05
27 *3682:A *3625:RESET_B 2.58856e-05
28 *3682:A *1086:109 6.09789e-05
29 *1060:29 *1070:10 0.000262826
30 *1060:45 *1063:23 4.60073e-05
31 *1060:55 *3685:A 2.15363e-05
32 *1060:55 *1062:8 0
33 *1060:55 *1062:37 0.000526401
34 *1060:55 *1062:67 0
35 *1060:55 *1083:31 1.46717e-05
36 *1060:55 *1083:33 4.94268e-05
37 *1060:135 *1071:24 0.000491455
38 *2922:A *3505:B1 5.59013e-05
39 *2924:A2 *3682:A 3.42387e-05
40 *2937:A *2945:B 2.89114e-05
41 *2937:B *2945:B 1.93988e-05
42 *2937:B *1060:70 0.000154238
43 *2938:A1 *2938:A2 0
44 *2939:B *2938:A2 9.1235e-05
45 *2939:B *1060:55 2.23987e-05
46 *2945:C *2945:B 7.83659e-05
47 *2947:A_N *2938:A2 3.18676e-05
48 *2947:B *2938:A2 7.77751e-05
49 *3420:A *3505:B1 8.84874e-05
50 *3420:B *3505:B1 0
51 *3423:A *1060:37 0
52 *3423:B *1060:29 0
53 *3423:B *1060:37 1.2958e-05
54 *3424:B *1060:45 9.21456e-05
55 *3424:B *1060:55 0.000148196
56 *3428:A2 *1060:55 4.87854e-05
57 *3429:B2 *1060:55 0
58 *3477:B1 *3485:B1 9.41642e-05
59 *3479:A1 *3485:B1 1.54142e-05
60 *3480:A3 *3485:B1 0
61 *3483:B *3485:B1 0.000136958
62 *3485:A1 *3485:B1 0.000118145
63 *3486:A3 *3485:B1 1.33343e-05
64 *3489:A *1060:29 3.34295e-05
65 *3489:B *1060:23 5.52302e-05
66 *3514:B1 *3505:B1 0.000148196
67 *3518:D *1060:29 1.95625e-05
68 *3526:B1 *1060:29 4.79557e-05
69 *3526:B1 *1060:37 1.85363e-05
70 *3526:B1 *1060:135 0.000258722
71 *3527:B1 *3682:A 0
72 *3527:B1 *1060:135 0
73 *3534:A1 *3682:A 0.000194621
74 *3606:D *2938:A2 0.000126446
75 *3606:D *1060:55 0.000367396
76 *3620:CLK *3479:B1 4.27438e-05
77 *3620:CLK *3485:B1 6.58094e-05
78 *3686:A *1060:45 3.95139e-05
79 *3686:A *1060:55 4.15914e-05
80 *3688:A *1060:55 0.000186669
81 *120:37 *3505:B1 0.000170849
82 *121:25 *3505:B1 0
83 *122:29 *1060:45 0.000215441
84 *122:42 *1060:37 9.22948e-05
85 *122:42 *1060:39 6.98302e-05
86 *122:42 *1060:45 9.25014e-06
87 *122:70 *1060:37 7.48679e-06
88 *122:102 *1060:29 0
89 *126:38 *1060:29 0.000118057
90 *126:50 *3491:B1 9.41642e-05
91 *127:12 *3682:A 0.000113073
92 *143:49 *2945:B 9.25014e-06
93 *146:12 *1060:55 0.000126439
94 *146:98 *1060:55 0.00019384
95 *146:112 *1060:55 1.21289e-05
96 *353:22 *2945:B 0
97 *354:10 *2945:B 2.28428e-05
98 *369:72 *1060:55 0.000123673
99 *369:81 *1060:55 8.71278e-05
100 *379:22 *1060:55 0.000195555
101 *849:12 *1060:37 7.861e-05
102 *849:12 *1060:45 0.000264022
103 *851:12 *1060:37 0.000352815
104 *851:12 *1060:39 7.83587e-05
105 *851:12 *1060:45 0.000273324
106 *851:29 *3682:A 0.000364407
107 *851:29 *1060:135 0.00102627
108 *851:59 *3682:A 0.000211829
109 *879:22 *3682:A 0
110 *914:23 *3499:B1 0.000186669
111 *914:23 *1060:23 9.41642e-05
112 *914:23 *1060:29 0.000116829
113 *917:32 *3505:B1 5.59013e-05
114 *972:8 *2938:A2 0
115 *972:8 *1060:55 0
116 *972:10 *2938:A2 0
117 *972:12 *2938:A2 0
118 *973:20 *2945:B 7.11924e-05
119 *1059:6 *3682:A 8.46829e-05
120 *1059:12 *3682:A 9.90431e-05
*RES
1 *3683:X *1060:4 9.3 
2 *1060:4 *3491:B1 23.675 
3 *1060:4 *1060:23 2.60714 
4 *1060:23 *1060:29 14.1161 
5 *1060:29 *1060:37 7.45536 
6 *1060:37 *1060:39 1.03571 
7 *1060:39 *1060:45 9.19643 
8 *1060:45 *1060:55 28.1964 
9 *1060:55 *2938:A2 19.8357 
10 *1060:55 *1060:70 11.4643 
11 *1060:70 *2937:C 9.3 
12 *1060:70 *2945:B 24.1929 
13 *1060:45 *3442:B 13.8 
14 *1060:39 *3485:B1 20.9786 
15 *1060:37 *3479:B1 14.7643 
16 *1060:29 *1060:135 5.4028 
17 *1060:135 *3505:B1 26.2904 
18 *1060:135 *3682:A 24.4809 
19 *1060:23 *3499:B1 11.0679 
*END

*D_NET *1061 0.0296067
*CONN
*I *1124:DIODE I *D sky130_fd_sc_hd__diode_2
*I *3453:B1 I *D sky130_fd_sc_hd__a31o_1
*I *1097:DIODE I *D sky130_fd_sc_hd__diode_2
*I *3533:B1 I *D sky130_fd_sc_hd__o21ai_1
*I *3683:A I *D sky130_fd_sc_hd__buf_2
*I *1123:DIODE I *D sky130_fd_sc_hd__diode_2
*I *1102:DIODE I *D sky130_fd_sc_hd__diode_2
*I *1104:DIODE I *D sky130_fd_sc_hd__diode_2
*I *1106:DIODE I *D sky130_fd_sc_hd__diode_2
*I *3550:C1 I *D sky130_fd_sc_hd__o211a_1
*I *1105:DIODE I *D sky130_fd_sc_hd__diode_2
*I *3553:B1 I *D sky130_fd_sc_hd__a22o_1
*I *3557:A1 I *D sky130_fd_sc_hd__a32o_1
*I *3564:C1 I *D sky130_fd_sc_hd__o311a_1
*I *1107:DIODE I *D sky130_fd_sc_hd__diode_2
*I *3560:A1 I *D sky130_fd_sc_hd__a32o_1
*I *1108:DIODE I *D sky130_fd_sc_hd__diode_2
*I *3562:B1 I *D sky130_fd_sc_hd__a22o_1
*I *1109:DIODE I *D sky130_fd_sc_hd__diode_2
*I *1091:DIODE I *D sky130_fd_sc_hd__diode_2
*I *2936:A I *D sky130_fd_sc_hd__inv_2
*I *3684:X O *D sky130_fd_sc_hd__clkbuf_4
*CAP
1 *1124:DIODE 0.000121461
2 *3453:B1 0.000333045
3 *1097:DIODE 0
4 *3533:B1 0
5 *3683:A 9.44144e-05
6 *1123:DIODE 0
7 *1102:DIODE 6.06815e-05
8 *1104:DIODE 0
9 *1106:DIODE 9.72438e-05
10 *3550:C1 0
11 *1105:DIODE 0
12 *3553:B1 0.000134872
13 *3557:A1 2.23854e-05
14 *3564:C1 5.23724e-05
15 *1107:DIODE 9.79235e-05
16 *3560:A1 0
17 *1108:DIODE 0
18 *3562:B1 3.16195e-05
19 *1109:DIODE 0
20 *1091:DIODE 0
21 *2936:A 0.000186854
22 *3684:X 0
23 *1061:236 0.00199819
24 *1061:207 0.000536372
25 *1061:199 0.000531316
26 *1061:191 0.00189414
27 *1061:176 0.00105573
28 *1061:170 0.00111308
29 *1061:154 0.000320287
30 *1061:123 0.000388152
31 *1061:117 0.000310503
32 *1061:85 0.000250683
33 *1061:69 3.16195e-05
34 *1061:67 0.000426679
35 *1061:61 0.000387312
36 *1061:50 0.000452431
37 *1061:32 0.000308228
38 *1061:28 0.000711849
39 *1061:24 0.000493347
40 *1061:14 0.000874599
41 *1061:12 0.00147974
42 *1061:4 0.00084741
43 *1102:DIODE *3530:A1 1.24368e-05
44 *1107:DIODE *3560:B1 2.39852e-05
45 *1124:DIODE *3414:A 0.000122682
46 *3553:B1 *3553:A2 5.52238e-05
47 *3553:B1 *1064:42 0.000142856
48 *3562:B1 *3562:A2 7.64988e-05
49 *1061:12 *3637:RESET_B 2.05484e-05
50 *1061:24 *3557:B1 2.39852e-05
51 *1061:24 *1064:83 0
52 *1061:50 *1064:121 0
53 *1061:67 *3560:B1 5.66157e-05
54 *1061:67 *3562:A2 5.49544e-05
55 *1061:67 *1064:121 1.08359e-05
56 *1061:85 *3560:B1 0.000362538
57 *1061:123 *1064:42 6.4443e-05
58 *1061:154 *3551:B1 0.000135028
59 *1061:176 *1071:24 7.93316e-05
60 *1061:176 *1071:30 7.7505e-05
61 *1061:199 *1072:79 8.51213e-05
62 *1061:199 *1074:64 8.51213e-05
63 *1061:207 *3506:A2 2.17679e-05
64 *1061:207 *3527:A1 0.000104778
65 *1061:207 *3527:A2 0.000110618
66 *1061:207 *1063:98 0
67 *1061:207 *1074:64 0.000628332
68 *1061:236 *3458:A2 0.000244331
69 *2887:A *2936:A 6.05161e-06
70 *2926:C_N *1124:DIODE 5.33005e-05
71 *2997:B2 *1061:50 0
72 *3007:B1 *1061:85 0
73 *3411:B *1061:176 0
74 *3414:B *1061:170 0.000266479
75 *3414:C *1124:DIODE 0.000146377
76 *3414:D *1061:170 2.40379e-05
77 *3415:C *1061:176 0
78 *3416:A1 *1061:176 0.000562088
79 *3416:A1 *1061:191 0.000516742
80 *3416:A1 *1061:236 0.000607772
81 *3417:D *1102:DIODE 7.69776e-06
82 *3419:A *1061:12 0
83 *3421:C *1061:199 2.28499e-05
84 *3453:A3 *3453:B1 5.80706e-06
85 *3463:B *1061:236 9.25014e-06
86 *3464:C1 *1061:236 0.000316754
87 *3474:A *3453:B1 1.40415e-05
88 *3475:A *3453:B1 2.14658e-05
89 *3475:A *1061:236 0.000239722
90 *3475:C_N *1061:236 6.62868e-05
91 *3491:B1 *3683:A 4.58194e-05
92 *3491:B1 *1061:207 8.25843e-06
93 *3527:B2 *1061:207 8.40344e-05
94 *3533:A2 *1061:207 2.00648e-05
95 *3534:A1 *1061:176 0.000164936
96 *3534:A1 *1061:191 0.000492108
97 *3534:A1 *1061:236 0.0020434
98 *3536:B1 *1061:12 0
99 *3536:B1 *1061:176 0.000781525
100 *3552:A *2936:A 2.36643e-05
101 *3552:A *1061:32 0
102 *3552:A *1061:50 0
103 *3552:B *2936:A 0.000229181
104 *3553:A1 *3553:B1 2.44318e-05
105 *3553:A1 *1061:123 0.00012401
106 *3553:B2 *3553:B1 1.97695e-05
107 *3554:A3 *3557:A1 0
108 *3554:A3 *1061:117 0.000132691
109 *3554:A3 *1061:123 3.51442e-05
110 *3557:A2 *1061:24 5.41204e-05
111 *3557:A2 *1061:28 2.89016e-05
112 *3557:A3 *1061:28 5.71472e-05
113 *3560:A2 *1061:85 0.000150625
114 *3560:A3 *1107:DIODE 3.44089e-05
115 *3560:B2 *1107:DIODE 3.08664e-05
116 *3562:B2 *1061:67 3.34295e-05
117 *3562:B2 *1061:85 8.98585e-05
118 *3564:A2 *1061:67 3.23989e-05
119 *3564:B1 *3564:C1 5.71472e-05
120 *3564:B1 *1061:67 0.000144773
121 *3565:A2_N *1061:67 5.33005e-05
122 *3632:D *1061:154 1.90936e-05
123 *3633:D *3553:B1 7.61932e-05
124 *3634:D *1061:28 8.3725e-05
125 *3663:A *1061:12 4.11218e-05
126 *3663:A *1061:170 5.03772e-05
127 *3697:A *1061:236 8.25843e-06
128 *131:28 *1102:DIODE 1.90936e-05
129 *131:53 *1124:DIODE 0
130 *132:62 *1124:DIODE 5.74581e-06
131 *132:62 *1061:176 0.000115544
132 *135:57 *1061:154 5.74499e-06
133 *135:61 *1106:DIODE 7.77652e-05
134 *135:61 *1061:154 4.58194e-05
135 *136:21 *1061:24 3.46512e-05
136 *136:21 *1061:117 0.00012244
137 *136:21 *1061:123 0.000197984
138 *137:6 *1061:28 0.00010096
139 *137:10 *1061:50 0
140 *137:40 *3557:A1 0
141 *137:40 *1061:28 2.91249e-05
142 *137:47 *1061:24 9.90367e-05
143 *140:30 *3562:B1 0.000139202
144 *140:30 *3564:C1 5.62995e-05
145 *140:30 *1061:67 3.58573e-05
146 *148:45 *1061:236 6.84396e-05
147 *369:6 *2936:A 0.000145323
148 *369:28 *2936:A 0.000214052
149 *369:43 *1061:123 0.000140822
150 *369:169 *3453:B1 0
151 *792:18 *3453:B1 1.88048e-05
152 *799:19 *3453:B1 4.0342e-06
153 *851:29 *1061:236 0.000663439
154 *851:59 *1061:236 9.37043e-05
155 *892:12 *3453:B1 3.06878e-06
156 *931:16 *1061:199 7.02611e-05
157 *931:18 *1102:DIODE 1.21258e-05
158 *960:12 *1061:50 0.0004405
159 *960:12 *1061:61 0.00010326
160 *974:49 *1061:199 9.41642e-05
161 *998:14 *1061:170 2.47833e-05
162 *1004:10 *1061:154 1.90936e-05
*RES
1 *3684:X *1061:4 9.3 
2 *1061:4 *1061:12 9.69042 
3 *1061:12 *1061:14 0.983867 
4 *1061:14 *1061:24 11.2357 
5 *1061:24 *1061:28 9.14286 
6 *1061:28 *1061:32 6.44643 
7 *1061:32 *2936:A 14.8 
8 *1061:32 *1091:DIODE 9.3 
9 *1061:28 *1061:50 8.32143 
10 *1061:50 *1109:DIODE 13.8 
11 *1061:50 *1061:61 5.83929 
12 *1061:61 *1061:67 10.1786 
13 *1061:67 *1061:69 4.5 
14 *1061:69 *3562:B1 10.6571 
15 *1061:69 *1108:DIODE 9.3 
16 *1061:67 *1061:85 9.48214 
17 *1061:85 *3560:A1 9.3 
18 *1061:85 *1107:DIODE 11.0679 
19 *1061:61 *3564:C1 10.9786 
20 *1061:24 *3557:A1 9.72857 
21 *1061:14 *1061:117 5.20464 
22 *1061:117 *1061:123 10.3393 
23 *1061:123 *3553:B1 13.05 
24 *1061:123 *1105:DIODE 9.3 
25 *1061:117 *3550:C1 13.8 
26 *1061:12 *1061:154 10.7761 
27 *1061:154 *1106:DIODE 10.6571 
28 *1061:154 *1104:DIODE 9.3 
29 *1061:4 *1061:170 7.91071 
30 *1061:170 *1061:176 8.91619 
31 *1061:176 *1102:DIODE 18.0225 
32 *1061:176 *1061:191 0.839733 
33 *1061:191 *1061:199 10.4546 
34 *1061:199 *1061:207 18.4643 
35 *1061:207 *1123:DIODE 9.3 
36 *1061:207 *3683:A 10.9786 
37 *1061:199 *3533:B1 9.3 
38 *1061:191 *1061:236 26.1375 
39 *1061:236 *1097:DIODE 9.3 
40 *1061:236 *3453:B1 22.5321 
41 *1061:170 *1124:DIODE 16.5857 
*END

*D_NET *1062 0.0185173
*CONN
*I *3425:B I *D sky130_fd_sc_hd__and2_1
*I *3480:A1 I *D sky130_fd_sc_hd__a32o_1
*I *3458:B1 I *D sky130_fd_sc_hd__a22o_1
*I *3492:B1 I *D sky130_fd_sc_hd__o21ai_1
*I *3517:A1 I *D sky130_fd_sc_hd__a31oi_1
*I *3500:A1 I *D sky130_fd_sc_hd__a32o_1
*I *3471:A1 I *D sky130_fd_sc_hd__a32o_1
*I *3451:B1 I *D sky130_fd_sc_hd__a22o_1
*I *3435:A1 I *D sky130_fd_sc_hd__a32o_1
*I *3429:A2 I *D sky130_fd_sc_hd__a32o_1
*I *3685:X O *D sky130_fd_sc_hd__buf_2
*CAP
1 *3425:B 0.000238609
2 *3480:A1 0
3 *3458:B1 1.12434e-05
4 *3492:B1 0.000382266
5 *3517:A1 0.000211601
6 *3500:A1 5.62617e-05
7 *3471:A1 0
8 *3451:B1 8.72612e-06
9 *3435:A1 0.000204634
10 *3429:A2 0.000265736
11 *3685:X 0
12 *1062:123 0.000642564
13 *1062:119 0.000461466
14 *1062:94 0.00155023
15 *1062:76 0.00127309
16 *1062:67 0.00071891
17 *1062:37 0.00107664
18 *1062:8 0.00123254
19 *1062:6 0.000641785
20 *1062:4 0.000238609
21 *3425:B *3638:RESET_B 0.000153273
22 *3429:A2 *3429:B1 2.37761e-05
23 *3429:A2 *1066:23 5.90443e-06
24 *3429:A2 *1083:33 0
25 *3429:A2 *1083:35 0
26 *3429:A2 *1083:37 0
27 *3435:A1 *3435:B1 0
28 *3451:B1 *1067:58 3.18676e-05
29 *3500:A1 *3500:B1 3.95455e-05
30 *3517:A1 *3458:A2 6.66789e-05
31 *1062:8 *1066:23 0.000170661
32 *1062:8 *1083:33 0
33 *1062:37 *1066:8 9.90431e-05
34 *1062:37 *1067:58 2.05873e-05
35 *1062:37 *1083:23 0.000439524
36 *1062:67 *3471:B1 0
37 *1062:67 *3685:A 2.39779e-05
38 *1062:67 *1066:23 0.000311887
39 *1062:76 *3471:B1 0
40 *1062:94 *3421:A 0
41 *1062:94 *3421:D_N 0
42 *1062:94 *1066:68 0
43 *1062:94 *1074:42 0.000143566
44 *1062:123 *3458:A2 2.30116e-06
45 *1098:DIODE *1062:67 4.43142e-05
46 *2925:B1 *1062:94 0
47 *3409:A *3435:A1 3.82255e-05
48 *3409:A *1062:37 0.000180764
49 *3410:A2 *1062:37 2.14658e-05
50 *3410:B1 *1062:37 5.33005e-05
51 *3418:B *1062:123 2.01525e-05
52 *3418:C *1062:94 8.24475e-05
53 *3422:A1 *1062:119 5.55449e-05
54 *3423:D_N *1062:76 4.84123e-05
55 *3423:D_N *1062:94 0.000131247
56 *3424:B *3425:B 5.52238e-05
57 *3435:A3 *3435:A1 5.80706e-06
58 *3440:A *1062:37 0.00018077
59 *3443:A1 *1062:37 5.71472e-05
60 *3451:B2 *3435:A1 4.46186e-06
61 *3451:B2 *1062:37 9.71197e-05
62 *3470:B1 *1062:67 0
63 *3471:A2 *1062:67 1.02504e-05
64 *3471:A2 *1062:76 7.05447e-05
65 *3480:A3 *1062:94 0.000122933
66 *3491:A2 *3500:A1 6.06291e-06
67 *3491:A2 *1062:94 9.24395e-05
68 *3497:B *1062:94 7.39203e-06
69 *3500:A3 *3458:B1 5.52302e-05
70 *3500:A3 *3500:A1 0.00018077
71 *3500:A3 *1062:119 0.000827268
72 *3517:B1 *3517:A1 3.51442e-05
73 *3518:B *1062:94 0
74 *3519:B1 *3517:A1 0.00012401
75 *3615:CLK *1062:37 0.000467203
76 *3619:CLK *1062:67 5.19842e-06
77 *3619:D *1062:67 0.000136958
78 *3624:CLK *1062:119 0.000381324
79 *3624:D *1062:119 9.54798e-06
80 *118:14 *1062:37 1.7979e-05
81 *118:27 *3451:B1 2.44318e-05
82 *118:27 *1062:37 0.000355002
83 *119:33 *1062:123 1.17968e-05
84 *122:12 *1062:76 6.88463e-06
85 *122:12 *1062:94 0
86 *122:18 *1062:76 1.65558e-05
87 *122:102 *1062:94 1.18451e-05
88 *125:12 *1062:94 3.17148e-05
89 *125:23 *3500:A1 5.33005e-05
90 *125:23 *1062:94 0.000215056
91 *125:23 *1062:119 4.08637e-05
92 *125:25 *1062:94 0.000128254
93 *126:18 *1062:119 5.03772e-05
94 *129:12 *1062:119 2.50479e-05
95 *148:10 *1062:37 5.97284e-05
96 *243:23 *3435:A1 2.54135e-05
97 *254:62 *1062:67 3.65069e-05
98 *255:46 *3425:B 8.94484e-05
99 *255:68 *3425:B 0.000134617
100 *369:104 *1062:67 9.25014e-06
101 *836:20 *3429:A2 0.000251915
102 *851:12 *1062:67 0.000214741
103 *866:56 *1062:67 9.41642e-05
104 *879:22 *3458:B1 2.28598e-05
105 *879:22 *3492:B1 0.0004933
106 *879:22 *1062:119 2.89016e-05
107 *907:10 *1062:94 0.000764491
108 *907:21 *1062:94 0.000128215
109 *975:10 *3517:A1 0
110 *975:21 *3517:A1 0.000152156
111 *975:36 *3517:A1 1.55485e-05
112 *975:36 *1062:123 3.34657e-05
113 *997:43 *3492:B1 0
114 *1014:79 *1062:37 4.13595e-05
115 *1059:26 *3435:A1 4.95618e-05
116 *1060:55 *1062:8 0
117 *1060:55 *1062:37 0.000526401
118 *1060:55 *1062:67 0
*RES
1 *3685:X *1062:4 9.3 
2 *1062:4 *1062:6 4.5 
3 *1062:6 *1062:8 2.25 
4 *1062:8 *3429:A2 19.1214 
5 *1062:8 *1062:37 28.4821 
6 *1062:37 *3435:A1 21.6929 
7 *1062:37 *3451:B1 9.83571 
8 *1062:6 *1062:67 18.6429 
9 *1062:67 *3471:A1 13.8 
10 *1062:67 *1062:76 3.16071 
11 *1062:76 *1062:94 37.2679 
12 *1062:94 *3500:A1 11.0679 
13 *1062:94 *1062:119 22.1786 
14 *1062:119 *1062:123 5.53571 
15 *1062:123 *3517:A1 19.1393 
16 *1062:123 *3492:B1 21.3357 
17 *1062:119 *3458:B1 9.83571 
18 *1062:76 *3480:A1 13.8 
19 *1062:4 *3425:B 14.8 
*END

*D_NET *1063 0.0174943
*CONN
*I *3506:A2 I *D sky130_fd_sc_hd__a32o_1
*I *3526:A1 I *D sky130_fd_sc_hd__a31o_1
*I *3534:A2 I *D sky130_fd_sc_hd__a32o_1
*I *3486:A1 I *D sky130_fd_sc_hd__a32o_1
*I *3551:B1 I *D sky130_fd_sc_hd__a22o_1
*I *3541:A1 I *D sky130_fd_sc_hd__a32o_1
*I *3566:B1_N I *D sky130_fd_sc_hd__o21ba_1
*I *3685:A I *D sky130_fd_sc_hd__buf_2
*I *3686:X O *D sky130_fd_sc_hd__clkbuf_2
*CAP
1 *3506:A2 0.000795779
2 *3526:A1 0
3 *3534:A2 8.82842e-05
4 *3486:A1 0
5 *3551:B1 0.00142304
6 *3541:A1 0
7 *3566:B1_N 0.000202228
8 *3685:A 6.22032e-05
9 *3686:X 7.70325e-05
10 *1063:98 0.00108012
11 *1063:83 0.000711345
12 *1063:72 0.00035261
13 *1063:40 0.00152915
14 *1063:27 0.00110039
15 *1063:23 0.00149729
16 *1063:8 0.000830581
17 *3506:A2 *3527:A1 4.20366e-05
18 *3506:A2 *3527:A2 9.0175e-05
19 *3506:A2 *1075:62 0.000277221
20 *3534:A2 *3534:B1 0.000220414
21 *3534:A2 *1072:93 0.000315165
22 *3551:B1 *3541:B1 0.000118007
23 *3551:B1 *3551:A2 6.48671e-05
24 *3551:B1 *3630:RESET_B 0.000125731
25 *3551:B1 *3637:RESET_B 9.71532e-05
26 *3551:B1 *1068:10 0
27 *3551:B1 *1082:36 0.00037646
28 *3566:B1_N *1086:180 0
29 *1063:23 *1083:29 6.8839e-05
30 *1063:72 *3534:B1 9.54798e-06
31 *1063:83 *3534:B1 0.000549194
32 *1063:98 *3534:B1 6.8646e-06
33 *1063:98 *1074:64 0
34 *3414:B *3551:B1 0.000127353
35 *3417:A_N *3551:B1 2.07491e-05
36 *3417:D *3506:A2 3.49781e-05
37 *3417:D *1063:72 3.43988e-06
38 *3417:D *1063:83 7.57526e-05
39 *3417:D *1063:98 0.000383084
40 *3419:A *3506:A2 0.000733407
41 *3422:A1 *3506:A2 0.000277221
42 *3486:A3 *1063:72 4.6025e-06
43 *3486:A3 *1063:83 0.000165591
44 *3505:A1 *3506:A2 0
45 *3527:B1 *3506:A2 0.000388934
46 *3527:B2 *3506:A2 0.000115139
47 *3533:A2 *1063:98 3.75595e-05
48 *3534:A3 *3534:A2 5.02103e-05
49 *3536:B1 *3551:B1 2.93957e-05
50 *3541:A2 *1063:23 0.000142192
51 *3541:A2 *1063:27 0.000246795
52 *3545:A2 *3551:B1 5.03772e-05
53 *3545:B1_N *3551:B1 5.71472e-05
54 *3627:D *3506:A2 2.21972e-05
55 *3630:D *3551:B1 8.60626e-05
56 *3665:A *3551:B1 6.4086e-05
57 *3686:A *3685:A 8.00806e-05
58 *3686:A *1063:23 6.72518e-05
59 *129:40 *3506:A2 0.000410662
60 *129:48 *3506:A2 0.00017985
61 *131:14 *1063:98 0
62 *131:126 *1063:98 0.000138042
63 *132:26 *3551:B1 3.36817e-05
64 *132:36 *3551:B1 2.14757e-05
65 *135:12 *3551:B1 5.66157e-05
66 *135:57 *3551:B1 2.62395e-05
67 *135:61 *3551:B1 3.57366e-05
68 *146:116 *3566:B1_N 0.000101527
69 *146:116 *1063:40 0.000116673
70 *254:62 *1063:8 9.41642e-05
71 *264:61 *3566:B1_N 0.000195998
72 *264:61 *1063:40 0.00011207
73 *851:12 *3685:A 0.000101545
74 *851:12 *1063:23 0.00022485
75 *866:20 *3551:B1 1.74352e-05
76 *984:10 *3551:B1 0
77 *1004:10 *3551:B1 4.12921e-06
78 *1060:45 *1063:23 4.60073e-05
79 *1060:55 *3685:A 2.15363e-05
80 *1061:154 *3551:B1 0.000135028
81 *1061:207 *3506:A2 2.17679e-05
82 *1061:207 *1063:98 0
83 *1062:67 *3685:A 2.39779e-05
*RES
1 *3686:X *1063:8 14.7464 
2 *1063:8 *3685:A 15.7464 
3 *1063:8 *1063:23 7.619 
4 *1063:23 *1063:27 5.47487 
5 *1063:27 *3566:B1_N 18.6304 
6 *1063:27 *1063:40 7.50893 
7 *1063:40 *3541:A1 9.3 
8 *1063:40 *3551:B1 44.4964 
9 *1063:23 *1063:72 3.68679 
10 *1063:72 *3486:A1 13.8 
11 *1063:72 *1063:83 8.05357 
12 *1063:83 *3534:A2 17.5321 
13 *1063:83 *1063:98 6.23214 
14 *1063:98 *3526:A1 13.8 
15 *1063:98 *3506:A2 30.1332 
*END

*D_NET *1064 0.0161351
*CONN
*I *2800:A1 I *D sky130_fd_sc_hd__a22o_1
*I *3560:B1 I *D sky130_fd_sc_hd__a32o_1
*I *3562:A2 I *D sky130_fd_sc_hd__a22o_1
*I *3565:B2 I *D sky130_fd_sc_hd__a2bb2o_1
*I *3557:B1 I *D sky130_fd_sc_hd__a32o_1
*I *3541:B1 I *D sky130_fd_sc_hd__a32o_1
*I *3551:A2 I *D sky130_fd_sc_hd__a22o_1
*I *3548:B2 I *D sky130_fd_sc_hd__a2bb2o_1
*I *3553:A2 I *D sky130_fd_sc_hd__a22o_1
*I *2789:B1 I *D sky130_fd_sc_hd__o21ai_1
*I *3687:X O *D sky130_fd_sc_hd__buf_2
*CAP
1 *2800:A1 0
2 *3560:B1 0.000229141
3 *3562:A2 0.000129726
4 *3565:B2 5.31492e-05
5 *3557:B1 7.62888e-06
6 *3541:B1 0.000926611
7 *3551:A2 0.00030377
8 *3548:B2 0
9 *3553:A2 1.1624e-05
10 *2789:B1 0
11 *3687:X 0.000310317
12 *1064:121 0.000479821
13 *1064:106 0.00122094
14 *1064:83 0.0014361
15 *1064:49 0.00129148
16 *1064:42 0.000333324
17 *1064:29 0.00028385
18 *1064:27 0.000900401
19 *1064:14 0.000889395
20 *1064:8 0.00068094
21 *3541:B1 *3703:A 9.41642e-05
22 *3541:B1 *1082:8 0.000657846
23 *1064:27 *3570:RESET_B 0
24 *1064:106 *2931:A 0.00027147
25 *1064:106 *2931:B 0.000312382
26 *1064:106 *1069:20 0
27 *1064:106 *1081:123 7.05143e-06
28 *1107:DIODE *3560:B1 2.39852e-05
29 *2786:B *1064:14 0
30 *2793:A1 *1064:14 0
31 *2793:A1 *1064:27 0.000159453
32 *2794:B *1064:27 0
33 *2800:B1 *1064:8 0.00040279
34 *2801:B1 *1064:14 0
35 *2997:B2 *1064:106 0
36 *3548:A2_N *3551:A2 0.000148196
37 *3548:A2_N *1064:42 0.000142856
38 *3548:A2_N *1064:49 0.00010096
39 *3549:A *1064:83 6.97972e-05
40 *3549:B *1064:83 0
41 *3549:C *3551:A2 6.42145e-05
42 *3551:B1 *3541:B1 0.000118007
43 *3551:B1 *3551:A2 6.48671e-05
44 *3553:A1 *3553:A2 5.52238e-05
45 *3553:A1 *1064:42 0.000259934
46 *3553:A1 *1064:83 0
47 *3553:B1 *3553:A2 5.52238e-05
48 *3553:B1 *1064:42 0.000142856
49 *3555:B *1064:83 0.000197991
50 *3555:B *1064:106 0.000159689
51 *3557:A2 *3557:B1 2.39852e-05
52 *3560:A3 *3560:B1 1.1671e-05
53 *3562:B1 *3562:A2 7.64988e-05
54 *3564:A1 *3560:B1 7.6612e-06
55 *3564:A1 *3565:B2 4.77427e-05
56 *3564:A1 *1064:121 8.46197e-05
57 *3565:A1_N *3565:B2 5.25759e-05
58 *3565:A2_N *1064:106 1.00332e-05
59 *3565:A2_N *1064:121 0.000140063
60 *3567:D *1064:14 0
61 *3631:D *1064:27 0
62 *3631:D *1064:42 0.000291284
63 *3632:CLK *3551:A2 0.000374038
64 *3632:D *3551:A2 9.97562e-05
65 *3633:D *1064:83 6.42242e-05
66 *3636:D *3562:A2 5.38444e-06
67 *3766:A *3551:A2 7.16592e-05
68 *132:26 *3541:B1 7.61109e-05
69 *132:36 *3541:B1 0.000182871
70 *136:21 *1064:83 0
71 *137:40 *1064:83 4.46186e-06
72 *137:40 *1064:106 2.61337e-05
73 *140:19 *3562:A2 2.07878e-05
74 *140:30 *3562:A2 2.32127e-05
75 *172:8 *1064:27 0.000120751
76 *172:12 *1064:27 3.2534e-05
77 *252:12 *1064:14 1.41706e-05
78 *252:12 *1064:27 5.53406e-05
79 *257:14 *1064:14 5.33005e-05
80 *257:22 *1064:8 1.21289e-05
81 *257:22 *1064:14 2.28598e-05
82 *264:61 *3541:B1 6.19181e-05
83 *369:43 *3541:B1 0.000150698
84 *369:43 *1064:42 0.000109593
85 *369:43 *1064:49 1.39726e-05
86 *380:19 *1064:106 9.10431e-06
87 *942:33 *3541:B1 1.55885e-05
88 *952:16 *3551:A2 3.90513e-05
89 *971:94 *3551:A2 3.34366e-05
90 *984:10 *3551:A2 0
91 *1004:10 *3551:A2 0.000125327
92 *1061:24 *3557:B1 2.39852e-05
93 *1061:24 *1064:83 0
94 *1061:50 *1064:121 0
95 *1061:67 *3560:B1 5.66157e-05
96 *1061:67 *3562:A2 5.49544e-05
97 *1061:67 *1064:121 1.08359e-05
98 *1061:85 *3560:B1 0.000362538
99 *1061:123 *1064:42 6.4443e-05
*RES
1 *3687:X *1064:8 13.9607 
2 *1064:8 *1064:14 10.5714 
3 *1064:14 *2789:B1 13.8 
4 *1064:14 *1064:27 10.6071 
5 *1064:27 *1064:29 4.5 
6 *1064:29 *3553:A2 9.83571 
7 *1064:29 *1064:42 8.48214 
8 *1064:42 *3548:B2 9.3 
9 *1064:42 *1064:49 1.35714 
10 *1064:49 *3551:A2 27.4696 
11 *1064:49 *3541:B1 33.6839 
12 *1064:27 *1064:83 7.71429 
13 *1064:83 *3557:B1 14.0411 
14 *1064:83 *1064:106 16.2012 
15 *1064:106 *3565:B2 15.175 
16 *1064:106 *1064:121 3.08929 
17 *1064:121 *3562:A2 16.8179 
18 *1064:121 *3560:B1 19.3268 
19 *1064:8 *2800:A1 9.3 
*END

*D_NET *1065 0.000460358
*CONN
*I *3574:D I *D sky130_fd_sc_hd__dfrtp_1
*I *3743:X O *D sky130_fd_sc_hd__clkbuf_1
*CAP
1 *3574:D 0.000142423
2 *3743:X 0.000142423
3 *970:26 *3574:D 0.000117189
4 *970:28 *3574:D 5.83233e-05
*RES
1 *3743:X *3574:D 30.3857 
*END

*D_NET *1066 0.0196373
*CONN
*I *3520:A2 I *D sky130_fd_sc_hd__a21bo_1
*I *3500:B1 I *D sky130_fd_sc_hd__a32o_1
*I *3493:B2 I *D sky130_fd_sc_hd__a2bb2o_1
*I *3527:A2 I *D sky130_fd_sc_hd__a22o_1
*I *3506:B1 I *D sky130_fd_sc_hd__a32o_1
*I *3511:A2 I *D sky130_fd_sc_hd__a221o_1
*I *3480:B1 I *D sky130_fd_sc_hd__a32o_1
*I *3486:B1 I *D sky130_fd_sc_hd__a32o_1
*I *3534:B1 I *D sky130_fd_sc_hd__a32o_1
*I *3429:B1 I *D sky130_fd_sc_hd__a32o_1
*I *3688:X O *D sky130_fd_sc_hd__buf_2
*CAP
1 *3520:A2 5.59937e-05
2 *3500:B1 7.40997e-05
3 *3493:B2 4.23896e-05
4 *3527:A2 0.000466928
5 *3506:B1 9.21094e-06
6 *3511:A2 0.000791209
7 *3480:B1 0
8 *3486:B1 0
9 *3534:B1 0.000341752
10 *3429:B1 0.000176061
11 *3688:X 6.59538e-05
12 *1066:114 0.000734857
13 *1066:108 0.000943863
14 *1066:100 0.000963557
15 *1066:87 0.000489742
16 *1066:68 0.00154044
17 *1066:55 0.00092462
18 *1066:27 0.000534559
19 *1066:23 0.00097616
20 *1066:8 0.000632783
21 *3493:B2 *3493:B1 0.000125731
22 *3511:A2 *1071:6 1.46576e-05
23 *3527:A2 *3527:A1 8.6229e-06
24 *3527:A2 *1074:64 4.38148e-05
25 *3534:B1 *1072:93 6.57815e-05
26 *3534:B1 *1073:17 0
27 *3534:B1 *1073:30 0
28 *1066:27 *3486:B2 0.000105163
29 *1066:27 *3628:RESET_B 0.000350136
30 *1066:55 *3484:A 3.69047e-06
31 *1066:68 *2925:C1 0.000249958
32 *1066:68 *1074:36 0.000362825
33 *1066:68 *1074:111 8.52896e-05
34 *1066:68 *1075:30 0.000252028
35 *1066:68 *1075:58 0.000143887
36 *1066:68 *1075:62 2.39876e-05
37 *1066:87 *1075:62 0.000108314
38 *1066:100 *1075:62 0.000283061
39 *1066:108 *3623:RESET_B 4.42832e-05
40 *1066:108 *1085:85 9.23097e-05
41 *1066:114 *1072:12 5.74499e-06
42 *2925:A2 *3511:A2 0.000567284
43 *3417:D *3534:B1 1.43404e-05
44 *3417:D *1066:27 8.33869e-05
45 *3423:D_N *1066:55 0
46 *3429:A2 *3429:B1 2.37761e-05
47 *3429:A2 *1066:23 5.90443e-06
48 *3429:A3 *3429:B1 3.33174e-05
49 *3429:B2 *3429:B1 5.59013e-05
50 *3480:A2 *1066:55 7.00418e-05
51 *3480:A2 *1066:68 0.000158807
52 *3489:A *1066:108 1.41706e-05
53 *3491:A1 *1066:114 5.33334e-05
54 *3491:A2 *3500:B1 0.000190817
55 *3491:A2 *1066:114 0.00015481
56 *3491:B1 *3527:A2 0.000185643
57 *3493:A1_N *3527:A2 5.71472e-05
58 *3500:A1 *3500:B1 3.95455e-05
59 *3500:A2 *1066:108 1.76135e-05
60 *3500:A3 *3500:B1 3.23677e-05
61 *3500:A3 *1066:114 1.3701e-05
62 *3505:A2 *1066:87 0.000157252
63 *3505:A2 *1066:100 7.75093e-05
64 *3506:A1 *3506:B1 3.33174e-05
65 *3506:A2 *3527:A2 9.0175e-05
66 *3510:B *1066:87 0.000197977
67 *3511:B1 *3511:A2 4.80563e-05
68 *3511:C1 *3511:A2 1.46576e-05
69 *3517:A3 *1066:87 0.0002666
70 *3520:A1 *3520:A2 0.000140933
71 *3520:A1 *1066:108 0.000310298
72 *3527:B1 *3527:A2 1.38093e-05
73 *3527:B2 *3527:A2 8.56818e-05
74 *3534:A2 *3534:B1 0.000220414
75 *3534:A3 *3534:B1 3.66478e-05
76 *3620:D *1066:55 5.71472e-05
77 *3623:D *1066:108 5.01213e-05
78 *3623:D *1066:114 3.07696e-05
79 *3624:CLK *3500:B1 0
80 *3625:D *3511:A2 3.92854e-05
81 *3627:D *3527:A2 6.68309e-05
82 *3688:A *1066:23 0
83 *3689:A *1066:23 0
84 *3689:A *1066:55 6.09919e-05
85 *118:61 *3511:A2 0.00041129
86 *118:85 *3511:A2 0
87 *120:37 *1066:68 1.46624e-05
88 *120:37 *1066:87 4.30517e-05
89 *120:37 *1066:100 0.00016825
90 *122:12 *1066:68 2.34204e-05
91 *122:18 *1066:55 5.87768e-05
92 *122:102 *1066:108 0
93 *123:12 *1066:27 0.000183713
94 *124:10 *1066:108 7.85886e-05
95 *126:22 *3506:B1 3.33174e-05
96 *126:50 *3527:A2 6.42095e-05
97 *130:10 *3527:A2 0
98 *131:14 *3534:B1 0.000424562
99 *131:16 *3534:B1 0.000182694
100 *836:20 *3429:B1 0.000134748
101 *851:12 *1066:23 5.39552e-05
102 *851:12 *1066:55 0.000242432
103 *866:20 *3534:B1 0
104 *866:56 *1066:23 2.09826e-05
105 *900:8 *3534:B1 7.11733e-06
106 *900:8 *1066:27 0.000184495
107 *967:66 *3429:B1 1.96517e-05
108 *974:19 *3493:B2 0.000125731
109 *1061:207 *3527:A2 0.000110618
110 *1062:8 *1066:23 0.000170661
111 *1062:37 *1066:8 9.90431e-05
112 *1062:67 *1066:23 0.000311887
113 *1062:94 *1066:68 0
114 *1063:72 *3534:B1 9.54798e-06
115 *1063:83 *3534:B1 0.000549194
116 *1063:98 *3534:B1 6.8646e-06
*RES
1 *3688:X *1066:8 14.7464 
2 *1066:8 *3429:B1 18.2018 
3 *1066:8 *1066:23 8.55357 
4 *1066:23 *1066:27 11.4911 
5 *1066:27 *3534:B1 29.5857 
6 *1066:27 *3486:B1 9.3 
7 *1066:23 *1066:55 12.4196 
8 *1066:55 *3480:B1 9.3 
9 *1066:55 *1066:68 16.8304 
10 *1066:68 *3511:A2 34.1616 
11 *1066:68 *1066:87 6.5 
12 *1066:87 *3506:B1 14.1304 
13 *1066:87 *1066:100 11.9107 
14 *1066:100 *1066:108 21.9107 
15 *1066:108 *1066:114 4.67857 
16 *1066:114 *3527:A2 28.7286 
17 *1066:114 *3493:B2 19.9429 
18 *1066:108 *3500:B1 11.7018 
19 *1066:100 *3520:A2 10.6571 
*END

*D_NET *1067 0.0110336
*CONN
*I *3458:A2 I *D sky130_fd_sc_hd__a22o_1
*I *3464:A2 I *D sky130_fd_sc_hd__a221o_1
*I *3451:A2 I *D sky130_fd_sc_hd__a22o_1
*I *3435:B1 I *D sky130_fd_sc_hd__a32o_1
*I *3443:B1 I *D sky130_fd_sc_hd__a32o_1
*I *3471:B1 I *D sky130_fd_sc_hd__a32o_1
*I *3689:X O *D sky130_fd_sc_hd__clkbuf_2
*CAP
1 *3458:A2 0.000766275
2 *3464:A2 9.19317e-06
3 *3451:A2 3.0998e-05
4 *3435:B1 0.000224712
5 *3443:B1 4.68653e-05
6 *3471:B1 0.000268788
7 *3689:X 0
8 *1067:58 0.000542105
9 *1067:37 0.000587423
10 *1067:31 0.000333742
11 *1067:29 0.00145428
12 *1067:4 0.000886412
13 *3435:B1 *1083:23 0
14 *3458:A2 *3464:A1 8.3622e-05
15 *3458:A2 *1075:14 0
16 *3458:A2 *1075:24 9.44259e-05
17 *3464:A2 *1085:22 3.33238e-05
18 *3471:B1 *3471:B2 5.52238e-05
19 *3471:B1 *3628:RESET_B 0.000122866
20 *3471:B1 *1074:25 3.71496e-05
21 *1067:29 *3469:A 2.59355e-05
22 *1067:31 *3464:A1 6.94775e-05
23 *1067:37 *3464:A1 4.46186e-06
24 *1067:58 *1083:23 0.000691805
25 *3409:A *1067:58 2.14658e-05
26 *3410:A2 *1067:58 0.000127601
27 *3410:B1 *1067:58 4.97121e-06
28 *3418:B *3458:A2 4.28365e-05
29 *3435:A1 *3435:B1 0
30 *3435:A2 *3435:B1 3.52408e-05
31 *3435:A3 *3435:B1 0
32 *3438:A *3451:A2 0
33 *3440:A *1067:58 8.1802e-05
34 *3443:A2 *3443:B1 1.81084e-05
35 *3443:A2 *1067:37 0.00010096
36 *3443:A3 *1067:37 9.20908e-05
37 *3443:B2 *3443:B1 2.02165e-05
38 *3444:A2 *3443:B1 2.69792e-05
39 *3444:A2 *1067:37 1.61903e-05
40 *3444:A2 *1067:58 5.92452e-06
41 *3451:B1 *1067:58 3.18676e-05
42 *3451:B2 *1067:58 5.33334e-05
43 *3455:A *3458:A2 4.5894e-05
44 *3463:B *3458:A2 4.33438e-05
45 *3464:B1 *3464:A2 3.33238e-05
46 *3470:B1 *3471:B1 1.52978e-05
47 *3471:A3 *3471:B1 3.66478e-05
48 *3480:A2 *3471:B1 2.07382e-05
49 *3480:A2 *1067:29 0.000130075
50 *3511:B1 *3458:A2 6.057e-07
51 *3517:A1 *3458:A2 6.66789e-05
52 *3517:B1 *3458:A2 0.000148903
53 *3519:B1 *3458:A2 6.19181e-05
54 *3618:D *3458:A2 4.73656e-05
55 *3618:D *1067:29 2.59355e-05
56 *3618:D *1067:31 0.000135502
57 *3618:D *1067:37 5.7616e-05
58 *3689:A *3471:B1 6.09963e-05
59 *118:14 *1067:58 5.33005e-05
60 *118:27 *1067:58 7.48301e-06
61 *119:33 *3458:A2 1.02504e-05
62 *122:18 *3471:B1 9.25014e-06
63 *147:27 *3435:B1 8.04343e-05
64 *148:23 *1067:37 0.000186966
65 *148:23 *1067:58 5.10796e-05
66 *148:45 *3458:A2 0
67 *245:10 *3458:A2 0.00092295
68 *245:12 *3458:A2 0.000182286
69 *354:10 *1067:37 0
70 *354:10 *1067:58 0.000264521
71 *851:59 *3458:A2 0.000408204
72 *863:25 *1067:58 4.7312e-05
73 *866:79 *3458:A2 0.000124242
74 *866:79 *1067:37 5.066e-05
75 *1014:79 *1067:58 0.000212153
76 *1059:26 *3435:B1 0.000129107
77 *1059:26 *3451:A2 4.66511e-05
78 *1061:236 *3458:A2 0.000244331
79 *1062:37 *1067:58 2.05873e-05
80 *1062:67 *3471:B1 0
81 *1062:76 *3471:B1 0
82 *1062:123 *3458:A2 2.30116e-06
*RES
1 *3689:X *1067:4 9.3 
2 *1067:4 *3471:B1 23.4875 
3 *1067:4 *1067:29 12.5714 
4 *1067:29 *1067:31 1.94643 
5 *1067:31 *1067:37 10.6652 
6 *1067:37 *3443:B1 10.5545 
7 *1067:37 *1067:58 24.1741 
8 *1067:58 *3435:B1 17.7554 
9 *1067:58 *3451:A2 14.5321 
10 *1067:31 *3464:A2 14.1304 
11 *1067:29 *3458:A2 34.925 
*END

*D_NET *1068 0.00813276
*CONN
*I *3008:A I *D sky130_fd_sc_hd__or2_1
*I *3004:B I *D sky130_fd_sc_hd__or3b_1
*I *2930:B I *D sky130_fd_sc_hd__nor3_1
*I *2955:A2 I *D sky130_fd_sc_hd__o311a_1
*I *2931:A I *D sky130_fd_sc_hd__or3_4
*I *3690:X O *D sky130_fd_sc_hd__buf_6
*CAP
1 *3008:A 0.000321709
2 *3004:B 0
3 *2930:B 0
4 *2955:A2 0
5 *2931:A 0.000283152
6 *3690:X 0.000282917
7 *1068:53 0.00069788
8 *1068:18 0.000456263
9 *1068:14 0.000421939
10 *1068:10 0.000907916
11 *2931:A *2931:B 0.000191284
12 *1068:18 *2930:A 9.41642e-05
13 *2934:A1 *1068:10 5.5474e-05
14 *2934:A1 *1068:53 3.23658e-05
15 *2935:A2 *1068:14 0.000356028
16 *2935:A2 *1068:18 5.7661e-06
17 *2955:B1 *1068:18 5.52238e-05
18 *2955:C1 *1068:18 2.44318e-05
19 *2962:A *3008:A 0.000174805
20 *2963:A *2931:A 5.52238e-05
21 *2968:B1 *1068:53 0
22 *2969:B *1068:53 2.91887e-05
23 *3002:A *3008:A 7.79781e-06
24 *3008:B *3008:A 0.00014285
25 *3020:B1 *3008:A 0.000340788
26 *3414:B *1068:10 2.51989e-05
27 *3417:A_N *1068:10 3.84385e-05
28 *3536:B1 *1068:10 0
29 *3546:C *1068:10 5.52302e-05
30 *3547:B1 *1068:10 3.18676e-05
31 *3551:B1 *1068:10 0
32 *135:12 *1068:10 2.19684e-05
33 *136:36 *2931:A 4.35336e-05
34 *136:66 *2931:A 3.69047e-06
35 *136:66 *1068:18 2.24195e-05
36 *141:17 *2931:A 9.91086e-05
37 *141:49 *2931:A 4.49293e-05
38 *352:27 *1068:53 0.000277592
39 *363:6 *1068:14 0.000139907
40 *363:25 *1068:14 0.00012747
41 *368:12 *1068:14 4.47653e-05
42 *380:19 *2931:A 9.344e-05
43 *381:12 *2931:A 0.000143971
44 *388:10 *3008:A 5.03787e-05
45 *392:29 *3008:A 0
46 *392:29 *1068:53 0
47 *392:33 *1068:53 0
48 *395:10 *3008:A 0
49 *439:6 *3008:A 0.000195386
50 *984:10 *3008:A 4.73656e-05
51 *984:10 *1068:10 0.000568552
52 *984:10 *1068:53 0.000848915
53 *985:20 *3008:A 0
54 *1064:106 *2931:A 0.00027147
*RES
1 *3690:X *1068:10 21.7464 
2 *1068:10 *1068:14 10.375 
3 *1068:14 *1068:18 3.42857 
4 *1068:18 *2931:A 26.6036 
5 *1068:18 *2955:A2 9.3 
6 *1068:14 *2930:B 9.3 
7 *1068:10 *1068:53 11.0536 
8 *1068:53 *3004:B 13.8 
9 *1068:53 *3008:A 23.1036 
*END

*D_NET *1069 0.011354
*CONN
*I *3414:A I *D sky130_fd_sc_hd__or4_1
*I *2961:A_N I *D sky130_fd_sc_hd__nand2b_1
*I *2930:A I *D sky130_fd_sc_hd__nor3_1
*I *2931:B I *D sky130_fd_sc_hd__or3_4
*I *2955:A1 I *D sky130_fd_sc_hd__o311a_1
*I *3691:X O *D sky130_fd_sc_hd__buf_6
*CAP
1 *3414:A 0.000841363
2 *2961:A_N 0.000398593
3 *2930:A 3.76055e-05
4 *2931:B 0.000359256
5 *2955:A1 0
6 *3691:X 0.000549374
7 *1069:67 0.00142484
8 *1069:50 0.000273178
9 *1069:20 0.000698968
10 *1069:12 0.000939776
11 *3414:A *3637:RESET_B 0.000250844
12 *1069:12 *3702:A 8.39e-05
13 *1069:67 *3637:RESET_B 9.43546e-06
14 *1124:DIODE *3414:A 0.000122682
15 *2799:C1 *1069:12 0.000117144
16 *2930:C *1069:12 0
17 *2931:A *2931:B 0.000191284
18 *2931:C *2931:B 5.83694e-05
19 *2933:A *1069:67 3.14078e-05
20 *2933:B *1069:50 3.17148e-05
21 *2933:B *1069:67 0.000141375
22 *2933:C *1069:67 1.33343e-05
23 *2935:B1 *1069:12 0.000260672
24 *2955:C1 *2930:A 5.52238e-05
25 *2963:A *2931:B 3.97677e-05
26 *2965:A2 *2961:A_N 0.000114045
27 *2990:B1 *3414:A 8.71847e-05
28 *2997:B2 *2931:B 0.000111765
29 *3005:B2 *2961:A_N 0.000430646
30 *3005:B2 *1069:67 7.06079e-05
31 *3414:C *3414:A 0.000160898
32 *3548:A1_N *1069:12 0.00015234
33 *3551:B2 *1069:12 0.000134126
34 *3554:A3 *1069:12 0
35 *129:64 *3414:A 3.89493e-05
36 *131:53 *3414:A 0
37 *131:66 *3414:A 2.42516e-05
38 *131:68 *3414:A 5.035e-05
39 *135:61 *1069:20 1.39726e-05
40 *135:65 *2931:B 5.80706e-06
41 *135:65 *1069:20 2.72545e-05
42 *135:102 *1069:12 4.46186e-06
43 *135:102 *1069:50 6.5185e-05
44 *135:102 *1069:67 4.46186e-06
45 *136:21 *1069:12 0
46 *136:32 *1069:20 7.6644e-05
47 *136:94 *2961:A_N 0
48 *137:40 *1069:20 2.8266e-06
49 *137:47 *1069:20 7.16452e-05
50 *137:58 *1069:12 5.66157e-05
51 *137:58 *1069:20 0.000102197
52 *137:58 *1069:50 9.22948e-05
53 *141:25 *2931:B 0.000135028
54 *350:8 *3414:A 5.33005e-05
55 *350:23 *3414:A 3.17148e-05
56 *366:10 *3414:A 0.000356028
57 *369:43 *1069:12 0
58 *380:8 *2931:B 1.02936e-05
59 *380:19 *2931:B 4.61037e-05
60 *380:19 *1069:20 4.46186e-06
61 *381:12 *2931:B 5.52238e-05
62 *385:18 *2961:A_N 0.000267814
63 *392:29 *2961:A_N 9.71197e-05
64 *395:10 *3414:A 7.49387e-06
65 *420:12 *2961:A_N 9.09153e-05
66 *954:23 *1069:12 0.000185297
67 *960:6 *2931:B 9.90367e-05
68 *967:116 *1069:12 0.000148903
69 *967:131 *1069:12 0.000313458
70 *985:20 *2961:A_N 0.000216609
71 *1064:106 *2931:B 0.000312382
72 *1064:106 *1069:20 0
73 *1068:18 *2930:A 9.41642e-05
*RES
1 *3691:X *1069:12 29.4607 
2 *1069:12 *1069:20 14.0536 
3 *1069:20 *2955:A1 13.8 
4 *1069:20 *2931:B 32.3893 
5 *1069:12 *1069:50 1.64286 
6 *1069:50 *2930:A 14.7464 
7 *1069:50 *1069:67 8.23214 
8 *1069:67 *2961:A_N 29.6929 
9 *1069:67 *3414:A 34.9607 
*END

*D_NET *1070 0.0138544
*CONN
*I *3524:A I *D sky130_fd_sc_hd__or2_1
*I *3527:A1 I *D sky130_fd_sc_hd__a22o_1
*I *3525:A I *D sky130_fd_sc_hd__nand2_1
*I *3530:A1 I *D sky130_fd_sc_hd__a21oi_1
*I *2926:A I *D sky130_fd_sc_hd__or4bb_1
*I *3411:A I *D sky130_fd_sc_hd__and4_1
*I *2984:A I *D sky130_fd_sc_hd__xnor2_1
*I *2990:A1 I *D sky130_fd_sc_hd__o31ai_1
*I *2917:A I *D sky130_fd_sc_hd__or2_1
*I *2918:B1 I *D sky130_fd_sc_hd__a211o_1
*I *3692:X O *D sky130_fd_sc_hd__buf_2
*CAP
1 *3524:A 0.000182931
2 *3527:A1 8.74572e-05
3 *3525:A 2.76349e-05
4 *3530:A1 0.000216664
5 *2926:A 5.1538e-05
6 *3411:A 0.00021967
7 *2984:A 7.81434e-05
8 *2990:A1 0.000420488
9 *2917:A 0
10 *2918:B1 0
11 *3692:X 0.000182654
12 *1070:88 0.000274829
13 *1070:64 0.000271208
14 *1070:40 0.000642495
15 *1070:31 0.000227402
16 *1070:22 0.000325466
17 *1070:16 0.000733379
18 *1070:14 0.000614054
19 *1070:12 0.000313499
20 *1070:10 0.000499553
21 *3411:A *2927:B 0
22 *3411:A *3412:A_N 0
23 *3411:A *1073:54 0
24 *1070:16 *1071:24 0.000149968
25 *1070:16 *1071:30 0.00010416
26 *1070:22 *1071:30 0.000325543
27 *1070:22 *1071:43 1.02504e-05
28 *1070:31 *1071:43 0.000206449
29 *1070:40 *1071:43 0.00016284
30 *1102:DIODE *3530:A1 1.24368e-05
31 *2918:C1 *1070:22 5.80706e-06
32 *2918:C1 *1070:31 3.00441e-05
33 *2928:D *2926:A 4.1834e-05
34 *2928:D *3411:A 7.69776e-06
35 *2929:A2 *3524:A 0.000549806
36 *2929:A2 *1070:12 0.000538353
37 *2929:A2 *1070:14 0.000366697
38 *2929:A2 *1070:16 0.000801233
39 *2929:B1 *3411:A 0
40 *2934:A2 *2926:A 0
41 *2983:A *2984:A 9.60875e-05
42 *2984:B *2984:A 5.33005e-05
43 *2986:A *2984:A 0.000121573
44 *2986:A *1070:40 4.49293e-05
45 *2990:A2 *2990:A1 1.81448e-05
46 *2990:A3 *2990:A1 6.70015e-05
47 *2991:A1 *1070:40 4.38365e-05
48 *3411:B *3411:A 0.000151843
49 *3411:D *3411:A 5.23057e-05
50 *3414:C *1070:22 1.27784e-05
51 *3415:C *3411:A 3.34672e-05
52 *3417:D *3530:A1 7.38492e-05
53 *3417:D *1070:88 1.62435e-06
54 *3419:A *1070:10 2.07728e-05
55 *3419:A *1070:14 1.39702e-05
56 *3419:A *1070:16 0.000452695
57 *3419:A *1070:22 0.000168825
58 *3423:B *1070:10 1.34009e-05
59 *3506:A2 *3527:A1 4.20366e-05
60 *3525:B *3530:A1 0.000146394
61 *3526:A3 *3530:A1 4.9663e-07
62 *3526:A3 *1070:88 4.50473e-05
63 *3527:A2 *3527:A1 8.6229e-06
64 *3527:B2 *1070:88 4.99283e-06
65 *3530:A2 *3530:A1 1.00733e-05
66 *3531:C *3524:A 0.000575629
67 *3531:C *1070:12 0.000569005
68 *3531:C *1070:14 0.000345563
69 *3532:A *3530:A1 2.69767e-06
70 *3532:A *1070:88 2.73478e-05
71 *3532:C *3530:A1 5.04841e-06
72 *122:102 *1070:10 0
73 *129:81 *1070:31 0.000150625
74 *129:81 *1070:40 0.00038501
75 *131:28 *3530:A1 5.4695e-05
76 *131:53 *2926:A 0.000104044
77 *131:53 *3411:A 0.000112954
78 *132:62 *1070:22 3.09981e-05
79 *383:40 *2984:A 1.55885e-05
80 *390:34 *2990:A1 7.79763e-06
81 *390:42 *1070:40 0.000121573
82 *393:8 *2990:A1 0.000178847
83 *393:10 *2990:A1 0.000181796
84 *417:10 *2984:A 0.000112323
85 *417:10 *1070:40 5.41794e-05
86 *931:16 *3530:A1 9.99644e-06
87 *931:18 *3530:A1 3.18676e-05
88 *967:168 *3525:A 2.89114e-05
89 *1060:29 *1070:10 0.000262826
90 *1061:207 *3527:A1 0.000104778
*RES
1 *3692:X *1070:10 20.8261 
2 *1070:10 *1070:12 0.9118 
3 *1070:12 *1070:14 0.623533 
4 *1070:14 *1070:16 1.9928 
5 *1070:16 *1070:22 5.66874 
6 *1070:22 *2918:B1 13.8 
7 *1070:22 *1070:31 2.85714 
8 *1070:31 *2917:A 13.8 
9 *1070:31 *1070:40 5.58929 
10 *1070:40 *2990:A1 19.5857 
11 *1070:40 *2984:A 16.3893 
12 *1070:16 *1070:64 3.41 
13 *1070:64 *3411:A 18.5768 
14 *1070:64 *2926:A 15.2911 
15 *1070:14 *1070:88 4.29393 
16 *1070:88 *3530:A1 18.6929 
17 *1070:88 *3525:A 14.3357 
18 *1070:12 *3527:A1 18.7011 
19 *1070:10 *3524:A 18.7022 
*END

*D_NET *1071 0.0151208
*CONN
*I *3511:A1 I *D sky130_fd_sc_hd__a221o_1
*I *3510:A I *D sky130_fd_sc_hd__xor2_1
*I *3515:A I *D sky130_fd_sc_hd__and3_1
*I *2927:B I *D sky130_fd_sc_hd__nand2b_1
*I *3412:A_N I *D sky130_fd_sc_hd__and4b_1
*I *2967:A1 I *D sky130_fd_sc_hd__o21a_1
*I *2972:A I *D sky130_fd_sc_hd__xnor2_2
*I *2985:A1 I *D sky130_fd_sc_hd__o22a_1
*I *2959:A1 I *D sky130_fd_sc_hd__o21bai_4
*I *2918:A1 I *D sky130_fd_sc_hd__a211o_1
*I *3693:X O *D sky130_fd_sc_hd__clkbuf_4
*CAP
1 *3511:A1 0
2 *3510:A 2.37855e-05
3 *3515:A 0
4 *2927:B 3.61655e-05
5 *3412:A_N 6.82695e-05
6 *2967:A1 3.41891e-05
7 *2972:A 0.000181874
8 *2985:A1 1.40568e-05
9 *2959:A1 0
10 *2918:A1 0
11 *3693:X 8.89255e-05
12 *1071:91 0.000104435
13 *1071:62 0.000402062
14 *1071:58 0.000408308
15 *1071:43 0.000412169
16 *1071:30 0.000746825
17 *1071:24 0.00177008
18 *1071:14 0.00152201
19 *1071:12 0.000777366
20 *1071:6 0.000587926
21 *1071:24 *1075:62 0.000137103
22 *1071:30 *3637:RESET_B 0
23 *1071:43 *3637:RESET_B 0
24 *2918:A2 *1071:30 1.02504e-05
25 *2918:A2 *1071:43 2.86989e-05
26 *2929:A2 *1071:24 0.00239148
27 *2934:A2 *2927:B 1.25355e-05
28 *2967:B1 *1071:58 9.71197e-05
29 *2969:A *1071:43 0
30 *2971:A1 *2972:A 2.8266e-06
31 *2971:A1 *1071:62 4.75428e-05
32 *2971:B1 *2985:A1 5.52238e-05
33 *2972:B *2972:A 0
34 *2979:B1 *1071:62 9.73934e-05
35 *2991:A1 *1071:43 3.34366e-05
36 *3411:A *2927:B 0
37 *3411:A *3412:A_N 0
38 *3412:B *2927:B 2.05484e-05
39 *3412:B *3412:A_N 8.46642e-05
40 *3415:C *3412:A_N 0.000128146
41 *3416:A1 *1071:24 1.67937e-05
42 *3418:A *1071:12 4.22627e-05
43 *3418:A *1071:14 5.73015e-05
44 *3419:A *1071:30 1.37319e-05
45 *3422:A1 *1071:24 0.000141111
46 *3423:A *1071:24 0.000234306
47 *3510:B *1071:14 0.000144951
48 *3511:A2 *1071:6 1.46576e-05
49 *3511:B2 *1071:12 9.40041e-05
50 *3511:C1 *1071:6 9.93914e-05
51 *3511:C1 *1071:12 0.000138032
52 *3516:A *1071:14 5.33005e-05
53 *3526:B1 *1071:24 1.8115e-05
54 *3527:B1 *1071:24 2.27189e-05
55 *3533:A2 *1071:24 0.000732576
56 *3536:B1 *1071:30 0
57 *3663:A *1071:30 4.53834e-05
58 *129:81 *1071:58 0.000197991
59 *131:40 *2927:B 1.25355e-05
60 *132:62 *1071:30 0
61 *350:23 *1071:58 0.000136958
62 *382:48 *2985:A1 2.89016e-05
63 *384:10 *1071:58 4.46186e-06
64 *384:19 *1071:58 7.38748e-05
65 *384:32 *1071:58 2.26327e-05
66 *384:32 *1071:62 0.000333493
67 *385:6 *1071:58 3.63775e-05
68 *390:42 *1071:58 6.05161e-06
69 *390:66 *2967:A1 8.76257e-05
70 *390:66 *1071:58 0.000139913
71 *395:10 *1071:43 0
72 *410:8 *2972:A 6.07532e-05
73 *410:8 *1071:62 3.01126e-05
74 *412:10 *2972:A 5.52302e-05
75 *998:14 *1071:30 9.23805e-05
76 *1060:135 *1071:24 0.000491455
77 *1061:176 *1071:24 7.93316e-05
78 *1061:176 *1071:30 7.7505e-05
79 *1070:16 *1071:24 0.000149968
80 *1070:16 *1071:30 0.00010416
81 *1070:22 *1071:30 0.000325543
82 *1070:22 *1071:43 1.02504e-05
83 *1070:31 *1071:43 0.000206449
84 *1070:40 *1071:43 0.00016284
*RES
1 *3693:X *1071:6 11.0679 
2 *1071:6 *1071:12 6.73214 
3 *1071:12 *1071:14 4.64286 
4 *1071:14 *1071:24 14.2292 
5 *1071:24 *1071:30 7.31542 
6 *1071:30 *2918:A1 13.8 
7 *1071:30 *1071:43 10.0179 
8 *1071:43 *2959:A1 9.3 
9 *1071:43 *1071:58 14.2679 
10 *1071:58 *1071:62 9.78571 
11 *1071:62 *2985:A1 14.3357 
12 *1071:62 *2972:A 17.4071 
13 *1071:58 *2967:A1 10.2464 
14 *1071:24 *1071:91 3.41 
15 *1071:91 *3412:A_N 15.8982 
16 *1071:91 *2927:B 14.6393 
17 *1071:14 *3515:A 9.3 
18 *1071:12 *3510:A 9.72857 
19 *1071:6 *3511:A1 9.3 
*END

*D_NET *1072 0.0129559
*CONN
*I *3493:B1 I *D sky130_fd_sc_hd__a2bb2o_1
*I *3498:A I *D sky130_fd_sc_hd__and3_1
*I *3490:B I *D sky130_fd_sc_hd__and3_1
*I *3416:A2 I *D sky130_fd_sc_hd__o31a_1
*I *3412:C I *D sky130_fd_sc_hd__and4b_1
*I *2974:A I *D sky130_fd_sc_hd__xor2_2
*I *2978:A2 I *D sky130_fd_sc_hd__o221a_1
*I *2979:A2_N I *D sky130_fd_sc_hd__a2bb2o_4
*I *2958:A2 I *D sky130_fd_sc_hd__o211a_1
*I *2928:A I *D sky130_fd_sc_hd__or4_1
*I *3694:X O *D sky130_fd_sc_hd__buf_2
*CAP
1 *3493:B1 0.000118041
2 *3498:A 0
3 *3490:B 0.000101868
4 *3416:A2 1.99857e-05
5 *3412:C 0.000134614
6 *2974:A 0.000385569
7 *2978:A2 0
8 *2979:A2_N 0
9 *2958:A2 0
10 *2928:A 0.000121033
11 *3694:X 5.85668e-05
12 *1072:93 0.00113738
13 *1072:79 0.00150609
14 *1072:75 0.000555015
15 *1072:73 0.000298251
16 *1072:26 0.000247337
17 *1072:22 0.000296947
18 *1072:14 0.000264242
19 *1072:12 0.00120252
20 *1072:6 0.000828553
21 *2928:A *1073:54 0.000219599
22 *2928:A *1073:67 1.02504e-05
23 *2974:A *1073:75 3.34366e-05
24 *2974:A *1073:86 0.000387425
25 *3490:B *1074:64 7.02611e-05
26 *1072:22 *1073:75 0
27 *1072:26 *1073:67 0.000167691
28 *1072:79 *1073:36 0.00012432
29 *1072:79 *1074:64 3.7413e-05
30 *1072:93 *1073:50 1.2515e-05
31 *1072:93 *1074:64 4.87854e-05
32 *1072:93 *1085:66 0.000190385
33 *2973:A1 *2974:A 0.00017309
34 *2977:C *2974:A 1.24368e-05
35 *2980:A1 *1072:22 5.33786e-05
36 *2980:B1 *2974:A 0.000177941
37 *2987:B *1072:12 0.000232399
38 *3412:D *3412:C 0.000128001
39 *3413:C *3412:C 0.000136951
40 *3417:A_N *2928:A 5.33005e-05
41 *3489:A *3493:B1 0
42 *3489:A *1072:75 0
43 *3489:B *1072:75 7.4826e-05
44 *3491:A1 *3493:B1 1.88048e-05
45 *3491:A1 *1072:75 2.56601e-05
46 *3491:A2 *1072:6 9.90367e-05
47 *3491:A2 *1072:12 5.52302e-05
48 *3493:B2 *3493:B1 0.000125731
49 *3534:A2 *1072:93 0.000315165
50 *3534:A3 *1072:93 1.97865e-05
51 *3534:B1 *1072:93 6.57815e-05
52 *3543:C *3412:C 9.23242e-05
53 *3543:C *1072:93 3.41099e-05
54 *3628:D *1072:93 1.02504e-05
55 *124:10 *3493:B1 0
56 *125:59 *1072:22 5.38886e-05
57 *126:50 *3493:B1 4.73656e-05
58 *126:50 *1072:12 0.000314325
59 *126:50 *1072:75 0.000280028
60 *126:50 *1072:79 0.000213456
61 *126:62 *2974:A 0
62 *126:62 *1072:12 0.000152036
63 *126:74 *2928:A 7.41431e-05
64 *126:74 *1072:26 4.1331e-06
65 *129:56 *2928:A 5.52302e-05
66 *131:14 *1072:93 1.21258e-05
67 *131:34 *1072:93 9.33978e-07
68 *390:66 *1072:22 9.09669e-05
69 *400:12 *2974:A 0
70 *413:8 *2974:A 0.000117945
71 *843:22 *1072:79 9.87627e-05
72 *902:21 *1072:75 5.80706e-06
73 *902:21 *1072:79 0.000222153
74 *914:23 *1072:75 0
75 *931:8 *1072:79 7.29712e-05
76 *931:16 *1072:79 0.000181648
77 *942:16 *1072:93 9.13083e-05
78 *943:6 *1072:93 1.6539e-05
79 *974:8 *1072:79 2.61375e-05
80 *974:19 *3493:B1 1.721e-05
81 *974:49 *1072:79 0.000233626
82 *1061:199 *1072:79 8.51213e-05
83 *1066:114 *1072:12 5.74499e-06
*RES
1 *3694:X *1072:6 10.2464 
2 *1072:6 *1072:12 11.6607 
3 *1072:12 *1072:14 1.35714 
4 *1072:14 *1072:22 8.125 
5 *1072:22 *1072:26 2.78571 
6 *1072:26 *2928:A 17.1929 
7 *1072:26 *2958:A2 13.8 
8 *1072:22 *2979:A2_N 13.8 
9 *1072:14 *2978:A2 9.3 
10 *1072:12 *2974:A 27.7821 
11 *1072:6 *1072:73 5.03571 
12 *1072:73 *1072:75 3.76786 
13 *1072:75 *1072:79 15.5536 
14 *1072:79 *1072:93 22.625 
15 *1072:93 *3412:C 12.3 
16 *1072:93 *3416:A2 9.72857 
17 *1072:79 *3490:B 10.6571 
18 *1072:75 *3498:A 13.8 
19 *1072:73 *3493:B1 16.6571 
*END

*D_NET *1073 0.0104856
*CONN
*I *3483:A I *D sky130_fd_sc_hd__nor2_1
*I *3490:A I *D sky130_fd_sc_hd__and3_1
*I *2929:A1 I *D sky130_fd_sc_hd__a21oi_1
*I *2979:A1_N I *D sky130_fd_sc_hd__a2bb2o_4
*I *2973:B1 I *D sky130_fd_sc_hd__a21o_1
*I *2975:C_N I *D sky130_fd_sc_hd__or3b_1
*I *2978:A1 I *D sky130_fd_sc_hd__o221a_1
*I *2958:A1 I *D sky130_fd_sc_hd__o211a_1
*I *3484:A I *D sky130_fd_sc_hd__and2_1
*I *3486:B2 I *D sky130_fd_sc_hd__a32o_1
*I *3695:X O *D sky130_fd_sc_hd__clkbuf_2
*CAP
1 *3483:A 0
2 *3490:A 9.96329e-05
3 *2929:A1 0
4 *2979:A1_N 0
5 *2973:B1 0.00014749
6 *2975:C_N 8.73276e-05
7 *2978:A1 0
8 *2958:A1 0
9 *3484:A 0.000198826
10 *3486:B2 5.03644e-05
11 *3695:X 0
12 *1073:86 0.000404375
13 *1073:75 0.000474314
14 *1073:67 0.000383993
15 *1073:54 0.000354316
16 *1073:50 0.00140846
17 *1073:36 0.0013922
18 *1073:30 0.000284557
19 *1073:17 0.000406319
20 *1073:4 0.00013248
21 *3484:A *3628:RESET_B 4.59075e-05
22 *3490:A *1074:64 2.77258e-05
23 *1073:17 *3628:RESET_B 6.8646e-06
24 *1073:30 *3628:RESET_B 7.80714e-06
25 *1073:36 *1074:64 7.69543e-05
26 *1073:50 *1074:64 1.58163e-05
27 *2928:A *1073:54 0.000219599
28 *2928:A *1073:67 1.02504e-05
29 *2928:B *1073:54 0.000128154
30 *2928:C *1073:54 0
31 *2929:A2 *1073:50 1.02504e-05
32 *2929:A2 *1073:54 6.10018e-06
33 *2929:B1 *1073:54 9.77884e-05
34 *2973:A2 *2973:B1 3.43032e-05
35 *2973:A2 *2975:C_N 0.000271345
36 *2974:A *1073:75 3.34366e-05
37 *2974:A *1073:86 0.000387425
38 *2975:A *2975:C_N 5.52302e-05
39 *2975:B *1073:86 6.98762e-05
40 *2978:B1 *1073:86 0
41 *2980:A1 *1073:75 0.000125896
42 *2980:A1 *1073:86 6.16744e-05
43 *3411:A *1073:54 0
44 *3412:B *1073:50 4.28821e-05
45 *3412:B *1073:54 4.46186e-06
46 *3412:D *1073:50 0.000175928
47 *3413:A *1073:50 4.6025e-06
48 *3413:C *1073:50 0.00014183
49 *3415:C *1073:50 0
50 *3416:A3 *1073:50 4.8843e-05
51 *3416:B1 *1073:50 2.14757e-05
52 *3417:B *1073:50 0
53 *3423:A *1073:50 0
54 *3476:B *3484:A 0.00018077
55 *3484:B *3484:A 3.97677e-05
56 *3533:A2 *1073:50 0
57 *3534:A3 *1073:50 0.000595916
58 *3534:B1 *1073:17 0
59 *3534:B1 *1073:30 0
60 *3543:C *1073:50 7.06957e-05
61 *122:18 *3484:A 0.000135028
62 *125:59 *1073:54 3.34366e-05
63 *125:59 *1073:67 0.000169405
64 *126:62 *1073:75 0
65 *126:74 *1073:54 0
66 *131:14 *1073:30 0
67 *131:53 *1073:54 0
68 *401:10 *2973:B1 3.63775e-05
69 *866:20 *3484:A 5.33005e-05
70 *866:20 *1073:17 9.91086e-05
71 *882:57 *3490:A 5.04841e-06
72 *900:8 *3486:B2 0.000186662
73 *902:10 *3484:A 0.000227532
74 *902:10 *1073:30 9.69701e-05
75 *902:10 *1073:36 2.47093e-05
76 *902:21 *1073:36 1.77672e-05
77 *974:53 *1073:36 8.66324e-05
78 *974:63 *1073:30 3.84478e-05
79 *974:63 *1073:36 1.76039e-05
80 *1066:27 *3486:B2 0.000105163
81 *1066:55 *3484:A 3.69047e-06
82 *1072:22 *1073:75 0
83 *1072:26 *1073:67 0.000167691
84 *1072:79 *1073:36 0.00012432
85 *1072:93 *1073:50 1.2515e-05
*RES
1 *3695:X *1073:4 9.3 
2 *1073:4 *3486:B2 11.4964 
3 *1073:4 *1073:17 6.14286 
4 *1073:17 *3484:A 18.8714 
5 *1073:17 *1073:30 2.85714 
6 *1073:30 *1073:36 8.5 
7 *1073:36 *1073:50 23.0357 
8 *1073:50 *1073:54 5.51786 
9 *1073:54 *2958:A1 13.8 
10 *1073:54 *1073:67 7.28571 
11 *1073:67 *1073:75 10.2679 
12 *1073:75 *2978:A1 13.8 
13 *1073:75 *1073:86 9.48214 
14 *1073:86 *2975:C_N 11.8893 
15 *1073:86 *2973:B1 11.925 
16 *1073:67 *2979:A1_N 9.3 
17 *1073:50 *2929:A1 13.8 
18 *1073:36 *3490:A 10.675 
19 *1073:30 *3483:A 13.8 
*END

*D_NET *1074 0.0137695
*CONN
*I *3468:A I *D sky130_fd_sc_hd__or2_1
*I *2925:C1 I *D sky130_fd_sc_hd__a211o_1
*I *3420:D_N I *D sky130_fd_sc_hd__or4b_1
*I *3421:A I *D sky130_fd_sc_hd__or4b_1
*I *3478:A I *D sky130_fd_sc_hd__and3_1
*I *3477:A1 I *D sky130_fd_sc_hd__a21oi_1
*I *3476:A I *D sky130_fd_sc_hd__and3_1
*I *3101:B1 I *D sky130_fd_sc_hd__a21o_1
*I *3469:A I *D sky130_fd_sc_hd__nand2_1
*I *3471:B2 I *D sky130_fd_sc_hd__a32o_1
*I *3696:X O *D sky130_fd_sc_hd__clkbuf_2
*CAP
1 *3468:A 0
2 *2925:C1 0.000121606
3 *3420:D_N 0.000293738
4 *3421:A 0.000138041
5 *3478:A 0
6 *3477:A1 0
7 *3476:A 0.000168052
8 *3101:B1 0
9 *3469:A 2.04426e-05
10 *3471:B2 1.91558e-05
11 *3696:X 5.60806e-05
12 *1074:111 0.000489328
13 *1074:73 0.000238911
14 *1074:64 0.00148351
15 *1074:48 0.00167264
16 *1074:42 0.000233097
17 *1074:40 0.000371414
18 *1074:36 0.000349387
19 *1074:25 0.000351305
20 *1074:10 0.00030856
21 *1074:6 0.000171475
22 *3421:A *3421:D_N 3.34366e-05
23 *3421:A *1075:30 0
24 *3471:B2 *3628:RESET_B 1.69961e-05
25 *3476:A *3628:RESET_B 6.19234e-05
26 *1074:6 *1085:22 2.44318e-05
27 *1074:10 *3628:RESET_B 9.60875e-05
28 *1074:10 *1085:22 4.59075e-05
29 *1074:25 *3620:RESET_B 0.000181078
30 *1074:25 *3628:RESET_B 9.25014e-06
31 *1074:36 *3620:RESET_B 0.000168781
32 *1074:40 *1075:30 4.58194e-05
33 *3042:B1 *1074:64 0
34 *3044:B *1074:64 0.000100831
35 *3045:B *1074:64 1.69115e-05
36 *3047:A2 *1074:64 5.57727e-05
37 *3101:A2 *1074:64 2.8266e-06
38 *3422:B2 *3420:D_N 0.000342735
39 *3423:D_N *3421:A 3.72472e-05
40 *3468:B *1074:6 0.00010096
41 *3468:B *1074:10 0.00010096
42 *3470:A1 *1074:10 9.90431e-05
43 *3471:A2 *3471:B2 1.5424e-05
44 *3471:A2 *1074:10 1.02821e-05
45 *3471:A2 *1074:25 9.90367e-05
46 *3471:A3 *3471:B2 5.52238e-05
47 *3471:A3 *1074:10 0
48 *3471:A3 *1074:25 0
49 *3471:B1 *3471:B2 5.52238e-05
50 *3471:B1 *1074:25 3.71496e-05
51 *3476:C *3476:A 0.000178519
52 *3480:A2 *3469:A 5.33005e-05
53 *3484:B *3476:A 1.73088e-05
54 *3490:A *1074:64 2.77258e-05
55 *3490:B *1074:64 7.02611e-05
56 *3491:B1 *1074:64 0.000171375
57 *3493:A1_N *1074:64 6.74911e-05
58 *3527:A2 *1074:64 4.38148e-05
59 *3622:CLK *1074:64 0
60 *3622:D *1074:64 0
61 *120:37 *2925:C1 0.000124564
62 *120:37 *1074:111 7.69776e-06
63 *121:33 *1074:64 0
64 *122:12 *1074:25 0
65 *122:12 *1074:36 0
66 *122:18 *1074:25 0
67 *122:108 *1074:64 0
68 *124:10 *1074:64 0
69 *470:25 *1074:64 0.000103152
70 *849:12 *3476:A 2.0587e-05
71 *849:12 *1074:73 7.26935e-05
72 *882:10 *1074:36 5.29648e-05
73 *882:45 *1074:36 2.99719e-05
74 *882:45 *1074:40 0.000354098
75 *882:45 *1074:42 0.000435839
76 *882:45 *1074:48 6.66148e-05
77 *882:45 *1074:111 6.4974e-06
78 *882:57 *3476:A 1.02504e-05
79 *882:57 *1074:48 9.24253e-05
80 *882:57 *1074:64 2.59355e-05
81 *882:57 *1074:73 0.000187733
82 *895:21 *3476:A 4.78056e-05
83 *902:10 *3476:A 3.79502e-05
84 *907:10 *1074:42 4.16984e-05
85 *907:10 *1074:48 0.000195845
86 *931:16 *1074:64 7.49426e-05
87 *974:8 *1074:64 0.000345526
88 *974:19 *1074:64 0.000559342
89 *974:53 *1074:64 0.000185485
90 *1057:107 *1074:64 0
91 *1061:199 *1074:64 8.51213e-05
92 *1061:207 *1074:64 0.000628332
93 *1062:94 *3421:A 0
94 *1062:94 *1074:42 0.000143566
95 *1063:98 *1074:64 0
96 *1066:68 *2925:C1 0.000249958
97 *1066:68 *1074:36 0.000362825
98 *1066:68 *1074:111 8.52896e-05
99 *1067:29 *3469:A 2.59355e-05
100 *1072:79 *1074:64 3.7413e-05
101 *1072:93 *1074:64 4.87854e-05
102 *1073:36 *1074:64 7.69543e-05
103 *1073:50 *1074:64 1.58163e-05
*RES
1 *3696:X *1074:6 10.6571 
2 *1074:6 *1074:10 3.42857 
3 *1074:10 *3471:B2 10.2464 
4 *1074:10 *1074:25 8.42857 
5 *1074:25 *3469:A 14.3357 
6 *1074:25 *1074:36 5.28571 
7 *1074:36 *1074:40 7.91071 
8 *1074:40 *1074:42 4.23214 
9 *1074:42 *1074:48 3.44643 
10 *1074:48 *1074:64 42.8929 
11 *1074:64 *3101:B1 9.3 
12 *1074:48 *1074:73 7.05357 
13 *1074:73 *3476:A 17.425 
14 *1074:73 *3477:A1 13.8 
15 *1074:42 *3478:A 9.3 
16 *1074:40 *3421:A 20.2464 
17 *1074:36 *1074:111 1.33929 
18 *1074:111 *3420:D_N 18.05 
19 *1074:111 *2925:C1 17.2643 
20 *1074:6 *3468:A 9.3 
*END

*D_NET *1075 0.0133606
*CONN
*I *3462:A I *D sky130_fd_sc_hd__or2_1
*I *3464:A1 I *D sky130_fd_sc_hd__a221o_1
*I *3461:A I *D sky130_fd_sc_hd__and2_1
*I *2925:A1 I *D sky130_fd_sc_hd__a211o_1
*I *3105:A I *D sky130_fd_sc_hd__or2_1
*I *3138:B1 I *D sky130_fd_sc_hd__a31o_4
*I *3106:A1 I *D sky130_fd_sc_hd__o211ai_2
*I *3139:A I *D sky130_fd_sc_hd__xnor2_1
*I *3420:C I *D sky130_fd_sc_hd__or4b_1
*I *3421:D_N I *D sky130_fd_sc_hd__or4b_1
*I *3697:X O *D sky130_fd_sc_hd__buf_2
*CAP
1 *3462:A 0
2 *3464:A1 0.000233628
3 *3461:A 0
4 *2925:A1 1.69531e-05
5 *3105:A 0
6 *3138:B1 0.000446954
7 *3106:A1 8.95943e-06
8 *3139:A 0.000139065
9 *3420:C 0.000277247
10 *3421:D_N 0.000337234
11 *3697:X 0.000157459
12 *1075:81 0.000614508
13 *1075:73 0.00032519
14 *1075:62 0.0011922
15 *1075:58 0.000966344
16 *1075:32 0.000614481
17 *1075:30 0.000489502
18 *1075:24 0.000714944
19 *1075:14 0.000595573
20 *1075:8 0.000231111
21 *3464:A1 *1085:22 0.000215884
22 *2925:A2 *2925:A1 5.33005e-05
23 *2925:B1 *2925:A1 5.33005e-05
24 *2925:B1 *3421:D_N 0.00014743
25 *3105:B *1075:73 1.02504e-05
26 *3105:B *1075:81 6.9253e-05
27 *3121:B *3138:B1 0.000171257
28 *3139:B *3139:A 1.33343e-05
29 *3139:B *1075:73 0
30 *3139:B *1075:81 0
31 *3144:B *3138:B1 0.000186388
32 *3146:A *3139:A 5.33334e-05
33 *3153:A2_N *3138:B1 0.000153047
34 *3420:A *3420:C 1.92905e-05
35 *3421:A *3421:D_N 3.34366e-05
36 *3421:A *1075:30 0
37 *3421:C *3421:D_N 0.000144773
38 *3422:A1 *3420:C 3.37161e-05
39 *3422:A1 *3421:D_N 2.89016e-05
40 *3422:A1 *1075:30 3.10819e-05
41 *3422:A1 *1075:58 0.00010819
42 *3422:A1 *1075:62 0.000428448
43 *3422:A2 *3420:C 9.71197e-05
44 *3422:B1 *3421:D_N 2.95641e-05
45 *3422:B2 *3420:C 2.07491e-05
46 *3423:C *3421:D_N 4.58976e-05
47 *3423:D_N *3421:D_N 0.00014285
48 *3423:D_N *1075:30 0
49 *3458:A2 *3464:A1 8.3622e-05
50 *3458:A2 *1075:14 0
51 *3458:A2 *1075:24 9.44259e-05
52 *3461:B *1075:24 0.000141325
53 *3461:B *1075:30 5.33334e-05
54 *3462:B *1075:24 6.82922e-05
55 *3506:A2 *1075:62 0.000277221
56 *3511:B1 *1075:24 0.000376632
57 *3517:A3 *1075:62 0.000266743
58 *3697:A *1075:8 0.00016275
59 *3697:A *1075:14 5.52238e-05
60 *120:37 *1075:62 0
61 *120:37 *1075:73 0
62 *354:10 *3464:A1 6.66345e-05
63 *354:10 *1075:24 4.038e-06
64 *530:19 *3106:A1 5.52238e-05
65 *530:19 *1075:81 9.71197e-05
66 *532:10 *3138:B1 0.000343217
67 *532:23 *3138:B1 0.000117144
68 *532:36 *3138:B1 5.41797e-05
69 *548:8 *3138:B1 8.45293e-05
70 *548:8 *1075:81 0
71 *568:14 *3106:A1 5.71472e-05
72 *568:14 *1075:81 8.57023e-05
73 *882:8 *1075:30 4.87953e-05
74 *882:45 *1075:30 4.70078e-05
75 *1062:94 *3421:D_N 0
76 *1066:68 *1075:30 0.000252028
77 *1066:68 *1075:58 0.000143887
78 *1066:68 *1075:62 2.39876e-05
79 *1066:87 *1075:62 0.000108314
80 *1066:100 *1075:62 0.000283061
81 *1067:31 *3464:A1 6.94775e-05
82 *1067:37 *3464:A1 4.46186e-06
83 *1071:24 *1075:62 0.000137103
84 *1074:40 *1075:30 4.58194e-05
*RES
1 *3697:X *1075:8 11.4964 
2 *1075:8 *1075:14 5.57143 
3 *1075:14 *1075:24 11.8393 
4 *1075:24 *1075:30 12.6071 
5 *1075:30 *1075:32 4.5 
6 *1075:32 *3421:D_N 24.4071 
7 *1075:32 *3420:C 13.0321 
8 *1075:30 *1075:58 1.94643 
9 *1075:58 *1075:62 22.2143 
10 *1075:62 *3139:A 16.3893 
11 *1075:62 *1075:73 2.85714 
12 *1075:73 *1075:81 7.92857 
13 *1075:81 *3106:A1 9.83571 
14 *1075:81 *3138:B1 30.0321 
15 *1075:73 *3105:A 13.8 
16 *1075:58 *2925:A1 14.3357 
17 *1075:24 *3461:A 9.3 
18 *1075:14 *3464:A1 19.0143 
19 *1075:8 *3462:A 9.3 
*END

*D_NET *1076 0.000367849
*CONN
*I *3571:D I *D sky130_fd_sc_hd__dfrtp_1
*I *3744:X O *D sky130_fd_sc_hd__clkbuf_1
*CAP
1 *3571:D 0.000112415
2 *3744:X 0.000112415
3 *3577:D *3571:D 7.83659e-05
4 *30:13 *3571:D 1.99737e-05
5 *970:58 *3571:D 4.4679e-05
*RES
1 *3744:X *3571:D 29.4973 
*END

*D_NET *1077 0.0120941
*CONN
*I *2878:A1 I *D sky130_fd_sc_hd__a22o_1
*I *2881:A I *D sky130_fd_sc_hd__nand3_1
*I *2876:A I *D sky130_fd_sc_hd__xnor2_1
*I *2835:D I *D sky130_fd_sc_hd__or4_1
*I *2834:A1 I *D sky130_fd_sc_hd__a211oi_1
*I *2828:C I *D sky130_fd_sc_hd__or3_1
*I *2804:C I *D sky130_fd_sc_hd__or4b_1
*I *2803:B I *D sky130_fd_sc_hd__nand2b_1
*I *2822:B I *D sky130_fd_sc_hd__or3b_1
*I *2879:A I *D sky130_fd_sc_hd__nand2_1
*I *3698:X O *D sky130_fd_sc_hd__buf_2
*CAP
1 *2878:A1 0
2 *2881:A 0.0005957
3 *2876:A 0
4 *2835:D 3.68998e-05
5 *2834:A1 0
6 *2828:C 0
7 *2804:C 0.000134012
8 *2803:B 0.000146188
9 *2822:B 0.000123786
10 *2879:A 0.000389541
11 *3698:X 0.000306542
12 *1077:76 0.000294236
13 *1077:72 0.000856791
14 *1077:49 0.00123891
15 *1077:43 0.000698363
16 *1077:33 0.000591205
17 *1077:29 0.00047144
18 *1077:25 0.000938833
19 *1077:12 0.000454678
20 *1077:10 0.000371679
21 *2803:B *2828:B 5.41794e-05
22 *2803:B *1078:48 2.8266e-06
23 *2804:C *2804:A 1.21258e-05
24 *2804:C *2828:B 2.24646e-05
25 *2804:C *1078:31 7.90803e-05
26 *2804:C *1078:48 1.69115e-05
27 *2804:C *1079:14 3.17148e-05
28 *2804:C *1079:16 0.000148911
29 *2804:C *1079:44 5.33005e-05
30 *1077:33 *2873:A 0.000144399
31 *1077:72 *2813:A_N 0
32 *1077:72 *2813:B 8.2664e-05
33 *1077:72 *1078:101 1.87955e-05
34 *1077:76 *2813:B 5.52302e-05
35 gpio_oeb[5] *2803:B 1.28809e-05
36 gpio_out[10] *1077:49 9.25014e-06
37 gpio_out[13] *1077:43 9.90431e-05
38 gpio_out[14] *1077:43 4.40915e-05
39 gpio_out[14] *1077:49 0
40 *2803:A_N *2803:B 0
41 *2804:B *2804:C 1.24368e-05
42 *2824:A2 *1077:72 0
43 *2829:A1 *1077:72 8.43535e-06
44 *2829:A2 *1077:72 0.00011998
45 *2829:A3 *1077:72 7.77652e-05
46 *2834:A2 *1077:43 1.56e-05
47 *2834:B1 *1077:49 5.10822e-05
48 *2834:B1 *1077:72 3.92854e-05
49 *2839:A1 *1077:72 0
50 *2840:A1 *2803:B 1.38106e-05
51 *2840:A1 *1077:43 9.90367e-05
52 *2840:A1 *1077:49 0.000186669
53 *2842:B1 *1077:72 9.69119e-06
54 *2860:A1 *1077:10 1.92905e-05
55 *2876:B *1077:29 7.02611e-05
56 *2877:B *1077:29 5.17614e-05
57 *2878:B2 *1077:12 4.25809e-05
58 *2878:B2 *1077:29 5.71472e-05
59 *2879:B *2879:A 0.00022114
60 *2879:B *1077:29 0.000137983
61 *2879:B *1077:43 0
62 *2880:B *2879:A 1.92789e-05
63 *2882:A1 *2881:A 8.73559e-05
64 *2883:A1 *1077:12 0
65 *2883:B1 *2879:A 0.000128205
66 *2883:B1 *1077:10 5.80706e-06
67 *2883:B1 *1077:12 8.16036e-05
68 *2883:B2 *2879:A 0
69 *3583:D *1077:10 1.05901e-05
70 *3589:CLK *1077:33 0.00019549
71 *3589:CLK *1077:43 1.76039e-05
72 *3750:A *1077:33 9.22948e-05
73 *3750:A *1077:43 0.000250201
74 *3751:A *1077:43 6.2198e-05
75 *108:43 *1077:72 1.15172e-05
76 *108:60 *1077:72 0.000567277
77 *116:8 *2835:D 2.59355e-05
78 *116:14 *2822:B 0.000184745
79 *116:63 *1077:72 0.000219711
80 *268:12 *2803:B 8.56716e-05
81 *277:16 *2804:C 4.31104e-05
82 *277:16 *1077:72 7.43578e-06
83 *277:16 *1077:76 2.89114e-05
84 *285:8 *1077:72 4.27338e-05
85 *290:8 *1077:72 7.3237e-05
86 *309:58 *1077:10 9.99644e-06
87 *309:62 *1077:10 7.252e-05
88 *313:10 *1077:10 0
*RES
1 *3698:X *1077:10 18.3357 
2 *1077:10 *1077:12 1.94643 
3 *1077:12 *2879:A 22.3536 
4 *1077:12 *1077:25 4.5 
5 *1077:25 *1077:29 5.89286 
6 *1077:29 *1077:33 9.17857 
7 *1077:33 *1077:43 13.1607 
8 *1077:43 *1077:49 8.82143 
9 *1077:49 *2822:B 15.5679 
10 *1077:49 *1077:72 19.2857 
11 *1077:72 *1077:76 5.03571 
12 *1077:76 *2803:B 16.7866 
13 *1077:76 *2804:C 17.3 
14 *1077:72 *2828:C 9.3 
15 *1077:43 *2834:A1 9.3 
16 *1077:33 *2835:D 14.3357 
17 *1077:29 *2876:A 9.3 
18 *1077:25 *2881:A 27.3357 
19 *1077:10 *2878:A1 13.8 
*END

*D_NET *1078 0.0120825
*CONN
*I *2822:C_N I *D sky130_fd_sc_hd__or3b_1
*I *2873:A I *D sky130_fd_sc_hd__and3_1
*I *2835:A I *D sky130_fd_sc_hd__or4_1
*I *2815:B I *D sky130_fd_sc_hd__or3b_1
*I *2872:A1 I *D sky130_fd_sc_hd__o21ai_1
*I *2875:A1 I *D sky130_fd_sc_hd__a21oi_1
*I *2828:A I *D sky130_fd_sc_hd__or3_1
*I *2813:B I *D sky130_fd_sc_hd__nand2b_1
*I *2804:A I *D sky130_fd_sc_hd__or4b_1
*I *2805:A1 I *D sky130_fd_sc_hd__o311a_1
*I *3699:X O *D sky130_fd_sc_hd__clkbuf_2
*CAP
1 *2822:C_N 0
2 *2873:A 0.000341247
3 *2835:A 0
4 *2815:B 0
5 *2872:A1 9.83481e-05
6 *2875:A1 0.000402467
7 *2828:A 0
8 *2813:B 0.000103821
9 *2804:A 0.000231821
10 *2805:A1 0.000363629
11 *3699:X 0
12 *1078:107 0.000572129
13 *1078:101 0.00110764
14 *1078:72 0.000865462
15 *1078:48 0.000245668
16 *1078:31 0.000490885
17 *1078:27 0.000481865
18 *1078:16 0.00046203
19 *1078:14 0.000374368
20 *1078:4 0.00115272
21 *2804:A *1079:44 4.58194e-05
22 *2804:A *1079:59 0
23 *2805:A1 *2805:A2 0.000312209
24 *2813:B *2813:A_N 7.06217e-05
25 *2813:B *2828:B 0.000139907
26 *2873:A *2835:B 9.01334e-05
27 *1078:31 *1079:14 6.07232e-05
28 *1078:48 *1079:44 6.05161e-06
29 *1078:48 *1079:59 8.43535e-06
30 *1078:72 *1079:10 0.000262647
31 *1078:72 *1079:12 2.61337e-05
32 *1078:72 *1079:14 1.08359e-05
33 *1078:72 *1080:16 0
34 *2803:A_N *1078:48 3.07555e-05
35 *2803:B *1078:48 2.8266e-06
36 *2804:B *1078:31 0
37 *2804:B *1078:48 3.34687e-05
38 *2804:C *2804:A 1.21258e-05
39 *2804:C *1078:31 7.90803e-05
40 *2804:C *1078:48 1.69115e-05
41 *2806:B *1078:101 1.24368e-05
42 *2811:C1 *1078:101 9.60939e-05
43 *2812:A_N *2805:A1 5.19842e-06
44 *2814:A *1078:31 7.2754e-05
45 *2814:A *1078:72 2.94103e-05
46 *2820:A1 *1078:101 3.07455e-05
47 *2820:A2 *1078:72 0
48 *2820:B1 *1078:72 0
49 *2821:B *1078:101 6.42242e-05
50 *2823:A *1078:101 0
51 *2824:A2 *1078:101 0.000312736
52 *2827:A2 *1078:101 0.000114633
53 *2829:B1 *1078:14 0
54 *2831:A2 *1078:48 5.33005e-05
55 *2831:B1 *2813:B 0
56 *2831:C1 *1078:72 0
57 *2834:B1 *1078:107 5.52238e-05
58 *2839:A2 *1078:107 4.88515e-05
59 *2839:B1 *1078:101 0
60 *2842:B1 *1078:101 0
61 *2852:A2 *1078:14 0.000173097
62 *2852:A2 *1078:72 0
63 *2872:A2 *2872:A1 4.18895e-05
64 *2875:B1 *2872:A1 0.00014183
65 *2875:B1 *2875:A1 0.000575092
66 *3589:CLK *2873:A 0
67 *3699:A *1078:101 6.05161e-06
68 *3750:A *2873:A 0.000126439
69 *3755:A *1078:72 6.24445e-05
70 *108:39 *2813:B 1.79382e-05
71 *108:60 *1078:107 9.31893e-05
72 *112:70 *2873:A 2.8266e-06
73 *114:29 *2873:A 0
74 *116:8 *2873:A 5.71472e-05
75 *116:14 *2873:A 1.5424e-05
76 *116:14 *1078:107 0.000617551
77 *151:76 *2805:A1 0
78 *151:76 *1078:14 3.30237e-05
79 *151:76 *1078:16 7.49387e-06
80 *151:89 *1078:14 9.0145e-05
81 *268:21 *2805:A1 4.43256e-05
82 *268:21 *1078:16 5.03772e-05
83 *271:12 *1078:101 0.000101545
84 *273:37 *1078:101 1.32782e-06
85 *277:16 *1078:31 3.34366e-05
86 *277:16 *1078:48 7.13298e-05
87 *285:8 *1078:107 0
88 *290:8 *2813:B 5.7661e-06
89 *322:15 *2872:A1 1.33343e-05
90 *1077:33 *2873:A 0.000144399
91 *1077:72 *2813:B 8.2664e-05
92 *1077:72 *1078:101 1.87955e-05
93 *1077:76 *2813:B 5.52302e-05
*RES
1 *3699:X *1078:4 9.3 
2 *1078:4 *1078:14 14.2679 
3 *1078:14 *1078:16 1.35714 
4 *1078:16 *2805:A1 14.5679 
5 *1078:16 *1078:27 4.5 
6 *1078:27 *1078:31 7.05357 
7 *1078:31 *2804:A 12.2107 
8 *1078:31 *1078:48 11.5893 
9 *1078:48 *2813:B 12.5946 
10 *1078:48 *2828:A 9.3 
11 *1078:27 *1078:72 12.4464 
12 *1078:72 *2875:A1 15.175 
13 *1078:72 *2872:A1 11.8 
14 *1078:14 *2815:B 9.3 
15 *1078:4 *1078:101 22.6071 
16 *1078:101 *1078:107 6.73214 
17 *1078:107 *2835:A 9.3 
18 *1078:107 *2873:A 26.05 
19 *1078:101 *2822:C_N 9.3 
*END

*D_NET *1079 0.0116176
*CONN
*I *2869:A I *D sky130_fd_sc_hd__or2_1
*I *2870:A I *D sky130_fd_sc_hd__and2_1
*I *2815:C_N I *D sky130_fd_sc_hd__or3b_1
*I *2805:A2 I *D sky130_fd_sc_hd__o311a_1
*I *2874:B I *D sky130_fd_sc_hd__and3_1
*I *2835:B I *D sky130_fd_sc_hd__or4_1
*I *2833:B I *D sky130_fd_sc_hd__nand2_1
*I *2804:D_N I *D sky130_fd_sc_hd__or4b_1
*I *2813:A_N I *D sky130_fd_sc_hd__nand2b_1
*I *2828:B I *D sky130_fd_sc_hd__or3_1
*I *3700:X O *D sky130_fd_sc_hd__clkbuf_2
*CAP
1 *2869:A 0.000185747
2 *2870:A 0.00028267
3 *2815:C_N 1.16062e-05
4 *2805:A2 5.93597e-05
5 *2874:B 0.000506221
6 *2835:B 0.000148007
7 *2833:B 0
8 *2804:D_N 0
9 *2813:A_N 9.70005e-05
10 *2828:B 0.000109722
11 *3700:X 0.000178269
12 *1079:108 0.000468417
13 *1079:59 0.00161961
14 *1079:44 0.00100516
15 *1079:16 0.000252908
16 *1079:14 0.000151199
17 *1079:12 0.000151811
18 *1079:10 0.000373361
19 *1079:8 0.000512806
20 *2803:B *2828:B 5.41794e-05
21 *2804:A *1079:44 4.58194e-05
22 *2804:A *1079:59 0
23 *2804:B *1079:44 1.38323e-05
24 *2804:B *1079:59 0.000181803
25 *2804:C *2828:B 2.24646e-05
26 *2804:C *1079:14 3.17148e-05
27 *2804:C *1079:16 0.000148911
28 *2804:C *1079:44 5.33005e-05
29 *2805:A1 *2805:A2 0.000312209
30 *2805:A3 *2805:A2 0.000227532
31 *2805:B1 *1079:12 0
32 *2812:A_N *2805:A2 1.32552e-05
33 *2813:B *2813:A_N 7.06217e-05
34 *2813:B *2828:B 0.000139907
35 *2814:A *1079:59 5.52302e-05
36 *2831:A2 *1079:59 0.000127035
37 *2832:A2 *1079:59 6.58013e-05
38 *2832:B1 *1079:59 4.35452e-05
39 *2839:B1 *1079:59 2.60984e-05
40 *2839:B2 *1079:59 0.000535834
41 *2840:B1 *2835:B 0.000123986
42 *2867:A1 *2874:B 0
43 *2870:B *2869:A 0.000368217
44 *2870:B *2870:A 0.00023683
45 *2870:B *1079:8 0
46 *2871:A_N *1079:10 0.000127439
47 *2871:B *2869:A 5.52302e-05
48 *2872:B1 *1079:10 6.5185e-05
49 *2873:A *2835:B 9.01334e-05
50 *2883:A1 *2874:B 0
51 *3587:D *2870:A 0
52 *3589:CLK *2874:B 5.48312e-05
53 *3589:D *2874:B 6.05161e-06
54 *3750:A *2835:B 2.28335e-05
55 *3750:A *2874:B 7.02611e-05
56 *3750:A *1079:59 7.48301e-06
57 *3754:A *1079:10 0.000137829
58 *108:39 *2813:A_N 2.20795e-05
59 *108:39 *2828:B 9.80173e-05
60 *112:70 *2874:B 0
61 *114:29 *2835:B 5.80706e-06
62 *151:65 *1079:10 0.000153306
63 *151:65 *1079:12 4.1331e-06
64 *151:76 *2815:C_N 5.52302e-05
65 *268:12 *2828:B 8.07879e-05
66 *268:12 *1079:12 2.24646e-05
67 *268:12 *1079:14 0.000162832
68 *268:12 *1079:16 0.000141375
69 *268:21 *2805:A2 4.08637e-05
70 *268:21 *2815:C_N 5.52302e-05
71 *278:10 *1079:59 7.32272e-05
72 *290:8 *2828:B 3.99614e-06
73 *293:12 *1079:59 4.88631e-05
74 *308:10 *1079:8 0.000188957
75 *308:10 *1079:10 1.08359e-05
76 *324:10 *2874:B 7.60306e-05
77 *324:18 *2874:B 0.000101899
78 *325:10 *2874:B 0.000169581
79 *967:24 *2870:A 1.21258e-05
80 *969:10 *1079:8 6.58195e-05
81 *1077:72 *2813:A_N 0
82 *1078:31 *1079:14 6.07232e-05
83 *1078:48 *1079:44 6.05161e-06
84 *1078:48 *1079:59 8.43535e-06
85 *1078:72 *1079:10 0.000262647
86 *1078:72 *1079:12 2.61337e-05
87 *1078:72 *1079:14 1.08359e-05
*RES
1 *3700:X *1079:8 18.4786 
2 *1079:8 *1079:10 9.23214 
3 *1079:10 *1079:12 0.732143 
4 *1079:12 *1079:14 2.25 
5 *1079:14 *1079:16 1.94643 
6 *1079:16 *2828:B 16.6214 
7 *1079:16 *2813:A_N 15.5857 
8 *1079:14 *1079:44 5.44643 
9 *1079:44 *2804:D_N 9.3 
10 *1079:44 *1079:59 18.2679 
11 *1079:59 *2833:B 9.3 
12 *1079:59 *2835:B 21.4607 
13 *1079:59 *2874:B 28.925 
14 *1079:12 *2805:A2 16.8 
15 *1079:10 *2815:C_N 14.3357 
16 *1079:8 *1079:108 4.5 
17 *1079:108 *2870:A 22.8536 
18 *1079:108 *2869:A 13.4429 
*END

*D_NET *1080 0.012741
*CONN
*I *3568:RESET_B I *D sky130_fd_sc_hd__dfrtp_2
*I *3567:RESET_B I *D sky130_fd_sc_hd__dfrtp_2
*I *3578:RESET_B I *D sky130_fd_sc_hd__dfrtp_1
*I *3577:RESET_B I *D sky130_fd_sc_hd__dfrtp_1
*I *3576:RESET_B I *D sky130_fd_sc_hd__dfrtp_1
*I *3575:RESET_B I *D sky130_fd_sc_hd__dfrtp_1
*I *3580:RESET_B I *D sky130_fd_sc_hd__dfrtp_1
*I *3579:RESET_B I *D sky130_fd_sc_hd__dfrtp_1
*I *3586:RESET_B I *D sky130_fd_sc_hd__dfrtp_1
*I *3587:RESET_B I *D sky130_fd_sc_hd__dfrtp_1
*I *3701:X O *D sky130_fd_sc_hd__clkbuf_4
*CAP
1 *3568:RESET_B 0.00042228
2 *3567:RESET_B 1.18997e-05
3 *3578:RESET_B 2.62461e-05
4 *3577:RESET_B 0.000311454
5 *3576:RESET_B 0.000491758
6 *3575:RESET_B 0
7 *3580:RESET_B 0.000137291
8 *3579:RESET_B 0.0002082
9 *3586:RESET_B 0
10 *3587:RESET_B 0.000121611
11 *3701:X 0
12 *1080:81 0.000883121
13 *1080:74 0.000250923
14 *1080:64 0.000806671
15 *1080:58 0.0010838
16 *1080:45 0.00134291
17 *1080:37 0.00115175
18 *1080:23 0.00112061
19 *1080:16 0.000603113
20 *1080:4 0.000590726
21 *2796:B *3568:RESET_B 0.000168939
22 *2797:A *3568:RESET_B 9.09345e-05
23 *2852:A1 *1080:23 0
24 *2852:A2 *1080:16 0
25 *2852:B2 *3568:RESET_B 0.0001406
26 *2852:B2 *1080:23 7.05143e-06
27 *2857:A1 *3568:RESET_B 0
28 *2872:B1 *1080:16 0
29 *3567:CLK *3579:RESET_B 0
30 *3567:D *3579:RESET_B 0
31 *3567:D *1080:45 0.000183726
32 *3569:CLK *3577:RESET_B 0.000118373
33 *3569:D *3577:RESET_B 2.8266e-06
34 *3576:CLK *3576:RESET_B 8.71761e-05
35 *3576:D *3577:RESET_B 0
36 *3576:D *1080:81 0
37 *3578:CLK *1080:64 6.60826e-05
38 *3578:D *1080:64 5.47047e-05
39 *3579:D *3579:RESET_B 0
40 *3579:D *1080:58 0.000142856
41 *3586:D *1080:16 3.92854e-05
42 *3595:D *1080:64 5.49544e-05
43 *3642:A *3579:RESET_B 0
44 *3700:A *1080:16 3.51442e-05
45 *3700:A *1080:23 0.000222878
46 *3700:A *1080:37 0.000105163
47 *3709:A *3576:RESET_B 5.33433e-05
48 *3709:A *3577:RESET_B 7.50697e-05
49 *3710:A *3580:RESET_B 1.32552e-05
50 *3710:A *1080:64 9.20236e-05
51 *3731:A *3580:RESET_B 2.89016e-05
52 *3731:A *1080:64 0.000126639
53 *3731:A *1080:74 0.00012401
54 *3768:A *3568:RESET_B 0.000197269
55 *1:21 *3576:RESET_B 4.31484e-05
56 *114:8 *3587:RESET_B 1.92905e-05
57 *114:8 *1080:16 4.70078e-05
58 *168:6 *1080:37 0.000361914
59 *168:17 *3568:RESET_B 0.000125731
60 *168:37 *3568:RESET_B 0.000148189
61 *168:48 *3568:RESET_B 7.90803e-05
62 *177:6 *1080:58 3.14078e-05
63 *254:29 *3568:RESET_B 0
64 *255:29 *3568:RESET_B 1.69115e-05
65 *302:10 *3577:RESET_B 0
66 *302:10 *1080:74 0
67 *302:10 *1080:81 0
68 *308:10 *1080:16 0
69 *308:10 *1080:23 0
70 *967:24 *1080:16 7.2754e-05
71 *969:23 *3579:RESET_B 0
72 *984:10 *3568:RESET_B 0
73 *1078:72 *1080:16 0
*RES
1 *3701:X *1080:4 9.3 
2 *1080:4 *3587:RESET_B 1.70536 
3 *1080:4 *1080:16 12.3571 
4 *1080:16 *3586:RESET_B 4.5 
5 *1080:16 *1080:23 3.3125 
6 *1080:23 *1080:37 14.6295 
7 *1080:37 *1080:45 12.1652 
8 *1080:45 *3579:RESET_B 8.26786 
9 *1080:45 *1080:58 11.8214 
10 *1080:58 *1080:64 8.89286 
11 *1080:64 *3580:RESET_B 2.11607 
12 *1080:64 *1080:74 7.96429 
13 *1080:74 *3575:RESET_B 4.5 
14 *1080:74 *1080:81 1.33929 
15 *1080:81 *3576:RESET_B 11.2768 
16 *1080:81 *3577:RESET_B 10.3839 
17 *1080:58 *3578:RESET_B 0.901786 
18 *1080:37 *3567:RESET_B 0.46875 
19 *1080:23 *3568:RESET_B 14.7232 
*END

*D_NET *1081 0.013499
*CONN
*I *3635:RESET_B I *D sky130_fd_sc_hd__dfrtp_2
*I *3636:RESET_B I *D sky130_fd_sc_hd__dfrtp_2
*I *3634:RESET_B I *D sky130_fd_sc_hd__dfrtp_4
*I *3633:RESET_B I *D sky130_fd_sc_hd__dfrtp_4
*I *3571:RESET_B I *D sky130_fd_sc_hd__dfrtp_1
*I *3574:RESET_B I *D sky130_fd_sc_hd__dfrtp_1
*I *3572:RESET_B I *D sky130_fd_sc_hd__dfrtp_1
*I *3573:RESET_B I *D sky130_fd_sc_hd__dfrtp_1
*I *3569:RESET_B I *D sky130_fd_sc_hd__dfrtp_1
*I *3570:RESET_B I *D sky130_fd_sc_hd__dfrtp_1
*I *3702:X O *D sky130_fd_sc_hd__clkbuf_4
*CAP
1 *3635:RESET_B 0.000397831
2 *3636:RESET_B 9.60123e-05
3 *3634:RESET_B 4.03711e-05
4 *3633:RESET_B 0.000672734
5 *3571:RESET_B 0.000213749
6 *3574:RESET_B 5.25064e-05
7 *3572:RESET_B 1.90348e-05
8 *3573:RESET_B 0
9 *3569:RESET_B 0.000247702
10 *3570:RESET_B 0.000761741
11 *3702:X 0.000551201
12 *1081:123 0.00126947
13 *1081:105 0.00111286
14 *1081:89 0.0010754
15 *1081:68 0.000971892
16 *1081:60 0.000999298
17 *1081:50 0.000398138
18 *1081:39 0.000400019
19 *1081:23 0.000667011
20 *2784:A *3570:RESET_B 3.18676e-05
21 *2795:A *3570:RESET_B 4.70078e-05
22 *2795:C *3570:RESET_B 0.000114577
23 *2845:A *1081:68 0.000125155
24 *2887:A *1081:39 0
25 *2887:A *1081:50 0
26 *2887:A *1081:89 0.000200413
27 *2887:A *1081:105 6.81083e-05
28 *2888:A *3571:RESET_B 4.73656e-05
29 *3549:A *3633:RESET_B 5.048e-05
30 *3553:B2 *1081:50 2.38651e-06
31 *3561:A *3635:RESET_B 0.000128154
32 *3565:A1_N *1081:123 2.51343e-06
33 *3565:A2_N *1081:123 5.83233e-05
34 *3570:D *3569:RESET_B 8.9179e-05
35 *3570:D *3570:RESET_B 0
36 *3570:D *1081:39 1.6271e-05
37 *3572:CLK *1081:68 0.000164115
38 *3633:CLK *3633:RESET_B 0.000761602
39 *3634:D *3634:RESET_B 8.92153e-05
40 *3635:CLK *3635:RESET_B 0.000141928
41 *3635:CLK *1081:123 7.26935e-05
42 *3635:D *3635:RESET_B 0.000127162
43 *3636:D *3636:RESET_B 0.000167237
44 *3637:D *1081:123 4.93285e-05
45 *140:6 *3636:RESET_B 0.00014183
46 *140:19 *3636:RESET_B 4.18895e-05
47 *174:6 *3569:RESET_B 7.86973e-05
48 *252:6 *3570:RESET_B 5.41494e-05
49 *253:14 *3570:RESET_B 8.25843e-06
50 *301:14 *1081:68 4.59075e-05
51 *302:8 *1081:68 1.39841e-05
52 *302:10 *3571:RESET_B 0.000373955
53 *369:12 *1081:123 0
54 *967:131 *3633:RESET_B 8.84481e-05
55 *970:128 *1081:123 0
56 *971:29 *1081:23 0.000142728
57 *971:35 *1081:39 0
58 *1064:27 *3570:RESET_B 0
59 *1064:106 *1081:123 7.05143e-06
*RES
1 *3702:X *3570:RESET_B 25.5143 
2 *3570:RESET_B *1081:23 7.99107 
3 *1081:23 *3569:RESET_B 9.02679 
4 *1081:23 *1081:39 3.76786 
5 *1081:39 *3573:RESET_B 4.5 
6 *1081:39 *1081:50 7.28571 
7 *1081:50 *3572:RESET_B 0.366071 
8 *1081:50 *1081:60 2.5 
9 *1081:60 *1081:68 9.73214 
10 *1081:68 *3574:RESET_B 0.901786 
11 *1081:68 *3571:RESET_B 14.2857 
12 *1081:60 *1081:89 7.05357 
13 *1081:89 *3633:RESET_B 15.3839 
14 *1081:89 *1081:105 5.21429 
15 *1081:105 *3634:RESET_B 5.38393 
16 *1081:105 *1081:123 21.9643 
17 *1081:123 *3636:RESET_B 7.4375 
18 *1081:123 *3635:RESET_B 13.1161 
*END

*D_NET *1082 0.0108438
*CONN
*I *3637:RESET_B I *D sky130_fd_sc_hd__dfrtp_4
*I *3632:RESET_B I *D sky130_fd_sc_hd__dfrtp_4
*I *3702:A I *D sky130_fd_sc_hd__clkbuf_4
*I *3631:RESET_B I *D sky130_fd_sc_hd__dfrtp_1
*I *3630:RESET_B I *D sky130_fd_sc_hd__dfrtp_1
*I *3703:X O *D sky130_fd_sc_hd__clkbuf_2
*CAP
1 *3637:RESET_B 0.00178091
2 *3632:RESET_B 0
3 *3702:A 0.0002805
4 *3631:RESET_B 0.000427677
5 *3630:RESET_B 0.000405751
6 *3703:X 0.000147266
7 *1082:36 0.00196805
8 *1082:8 0.000592977
9 *2799:C1 *3702:A 0
10 *2933:A *3637:RESET_B 0.000195169
11 *2933:D *3637:RESET_B 6.27058e-05
12 *2934:A1 *3637:RESET_B 0
13 *2935:B1 *3702:A 0.000176234
14 *2969:A *3637:RESET_B 0.000120187
15 *2969:B *3637:RESET_B 1.76039e-05
16 *2990:B1 *3637:RESET_B 9.25014e-06
17 *3414:A *3637:RESET_B 0.000250844
18 *3417:A_N *3637:RESET_B 4.25473e-05
19 *3536:B1 *3637:RESET_B 0.000277922
20 *3536:B1 *1082:36 0.000139886
21 *3541:B1 *1082:8 0.000657846
22 *3551:B1 *3630:RESET_B 0.000125731
23 *3551:B1 *3637:RESET_B 9.71532e-05
24 *3551:B1 *1082:36 0.00037646
25 *3663:A *3630:RESET_B 0
26 *3663:A *3637:RESET_B 3.45255e-05
27 *3663:A *1082:36 0
28 *3691:A *3631:RESET_B 0.000210742
29 *133:21 *3631:RESET_B 0.000101445
30 *135:12 *3637:RESET_B 4.87953e-05
31 *141:6 *3637:RESET_B 0.000315158
32 *141:13 *3637:RESET_B 0.000135028
33 *141:79 *3637:RESET_B 0.000304394
34 *262:10 *3702:A 0.000118592
35 *352:27 *3637:RESET_B 0
36 *368:12 *3637:RESET_B 6.57521e-05
37 *369:43 *1082:8 0.000244004
38 *395:10 *3637:RESET_B 0.000306317
39 *971:27 *3631:RESET_B 0.000263204
40 *971:27 *3702:A 4.70821e-05
41 *971:80 *3631:RESET_B 0.000382212
42 *984:10 *3630:RESET_B 0
43 *1061:12 *3637:RESET_B 2.05484e-05
44 *1069:12 *3702:A 8.39e-05
45 *1069:67 *3637:RESET_B 9.43546e-06
46 *1071:30 *3637:RESET_B 0
47 *1071:43 *3637:RESET_B 0
*RES
1 *3703:X *1082:8 20.0857 
2 *1082:8 *3630:RESET_B 9.17857 
3 *3630:RESET_B *3631:RESET_B 6.16071 
4 *3631:RESET_B *3702:A 24.8446 
5 *1082:8 *1082:36 4.98214 
6 *1082:36 *3632:RESET_B 4.5 
7 *1082:36 *3637:RESET_B 44.4375 
*END

*D_NET *1083 0.0158768
*CONN
*I *3619:RESET_B I *D sky130_fd_sc_hd__dfrtp_2
*I *3621:RESET_B I *D sky130_fd_sc_hd__dfrtp_1
*I *3638:RESET_B I *D sky130_fd_sc_hd__dfrtp_1
*I *3613:RESET_B I *D sky130_fd_sc_hd__dfrtp_4
*I *3584:RESET_B I *D sky130_fd_sc_hd__dfrtp_4
*I *3583:RESET_B I *D sky130_fd_sc_hd__dfrtp_2
*I *3588:RESET_B I *D sky130_fd_sc_hd__dfrtp_1
*I *3589:RESET_B I *D sky130_fd_sc_hd__dfrtp_2
*I *3585:RESET_B I *D sky130_fd_sc_hd__dfrtp_2
*I *3614:RESET_B I *D sky130_fd_sc_hd__dfrtp_4
*I *3704:X O *D sky130_fd_sc_hd__clkbuf_4
*CAP
1 *3619:RESET_B 4.83565e-05
2 *3621:RESET_B 8.10614e-05
3 *3638:RESET_B 0.000373341
4 *3613:RESET_B 0.000115812
5 *3584:RESET_B 0.000338673
6 *3583:RESET_B 0
7 *3588:RESET_B 0.000173469
8 *3589:RESET_B 0.00037081
9 *3585:RESET_B 0
10 *3614:RESET_B 0.0001606
11 *3704:X 0
12 *1083:48 0.000849043
13 *1083:46 0.000518586
14 *1083:37 0.00053134
15 *1083:35 0.000732215
16 *1083:33 0.000443826
17 *1083:31 0.00078208
18 *1083:29 0.000800259
19 *1083:23 0.00245762
20 *1083:6 0.00200742
21 *3614:RESET_B *1086:47 0
22 *1093:DIODE *3638:RESET_B 5.52238e-05
23 *2860:A1 *1083:48 0
24 *2882:A1 *3589:RESET_B 0
25 *2882:A1 *1083:48 0
26 *2883:B1 *3589:RESET_B 0
27 *2883:B1 *1083:48 0
28 *2883:B2 *3589:RESET_B 0.000153047
29 *2951:B *3614:RESET_B 0
30 *3424:B *1083:31 1.3142e-05
31 *3425:B *3638:RESET_B 0.000153273
32 *3429:A2 *1083:33 0
33 *3429:A2 *1083:35 0
34 *3429:A2 *1083:37 0
35 *3429:B2 *1083:37 0
36 *3435:B1 *1083:23 0
37 *3440:A *1083:23 2.95726e-05
38 *3442:A *3621:RESET_B 6.8194e-05
39 *3442:A *1083:31 0.000158707
40 *3541:A2 *1083:29 0
41 *3583:D *1083:46 0
42 *3583:D *1083:48 0
43 *3584:CLK *3584:RESET_B 5.52238e-05
44 *3584:D *3584:RESET_B 5.33005e-05
45 *3588:D *3588:RESET_B 5.52302e-05
46 *3611:D *3614:RESET_B 9.24299e-05
47 *3613:D *3584:RESET_B 5.52238e-05
48 *3613:D *1083:35 0.00010326
49 *3615:D *1083:23 5.24274e-05
50 *3616:CLK *3614:RESET_B 0.000224592
51 *3616:D *3614:RESET_B 5.56943e-05
52 *3616:D *1083:23 0.000328406
53 *3638:CLK *3638:RESET_B 0.000331516
54 *3638:CLK *1083:31 0
55 *3638:CLK *1083:33 0
56 *3698:A *1083:48 8.06331e-05
57 *116:6 *3589:RESET_B 2.58856e-05
58 *116:8 *3589:RESET_B 3.02581e-06
59 *118:14 *1083:23 3.98559e-05
60 *123:12 *3621:RESET_B 5.83233e-05
61 *147:27 *1083:23 0
62 *148:10 *1083:23 5.62995e-05
63 *150:6 *3638:RESET_B 0.000136638
64 *150:47 *3638:RESET_B 0.00014285
65 *254:62 *3621:RESET_B 6.89314e-05
66 *255:46 *3638:RESET_B 2.88018e-06
67 *255:68 *1083:23 0
68 *309:46 *1083:37 0
69 *309:58 *1083:37 0
70 *309:58 *1083:46 0
71 *309:58 *1083:48 0
72 *309:62 *1083:48 0
73 *329:10 *3589:RESET_B 0
74 *369:66 *1083:31 0
75 *369:85 *1083:23 0
76 *369:104 *3619:RESET_B 6.27272e-06
77 *379:22 *1083:23 0.000245342
78 *866:20 *3621:RESET_B 9.60875e-05
79 *866:56 *1083:29 0.000576571
80 *967:66 *3584:RESET_B 0.000140925
81 *972:20 *3588:RESET_B 0.000109036
82 *972:66 *1083:37 0
83 *972:66 *1083:46 0
84 *972:76 *1083:37 0
85 *972:87 *1083:33 0
86 *972:87 *1083:35 0
87 *1060:55 *1083:31 1.46717e-05
88 *1060:55 *1083:33 4.94268e-05
89 *1062:8 *1083:33 0
90 *1062:37 *1083:23 0.000439524
91 *1063:23 *1083:29 6.8839e-05
92 *1067:58 *1083:23 0.000691805
*RES
1 *3704:X *1083:6 13.8 
2 *1083:6 *3614:RESET_B 9.17857 
3 *1083:6 *1083:23 37.2411 
4 *1083:23 *1083:29 8.45247 
5 *1083:29 *1083:31 3.00893 
6 *1083:31 *1083:33 4.67857 
7 *1083:33 *1083:35 1.64286 
8 *1083:35 *1083:37 4.98214 
9 *1083:37 *3585:RESET_B 4.5 
10 *1083:37 *1083:46 4 
11 *1083:46 *1083:48 5.28571 
12 *1083:48 *3589:RESET_B 11.1696 
13 *1083:48 *3588:RESET_B 7.58036 
14 *1083:46 *3583:RESET_B 4.5 
15 *1083:35 *3584:RESET_B 11.0089 
16 *1083:33 *3613:RESET_B 6.20536 
17 *1083:31 *3638:RESET_B 12.9196 
18 *1083:29 *3621:RESET_B 7.08929 
19 *1083:23 *3619:RESET_B 5.38393 
*END

*D_NET *1084 0.011723
*CONN
*I *3616:RESET_B I *D sky130_fd_sc_hd__dfrtp_4
*I *3612:RESET_B I *D sky130_fd_sc_hd__dfrtp_1
*I *3611:RESET_B I *D sky130_fd_sc_hd__dfrtp_1
*I *3610:RESET_B I *D sky130_fd_sc_hd__dfrtp_1
*I *3615:RESET_B I *D sky130_fd_sc_hd__dfrtp_2
*I *3606:RESET_B I *D sky130_fd_sc_hd__dfrtp_1
*I *3609:RESET_B I *D sky130_fd_sc_hd__dfrtp_1
*I *3607:RESET_B I *D sky130_fd_sc_hd__dfrtp_1
*I *3608:RESET_B I *D sky130_fd_sc_hd__dfrtp_1
*I *3705:X O *D sky130_fd_sc_hd__buf_2
*CAP
1 *3616:RESET_B 0.000320177
2 *3612:RESET_B 0.000760618
3 *3611:RESET_B 0.000383466
4 *3610:RESET_B 0.000326592
5 *3615:RESET_B 0.000456781
6 *3606:RESET_B 0
7 *3609:RESET_B 0
8 *3607:RESET_B 0.00031558
9 *3608:RESET_B 0.000229498
10 *3705:X 0.00012228
11 *1084:87 0.00193984
12 *1084:41 0.000696012
13 *1084:34 0.000592863
14 *1084:28 0.000669211
15 *1084:19 0.000369659
16 *1084:10 0.000666822
17 *1084:6 0.00163247
18 *3611:RESET_B *1086:47 0
19 *3616:RESET_B *1086:47 0
20 *1084:6 *3705:A 5.62995e-05
21 *2920:C *1084:87 0
22 *2938:A1 *3615:RESET_B 0.000100735
23 *2938:A1 *1084:41 0.000120645
24 *2938:A2 *1084:41 0
25 *2941:B *1084:34 0.000181663
26 *2947:B *1084:41 0
27 *3607:D *1084:34 1.92789e-05
28 *3610:CLK *3611:RESET_B 0
29 *3610:D *1084:87 6.42145e-05
30 *3611:CLK *3611:RESET_B 8.2632e-05
31 *3611:D *3611:RESET_B 0.000297566
32 *3612:D *1084:87 4.8843e-05
33 *3616:CLK *1084:87 1.69115e-05
34 *128:8 *3610:RESET_B 0
35 *128:12 *3610:RESET_B 9.92409e-05
36 *139:8 *3608:RESET_B 0
37 *139:19 *3608:RESET_B 0
38 *139:19 *3610:RESET_B 0
39 *139:19 *1084:19 0
40 *139:19 *1084:87 0
41 *144:10 *1084:87 0
42 *145:12 *3616:RESET_B 0
43 *147:12 *3616:RESET_B 0
44 *148:10 *3615:RESET_B 0
45 *255:68 *3615:RESET_B 0.000196516
46 *255:70 *3615:RESET_B 0.000104236
47 *353:22 *1084:87 0.000140499
48 *370:8 *3615:RESET_B 0
49 *370:8 *1084:41 0
50 *370:14 *1084:34 0
51 *370:14 *1084:41 0
52 *375:14 *1084:87 0
53 *378:18 *1084:87 0
54 *379:12 *3615:RESET_B 0
55 *973:32 *1084:34 0.00034421
56 *973:32 *1084:41 0.000137333
57 *973:81 *1084:87 0.000200925
58 *973:87 *1084:87 2.94103e-05
*RES
1 *3705:X *1084:6 11.4786 
2 *1084:6 *1084:10 10.375 
3 *1084:10 *3608:RESET_B 8.57143 
4 *1084:10 *1084:19 0.732143 
5 *1084:19 *3607:RESET_B 4.5 
6 *3607:RESET_B *1084:28 4.08036 
7 *1084:28 *1084:34 11.4643 
8 *1084:34 *3609:RESET_B 4.5 
9 *1084:34 *1084:41 5.28571 
10 *1084:41 *3606:RESET_B 4.5 
11 *1084:41 *3615:RESET_B 14.3393 
12 *1084:19 *3610:RESET_B 9.38393 
13 *1084:6 *1084:87 36.4107 
14 *1084:87 *3611:RESET_B 16.1518 
15 *1084:87 *3612:RESET_B 5.3125 
16 *3612:RESET_B *3616:RESET_B 13.9821 
*END

*D_NET *1085 0.0207198
*CONN
*I *3620:RESET_B I *D sky130_fd_sc_hd__dfrtp_4
*I *3622:RESET_B I *D sky130_fd_sc_hd__dfrtp_1
*I *3626:RESET_B I *D sky130_fd_sc_hd__dfrtp_4
*I *3617:RESET_B I *D sky130_fd_sc_hd__dfrtp_4
*I *3624:RESET_B I *D sky130_fd_sc_hd__dfrtp_4
*I *3623:RESET_B I *D sky130_fd_sc_hd__dfrtp_4
*I *3627:RESET_B I *D sky130_fd_sc_hd__dfrtp_1
*I *3629:RESET_B I *D sky130_fd_sc_hd__dfrtp_4
*I *3628:RESET_B I *D sky130_fd_sc_hd__dfrtp_4
*I *3618:RESET_B I *D sky130_fd_sc_hd__dfrtp_1
*I *3706:X O *D sky130_fd_sc_hd__clkbuf_4
*CAP
1 *3620:RESET_B 0.000206214
2 *3622:RESET_B 1.20447e-05
3 *3626:RESET_B 0.000149523
4 *3617:RESET_B 0.000572231
5 *3624:RESET_B 7.80913e-05
6 *3623:RESET_B 2.34563e-05
7 *3627:RESET_B 0
8 *3629:RESET_B 0.000279233
9 *3628:RESET_B 0.00123797
10 *3618:RESET_B 5.1177e-05
11 *3706:X 0.000100567
12 *1085:100 0.000671751
13 *1085:98 0.000871718
14 *1085:85 0.00142242
15 *1085:77 0.00151791
16 *1085:66 0.00139849
17 *1085:52 0.00102702
18 *1085:22 0.00157886
19 *1085:6 0.000443396
20 *1098:DIODE *3628:RESET_B 3.9008e-05
21 *2980:B1 *1085:77 0
22 *3464:A1 *1085:22 0.000215884
23 *3464:A2 *1085:22 3.33238e-05
24 *3464:B1 *1085:22 0.000189489
25 *3468:B *3620:RESET_B 3.50559e-05
26 *3468:B *1085:22 0.000186669
27 *3470:A2 *3620:RESET_B 0.000123295
28 *3470:A2 *3628:RESET_B 3.34295e-05
29 *3470:B1 *3628:RESET_B 4.447e-05
30 *3471:A2 *1085:22 0.000859228
31 *3471:A3 *3628:RESET_B 7.66483e-05
32 *3471:B1 *3628:RESET_B 0.000122866
33 *3471:B2 *3628:RESET_B 1.69961e-05
34 *3476:A *3628:RESET_B 6.19234e-05
35 *3480:A2 *3618:RESET_B 0.000175578
36 *3480:A2 *1085:6 0.000218685
37 *3484:A *3628:RESET_B 4.59075e-05
38 *3520:B1_N *3624:RESET_B 5.94737e-05
39 *3520:B1_N *3626:RESET_B 4.57445e-05
40 *3520:B1_N *1085:100 1.97381e-05
41 *3531:B *1085:66 0.000285327
42 *3532:A *1085:66 9.92379e-05
43 *3617:CLK *3617:RESET_B 0.000227539
44 *3618:D *3618:RESET_B 8.71192e-05
45 *3618:D *1085:6 1.98839e-05
46 *3621:CLK *3629:RESET_B 0
47 *3622:CLK *1085:77 0
48 *3628:D *1085:52 6.05161e-06
49 *3628:D *1085:66 0.00014894
50 *3696:A *1085:22 5.52302e-05
51 *119:12 *3617:RESET_B 1.70904e-05
52 *120:37 *3624:RESET_B 9.1469e-05
53 *120:37 *3626:RESET_B 0.000145434
54 *120:37 *1085:100 2.58997e-05
55 *121:10 *3628:RESET_B 0
56 *121:25 *3626:RESET_B 0
57 *122:12 *3620:RESET_B 4.27935e-05
58 *122:102 *3623:RESET_B 0.000108111
59 *122:102 *1085:85 0.000198698
60 *123:12 *3628:RESET_B 8.6229e-06
61 *124:10 *1085:85 5.39629e-06
62 *125:12 *1085:98 0.000261188
63 *126:62 *1085:66 1.02504e-05
64 *126:62 *1085:77 0.000382025
65 *129:48 *1085:66 0
66 *130:10 *1085:66 0.000110269
67 *130:10 *1085:77 3.17067e-05
68 *131:14 *3628:RESET_B 0.000188586
69 *131:34 *1085:66 9.45051e-05
70 *132:10 *3629:RESET_B 0.00012104
71 *132:10 *1085:66 0
72 *354:10 *1085:22 0.000215884
73 *406:10 *1085:77 0
74 *413:8 *1085:77 0
75 *843:22 *1085:66 2.1527e-05
76 *849:12 *3628:RESET_B 7.80456e-05
77 *866:20 *3628:RESET_B 0.000201026
78 *866:20 *1085:52 0.000259606
79 *882:12 *3620:RESET_B 7.93146e-05
80 *900:8 *3628:RESET_B 5.5518e-05
81 *902:10 *3628:RESET_B 8.39471e-05
82 *909:14 *3617:RESET_B 0.000350686
83 *909:14 *1085:98 4.18095e-05
84 *942:16 *1085:66 3.65376e-05
85 *967:104 *3629:RESET_B 3.50449e-05
86 *967:110 *3629:RESET_B 6.6782e-05
87 *967:159 *3629:RESET_B 3.46786e-05
88 *967:159 *1085:66 0.000697597
89 *974:63 *3628:RESET_B 6.04916e-05
90 *974:63 *1085:52 0.000166085
91 *1066:27 *3628:RESET_B 0.000350136
92 *1066:108 *3623:RESET_B 4.42832e-05
93 *1066:108 *1085:85 9.23097e-05
94 *1072:93 *1085:66 0.000190385
95 *1073:17 *3628:RESET_B 6.8646e-06
96 *1073:30 *3628:RESET_B 7.80714e-06
97 *1074:6 *1085:22 2.44318e-05
98 *1074:10 *3628:RESET_B 9.60875e-05
99 *1074:10 *1085:22 4.59075e-05
100 *1074:25 *3620:RESET_B 0.000181078
101 *1074:25 *3628:RESET_B 9.25014e-06
102 *1074:36 *3620:RESET_B 0.000168781
*RES
1 *3706:X *1085:6 11.4786 
2 *1085:6 *3618:RESET_B 1.70536 
3 *1085:6 *1085:22 24.6964 
4 *1085:22 *3628:RESET_B 34.1875 
5 *3628:RESET_B *1085:52 9.50893 
6 *1085:52 *3629:RESET_B 10.2946 
7 *1085:52 *1085:66 15.9464 
8 *1085:66 *3627:RESET_B 4.5 
9 *1085:66 *1085:77 19.2857 
10 *1085:77 *1085:85 14.5893 
11 *1085:85 *3623:RESET_B 5.83929 
12 *1085:85 *1085:98 17.75 
13 *1085:98 *1085:100 0.732143 
14 *1085:100 *3624:RESET_B 6.75 
15 *1085:100 *3617:RESET_B 16.6161 
16 *1085:98 *3626:RESET_B 8.26786 
17 *1085:77 *3622:RESET_B 0.473214 
18 *1085:22 *3620:RESET_B 10.0625 
*END

*D_NET *1086 0.0268527
*CONN
*I *1111:DIODE I *D sky130_fd_sc_hd__diode_2
*I *1126:DIODE I *D sky130_fd_sc_hd__diode_2
*I *3703:A I *D sky130_fd_sc_hd__clkbuf_2
*I *3582:RESET_B I *D sky130_fd_sc_hd__dfrtp_2
*I *1125:DIODE I *D sky130_fd_sc_hd__diode_2
*I *3701:A I *D sky130_fd_sc_hd__clkbuf_4
*I *1112:DIODE I *D sky130_fd_sc_hd__diode_2
*I *3625:RESET_B I *D sky130_fd_sc_hd__dfrtp_1
*I *1129:DIODE I *D sky130_fd_sc_hd__diode_2
*I *3706:A I *D sky130_fd_sc_hd__clkbuf_4
*I *1127:DIODE I *D sky130_fd_sc_hd__diode_2
*I *3704:A I *D sky130_fd_sc_hd__clkbuf_4
*I *1130:DIODE I *D sky130_fd_sc_hd__diode_2
*I *1128:DIODE I *D sky130_fd_sc_hd__diode_2
*I *3705:A I *D sky130_fd_sc_hd__buf_2
*I *3707:X O *D sky130_fd_sc_hd__buf_2
*CAP
1 *1111:DIODE 8.06955e-05
2 *1126:DIODE 0
3 *3703:A 5.27199e-05
4 *3582:RESET_B 0.000803014
5 *1125:DIODE 6.21913e-05
6 *3701:A 0.000138619
7 *1112:DIODE 9.96129e-05
8 *3625:RESET_B 8.45398e-06
9 *1129:DIODE 0
10 *3706:A 7.20963e-05
11 *1127:DIODE 4.31953e-05
12 *3704:A 2.61022e-05
13 *1130:DIODE 0
14 *1128:DIODE 0
15 *3705:A 0.000146499
16 *3707:X 0
17 *1086:180 0.000816925
18 *1086:164 0.000687971
19 *1086:136 0.00102873
20 *1086:132 0.0045621
21 *1086:109 0.000706981
22 *1086:89 8.99744e-05
23 *1086:85 0.00170558
24 *1086:58 0.00119204
25 *1086:47 0.000742398
26 *1086:36 0.000846806
27 *1086:14 0.000600548
28 *1086:8 0.00072467
29 *1086:6 0.00324577
30 *2820:A2 *3701:A 7.02611e-05
31 *2827:A1 *1125:DIODE 1.90936e-05
32 *2827:A1 *3701:A 8.84829e-05
33 *2843:B *1086:14 4.57445e-05
34 *2852:A2 *1125:DIODE 1.12323e-05
35 *2852:A2 *3701:A 9.03127e-05
36 *2861:A1 *1086:164 0.00028855
37 *2862:B *1086:164 0.000221156
38 *2874:A *1086:132 0.000155585
39 *2920:B *1086:36 0
40 *2920:C *1086:132 0.000811082
41 *2924:A2 *1086:109 2.8266e-06
42 *2946:A2 *1086:132 2.86703e-05
43 *3430:B1 *1086:58 3.23542e-05
44 *3430:B1 *1086:85 0.000374522
45 *3431:A2 *1086:58 0
46 *3435:A2 *3704:A 0.000186662
47 *3438:A *1086:85 0
48 *3445:A3 *1086:85 1.18064e-05
49 *3466:A2 *1086:85 5.74499e-06
50 *3467:A3 *1086:85 1.41029e-05
51 *3474:B *1086:85 0
52 *3475:C_N *3706:A 7.43578e-06
53 *3475:C_N *1086:89 2.89016e-05
54 *3475:C_N *1086:109 0.000126439
55 *3480:A2 *3706:A 2.89114e-05
56 *3481:A2 *1086:85 1.00375e-05
57 *3481:B1 *1086:85 9.91086e-05
58 *3482:C1 *1086:85 1.721e-05
59 *3523:A *1112:DIODE 4.13496e-05
60 *3540:A1 *1086:180 7.83659e-05
61 *3540:A2 *1086:180 2.22631e-05
62 *3541:B1 *3703:A 9.41642e-05
63 *3566:B1_N *1086:180 0
64 *3610:CLK *1086:8 3.69865e-05
65 *3610:CLK *1086:14 4.79842e-05
66 *3610:CLK *1086:132 1.5376e-05
67 *3611:D *1086:47 0
68 *3611:RESET_B *1086:47 0
69 *3614:RESET_B *1086:47 0
70 *3616:D *1086:47 0
71 *3616:D *1086:58 0
72 *3616:D *1086:85 0
73 *3616:RESET_B *1086:47 0
74 *3621:CLK *1086:180 0.000126198
75 *3682:A *1112:DIODE 8.66164e-05
76 *3682:A *3625:RESET_B 2.58856e-05
77 *3682:A *1086:109 6.09789e-05
78 *109:18 *1086:164 5.29944e-05
79 *109:28 *1086:164 0.0002252
80 *112:64 *1086:164 0
81 *114:8 *3701:A 1.55885e-05
82 *114:25 *1086:132 1.46911e-05
83 *114:25 *1086:136 0.000457655
84 *132:10 *1086:180 0
85 *132:18 *1086:180 5.33005e-05
86 *132:26 *1086:180 0.000172827
87 *142:16 *1086:132 0.00029867
88 *146:112 *1111:DIODE 9.7659e-05
89 *146:112 *3582:RESET_B 4.96155e-05
90 *146:112 *1086:180 0.000340893
91 *146:116 *1086:180 0
92 *147:12 *1127:DIODE 1.92789e-05
93 *147:12 *3704:A 0.000186662
94 *147:12 *1086:47 0.000367382
95 *147:12 *1086:58 3.17148e-05
96 *147:55 *1086:85 0
97 *147:55 *1086:109 0
98 *147:70 *1086:109 0
99 *150:19 *1086:164 0.000209476
100 *150:19 *1086:180 0
101 *272:33 *1086:164 7.6644e-05
102 *273:8 *1086:164 2.06178e-05
103 *296:16 *1086:164 4.22675e-05
104 *309:22 *1086:164 0
105 *320:10 *1086:164 3.93893e-05
106 *369:66 *1086:180 0.000154646
107 *369:169 *1086:85 0.000196262
108 *758:16 *1112:DIODE 0.000181335
109 *785:22 *1086:85 0.000172729
110 *803:14 *1086:85 1.58163e-05
111 *879:22 *1086:109 2.11646e-05
112 *881:22 *1086:85 0.000334875
113 *942:25 *1086:180 3.5298e-05
114 *942:33 *3703:A 7.32272e-05
115 *942:33 *1086:180 0.000218246
116 *967:10 *1086:164 0
117 *967:16 *1125:DIODE 4.00276e-06
118 *967:16 *1086:164 0
119 *967:104 *1086:180 0
120 *974:63 *1086:180 4.97567e-06
121 *997:30 *1112:DIODE 5.33005e-05
122 *1014:20 *1086:85 0.000140375
123 *1014:59 *1086:85 0.000170385
124 *1014:63 *1086:85 0.000230482
125 *1059:6 *1112:DIODE 4.39965e-05
126 *1059:12 *1086:109 0
127 *1059:14 *1086:109 0
128 *1059:16 *1086:85 0
129 *1059:16 *1086:109 0
130 *1059:56 *1086:85 7.6644e-05
131 *1084:6 *3705:A 5.62995e-05
*RES
1 *3707:X *1086:6 13.8 
2 *1086:6 *1086:8 1.33929 
3 *1086:8 *1086:14 11.2679 
4 *1086:14 *3705:A 12.2107 
5 *1086:14 *1128:DIODE 9.3 
6 *1086:8 *1086:36 7.32143 
7 *1086:36 *1130:DIODE 9.3 
8 *1086:36 *1086:47 16.9107 
9 *1086:47 *3704:A 15.5679 
10 *1086:47 *1086:58 1.33929 
11 *1086:58 *1127:DIODE 14.3357 
12 *1086:58 *1086:85 37.9643 
13 *1086:85 *1086:89 5.03571 
14 *1086:89 *3706:A 10.6571 
15 *1086:89 *1129:DIODE 9.3 
16 *1086:85 *1086:109 13.6071 
17 *1086:109 *3625:RESET_B 0.473214 
18 *1086:109 *1112:DIODE 12.8536 
19 *1086:6 *1086:132 11.3314 
20 *1086:132 *1086:136 5.47487 
21 *1086:136 *3701:A 16.7554 
22 *1086:136 *1125:DIODE 14.6125 
23 *1086:132 *1086:164 21.2404 
24 *1086:164 *3582:RESET_B 0.883929 
25 *3582:RESET_B *1086:180 26.7232 
26 *1086:180 *3703:A 10.6571 
27 *1086:180 *1126:DIODE 9.3 
28 *1086:164 *1111:DIODE 11.0679 
*END

*D_NET *1087 0.00366281
*CONN
*I *2843:A I *D sky130_fd_sc_hd__and2_1
*I *3745:X O *D sky130_fd_sc_hd__clkbuf_1
*CAP
1 *2843:A 0
2 *3745:X 0.00181413
3 *1087:12 0.00181413
4 *105:11 *1087:12 3.454e-05
*RES
1 *3745:X *1087:12 48.8179 
2 *1087:12 *2843:A 9.3 
*END

*D_NET *1088 0.000228368
*CONN
*I *3756:A I *D sky130_fd_sc_hd__buf_2
*I *2824:Y O *D sky130_fd_sc_hd__o21ai_1
*CAP
1 *3756:A 3.18722e-05
2 *2824:Y 3.18722e-05
3 *2824:B1 *3756:A 1.33343e-05
4 *2834:C1 *3756:A 4.88637e-05
5 *2840:A1 *3756:A 0.000102425
*RES
1 *2824:Y *3756:A 19.975 
*END

*D_NET *1089 0.0001382
*CONN
*I *3757:A I *D sky130_fd_sc_hd__buf_2
*I *2829:X O *D sky130_fd_sc_hd__a31o_1
*CAP
1 *3757:A 4.05265e-05
2 *2829:X 4.05265e-05
3 *2840:A1 *3757:A 5.71472e-05
*RES
1 *2829:X *3757:A 19.5643 
*END

*D_NET *1090 0.000809442
*CONN
*I *3758:A I *D sky130_fd_sc_hd__buf_2
*I *2832:X O *D sky130_fd_sc_hd__a31o_1
*CAP
1 *3758:A 0.00018745
2 *2832:X 0.00018745
3 *2824:A1 *3758:A 0.000120575
4 *2829:B1 *3758:A 0.000158258
5 *2832:B1 *3758:A 5.52302e-05
6 *108:60 *3758:A 0.000100478
*RES
1 *2832:X *3758:A 32.5107 
*END
