*SPEF "ieee 1481-1999"
*DESIGN "team_05"
*DATE "16:16:50 Saturday April 25, 2026"
*VENDOR "The OpenROAD Project"
*PROGRAM "OpenROAD"
*VERSION "edf00dff99f6c40d67a30c0e22a8191c5d2ed9d6"
*DESIGN_FLOW "NAME_SCOPE LOCAL" "PIN_CAP NONE"
*DIVIDER /
*DELIMITER :
*BUS_DELIMITER []
*T_UNIT 1 NS
*C_UNIT 1 PF
*R_UNIT 1 OHM
*L_UNIT 1 HENRY

*NAME_MAP
*1 clk
*2 en
*3 gpio_in[0]
*4 gpio_in[10]
*5 gpio_in[11]
*6 gpio_in[12]
*7 gpio_in[13]
*8 gpio_in[14]
*9 gpio_in[15]
*10 gpio_in[16]
*11 gpio_in[17]
*12 gpio_in[18]
*13 gpio_in[19]
*14 gpio_in[1]
*15 gpio_in[20]
*16 gpio_in[21]
*17 gpio_in[22]
*18 gpio_in[23]
*19 gpio_in[24]
*20 gpio_in[25]
*21 gpio_in[26]
*22 gpio_in[27]
*23 gpio_in[28]
*24 gpio_in[29]
*25 gpio_in[2]
*26 gpio_in[30]
*27 gpio_in[31]
*28 gpio_in[32]
*29 gpio_in[33]
*30 gpio_in[3]
*31 gpio_in[4]
*32 gpio_in[5]
*33 gpio_in[6]
*34 gpio_in[7]
*35 gpio_in[8]
*36 gpio_in[9]
*37 net99
*38 net109
*39 net110
*40 net111
*41 net112
*42 net62
*43 net113
*44 net114
*45 net115
*46 net116
*47 net117
*48 net100
*49 net118
*50 net119
*51 net120
*52 net121
*53 net122
*54 net123
*55 net124
*56 net125
*57 net126
*58 net127
*59 net101
*60 net128
*61 net129
*62 net130
*63 net131
*64 net102
*65 net103
*66 net104
*67 net105
*68 net106
*69 net107
*70 net108
*71 net63
*72 net73
*73 net74
*74 net75
*75 net76
*76 gpio_out[14]
*77 net77
*78 net78
*79 net79
*80 net80
*81 net81
*82 net64
*83 net82
*84 net83
*85 net84
*86 net85
*87 net86
*88 net87
*89 net88
*90 net89
*91 net90
*92 net91
*93 net65
*94 net92
*95 net93
*96 net94
*97 net95
*98 net66
*99 net67
*100 net68
*101 net69
*102 net70
*103 net71
*104 net72
*105 nrst
*108 SYNTH_INST\.count\[0\]
*109 SYNTH_INST\.count\[10\]
*110 SYNTH_INST\.count\[11\]
*111 SYNTH_INST\.count\[12\]
*112 SYNTH_INST\.count\[13\]
*113 SYNTH_INST\.count\[14\]
*114 SYNTH_INST\.count\[15\]
*115 SYNTH_INST\.count\[1\]
*116 SYNTH_INST\.count\[2\]
*117 SYNTH_INST\.count\[3\]
*118 SYNTH_INST\.count\[4\]
*119 SYNTH_INST\.count\[5\]
*120 SYNTH_INST\.count\[6\]
*121 SYNTH_INST\.count\[7\]
*122 SYNTH_INST\.count\[8\]
*123 SYNTH_INST\.count\[9\]
*124 SYNTH_INST\.freq_div\.keycode\[0\]
*125 SYNTH_INST\.freq_div\.keycode\[1\]
*126 SYNTH_INST\.freq_div\.keycode\[2\]
*127 SYNTH_INST\.freq_div\.keycode\[3\]
*128 SYNTH_INST\.keypad\.keypad_reg\[0\]
*129 SYNTH_INST\.keypad\.keypad_reg\[10\]
*130 SYNTH_INST\.keypad\.keypad_reg\[11\]
*131 SYNTH_INST\.keypad\.keypad_reg\[12\]
*132 SYNTH_INST\.keypad\.keypad_reg\[13\]
*133 SYNTH_INST\.keypad\.keypad_reg\[1\]
*134 SYNTH_INST\.keypad\.keypad_reg\[2\]
*135 SYNTH_INST\.keypad\.keypad_reg\[3\]
*136 SYNTH_INST\.keypad\.keypad_reg\[4\]
*137 SYNTH_INST\.keypad\.keypad_reg\[5\]
*138 SYNTH_INST\.keypad\.keypad_reg\[6\]
*139 SYNTH_INST\.keypad\.keypad_reg\[7\]
*140 SYNTH_INST\.keypad\.keypad_reg\[8\]
*141 SYNTH_INST\.keypad\.keypad_reg\[9\]
*142 SYNTH_INST\.keypad\.modekey
*143 SYNTH_INST\.keypad\.n_modekey
*144 SYNTH_INST\.keypad\.n_rst
*145 SYNTH_INST\.mode\[1\]
*146 SYNTH_INST\.oscill\.n_count\[0\]
*147 SYNTH_INST\.oscill\.n_count\[10\]
*148 SYNTH_INST\.oscill\.n_count\[11\]
*149 SYNTH_INST\.oscill\.n_count\[12\]
*150 SYNTH_INST\.oscill\.n_count\[13\]
*151 SYNTH_INST\.oscill\.n_count\[14\]
*152 SYNTH_INST\.oscill\.n_count\[1\]
*153 SYNTH_INST\.oscill\.n_count\[2\]
*154 SYNTH_INST\.oscill\.n_count\[3\]
*155 SYNTH_INST\.oscill\.n_count\[4\]
*156 SYNTH_INST\.oscill\.n_count\[5\]
*157 SYNTH_INST\.oscill\.n_count\[6\]
*158 SYNTH_INST\.oscill\.n_count\[7\]
*159 SYNTH_INST\.oscill\.n_count\[8\]
*160 SYNTH_INST\.oscill\.n_count\[9\]
*161 SYNTH_INST\.pwm
*162 SYNTH_INST\.pwm1
*163 SYNTH_INST\.pwm_counter\.active_sample\[0\]
*164 SYNTH_INST\.pwm_counter\.active_sample\[1\]
*165 SYNTH_INST\.pwm_counter\.active_sample\[2\]
*166 SYNTH_INST\.pwm_counter\.active_sample\[3\]
*167 SYNTH_INST\.pwm_counter\.active_sample\[4\]
*168 SYNTH_INST\.pwm_counter\.active_sample\[5\]
*169 SYNTH_INST\.pwm_counter\.active_sample\[6\]
*170 SYNTH_INST\.pwm_counter\.active_sample\[7\]
*171 SYNTH_INST\.pwm_counter\.count\[0\]
*172 SYNTH_INST\.pwm_counter\.count\[1\]
*173 SYNTH_INST\.pwm_counter\.count\[2\]
*174 SYNTH_INST\.pwm_counter\.count\[3\]
*175 SYNTH_INST\.pwm_counter\.count\[4\]
*176 SYNTH_INST\.pwm_counter\.count\[5\]
*177 SYNTH_INST\.pwm_counter\.count\[6\]
*178 SYNTH_INST\.pwm_counter\.count\[7\]
*179 SYNTH_INST\.pwm_counter\.n_count\[0\]
*180 SYNTH_INST\.pwm_counter\.n_count\[1\]
*181 SYNTH_INST\.pwm_counter\.n_count\[2\]
*182 SYNTH_INST\.pwm_counter\.n_count\[3\]
*183 SYNTH_INST\.pwm_counter\.n_count\[4\]
*184 SYNTH_INST\.pwm_counter\.n_count\[5\]
*185 SYNTH_INST\.pwm_counter\.n_count\[6\]
*186 SYNTH_INST\.pwm_counter\.n_count\[7\]
*187 SYNTH_INST\.pwm_counter\.n_pwm
*188 SYNTH_INST\.pwm_counter\.sample\[0\]
*189 SYNTH_INST\.pwm_counter\.sample\[1\]
*190 SYNTH_INST\.pwm_counter\.sample\[2\]
*191 SYNTH_INST\.pwm_counter\.sample\[3\]
*192 SYNTH_INST\.pwm_counter\.sample\[4\]
*193 SYNTH_INST\.pwm_counter\.sample\[5\]
*194 SYNTH_INST\.pwm_counter\.sample\[6\]
*195 SYNTH_INST\.pwm_counter\.sample\[7\]
*196 SYNTH_INST\.sample_rate\.count\[0\]
*197 SYNTH_INST\.sample_rate\.count\[1\]
*198 SYNTH_INST\.sample_rate\.count\[2\]
*199 SYNTH_INST\.sample_rate\.count\[3\]
*200 SYNTH_INST\.sample_rate\.count\[4\]
*201 SYNTH_INST\.sample_rate\.count\[5\]
*202 SYNTH_INST\.sample_rate\.count\[6\]
*203 SYNTH_INST\.sample_rate\.count\[7\]
*204 SYNTH_INST\.sample_rate\.n_count\[0\]
*205 SYNTH_INST\.sample_rate\.n_count\[1\]
*206 SYNTH_INST\.sample_rate\.n_count\[2\]
*207 SYNTH_INST\.sample_rate\.n_count\[3\]
*208 SYNTH_INST\.sample_rate\.n_count\[4\]
*209 SYNTH_INST\.sample_rate\.n_count\[5\]
*210 SYNTH_INST\.state_machine\.fsmState\[0\]
*211 SYNTH_INST\.state_machine\.fsmState\[1\]
*212 SYNTH_INST\.state_machine\.nextState\[0\]
*213 SYNTH_INST\.state_machine\.nextState\[1\]
*214 SYNTH_INST\.state_machine\.nextState\[2\]
*215 SYNTH_INST\.waveshape\.scaled_count\[0\]
*216 SYNTH_INST\.waveshape\.scaled_count\[1\]
*217 SYNTH_INST\.waveshape\.scaled_count\[2\]
*218 SYNTH_INST\.waveshape\.scaled_count\[3\]
*219 SYNTH_INST\.waveshape\.scaled_count\[4\]
*220 SYNTH_INST\.waveshape\.scaled_count\[5\]
*221 SYNTH_INST\.waveshape\.scaled_count\[6\]
*222 SYNTH_INST\.waveshape\.scaled_count\[7\]
*223 SYNTH_INST\.waveshape\.seq_div\.dividend\[10\]
*224 SYNTH_INST\.waveshape\.seq_div\.dividend\[11\]
*225 SYNTH_INST\.waveshape\.seq_div\.dividend\[12\]
*226 SYNTH_INST\.waveshape\.seq_div\.dividend\[13\]
*227 SYNTH_INST\.waveshape\.seq_div\.dividend\[14\]
*228 SYNTH_INST\.waveshape\.seq_div\.dividend\[15\]
*229 SYNTH_INST\.waveshape\.seq_div\.dividend\[16\]
*230 SYNTH_INST\.waveshape\.seq_div\.dividend\[17\]
*231 SYNTH_INST\.waveshape\.seq_div\.dividend\[18\]
*232 SYNTH_INST\.waveshape\.seq_div\.dividend\[19\]
*233 SYNTH_INST\.waveshape\.seq_div\.dividend\[20\]
*234 SYNTH_INST\.waveshape\.seq_div\.dividend\[21\]
*235 SYNTH_INST\.waveshape\.seq_div\.dividend\[22\]
*236 SYNTH_INST\.waveshape\.seq_div\.dividend\[23\]
*237 SYNTH_INST\.waveshape\.seq_div\.dividend\[24\]
*238 SYNTH_INST\.waveshape\.seq_div\.dividend\[25\]
*239 SYNTH_INST\.waveshape\.seq_div\.dividend\[26\]
*240 SYNTH_INST\.waveshape\.seq_div\.dividend\[27\]
*241 SYNTH_INST\.waveshape\.seq_div\.dividend\[28\]
*242 SYNTH_INST\.waveshape\.seq_div\.dividend\[29\]
*243 SYNTH_INST\.waveshape\.seq_div\.dividend\[30\]
*244 SYNTH_INST\.waveshape\.seq_div\.dividend\[31\]
*245 SYNTH_INST\.waveshape\.seq_div\.dividend\[32\]
*246 SYNTH_INST\.waveshape\.seq_div\.dividend\[33\]
*247 SYNTH_INST\.waveshape\.seq_div\.dividend\[34\]
*248 SYNTH_INST\.waveshape\.seq_div\.dividend\[35\]
*249 SYNTH_INST\.waveshape\.seq_div\.dividend\[36\]
*250 SYNTH_INST\.waveshape\.seq_div\.dividend\[37\]
*251 SYNTH_INST\.waveshape\.seq_div\.dividend\[38\]
*252 SYNTH_INST\.waveshape\.seq_div\.dividend\[39\]
*253 SYNTH_INST\.waveshape\.seq_div\.dividend\[40\]
*254 SYNTH_INST\.waveshape\.seq_div\.dividend\[41\]
*255 SYNTH_INST\.waveshape\.seq_div\.dividend\[42\]
*256 SYNTH_INST\.waveshape\.seq_div\.dividend\[43\]
*257 SYNTH_INST\.waveshape\.seq_div\.dividend\[44\]
*258 SYNTH_INST\.waveshape\.seq_div\.dividend\[45\]
*259 SYNTH_INST\.waveshape\.seq_div\.dividend\[46\]
*260 SYNTH_INST\.waveshape\.seq_div\.dividend\[47\]
*261 SYNTH_INST\.waveshape\.seq_div\.dividend\[8\]
*262 SYNTH_INST\.waveshape\.seq_div\.dividend\[9\]
*263 SYNTH_INST\.waveshape\.seq_div\.n\[0\]
*264 SYNTH_INST\.waveshape\.seq_div\.n\[1\]
*265 SYNTH_INST\.waveshape\.seq_div\.n\[2\]
*266 SYNTH_INST\.waveshape\.seq_div\.n\[3\]
*267 SYNTH_INST\.waveshape\.seq_div\.n\[4\]
*268 SYNTH_INST\.waveshape\.seq_div\.state\[0\]
*269 SYNTH_INST\.waveshape\.seq_div\.state\[1\]
*270 SYNTH_INST\.waveshape\.seq_div\.state\[2\]
*271 SYNTH_INST\.waveshape\.seq_div\.state\[3\]
*272 SYNTH_INST\.waveshape\.seq_div\.state\[4\]
*273 SYNTH_INST\.waveshape\.shaper\.n_sample\[0\]
*274 SYNTH_INST\.waveshape\.shaper\.n_sample\[1\]
*275 SYNTH_INST\.waveshape\.shaper\.n_sample\[2\]
*276 SYNTH_INST\.waveshape\.shaper\.n_sample\[3\]
*277 SYNTH_INST\.waveshape\.shaper\.n_sample\[4\]
*278 SYNTH_INST\.waveshape\.shaper\.n_sample\[5\]
*279 SYNTH_INST\.waveshape\.shaper\.n_sample\[6\]
*280 SYNTH_INST\.waveshape\.shaper\.n_sample\[7\]
*281 _0000_
*282 _0001_
*283 _0002_
*284 _0003_
*285 _0004_
*286 _0005_
*287 _0006_
*288 _0007_
*289 _0008_
*290 _0009_
*291 _0010_
*292 _0011_
*293 _0012_
*294 _0013_
*295 _0014_
*296 _0015_
*297 _0016_
*298 _0017_
*299 _0018_
*300 _0019_
*301 _0020_
*302 _0021_
*303 _0022_
*304 _0023_
*305 _0024_
*306 _0025_
*307 _0026_
*308 _0027_
*309 _0028_
*310 _0029_
*311 _0030_
*312 _0031_
*313 _0032_
*314 _0033_
*315 _0034_
*316 _0035_
*317 _0036_
*318 _0037_
*319 _0038_
*320 _0039_
*321 _0040_
*322 _0041_
*323 _0042_
*324 _0043_
*325 _0044_
*326 _0045_
*327 _0046_
*328 _0047_
*329 _0048_
*330 _0049_
*331 _0050_
*332 _0051_
*333 _0052_
*334 _0053_
*335 _0054_
*336 _0055_
*337 _0056_
*338 _0057_
*339 _0058_
*340 _0059_
*341 _0060_
*342 _0061_
*343 _0062_
*344 _0063_
*345 _0064_
*346 _0065_
*347 _0066_
*348 _0067_
*349 _0068_
*350 _0069_
*351 _0070_
*352 _0071_
*353 _0072_
*354 _0073_
*355 _0074_
*356 _0075_
*357 _0076_
*358 _0077_
*359 _0078_
*360 _0079_
*361 _0080_
*362 _0081_
*363 _0082_
*364 _0083_
*365 _0084_
*366 _0085_
*367 _0086_
*368 _0087_
*369 _0088_
*370 _0089_
*371 _0090_
*372 _0091_
*373 _0092_
*374 _0093_
*375 _0094_
*376 _0095_
*377 _0096_
*378 _0097_
*379 _0098_
*380 _0099_
*381 _0100_
*382 _0101_
*383 _0102_
*384 _0103_
*385 _0104_
*386 _0105_
*387 _0106_
*388 _0107_
*389 _0108_
*390 _0109_
*391 _0110_
*392 _0111_
*393 _0112_
*394 _0113_
*395 _0114_
*396 _0115_
*397 _0116_
*398 _0117_
*399 _0118_
*400 _0119_
*401 _0120_
*402 _0121_
*403 _0122_
*404 _0123_
*405 _0124_
*406 _0125_
*407 _0126_
*408 _0127_
*409 _0128_
*410 _0129_
*411 _0130_
*412 _0131_
*413 _0132_
*414 _0133_
*415 _0134_
*416 _0135_
*417 _0136_
*418 _0137_
*419 _0138_
*420 _0139_
*421 _0140_
*422 _0141_
*423 _0142_
*424 _0143_
*425 _0144_
*426 _0145_
*427 _0146_
*428 _0147_
*429 _0148_
*430 _0149_
*431 _0150_
*432 _0151_
*433 _0152_
*434 _0153_
*435 _0154_
*436 _0155_
*437 _0156_
*438 _0157_
*439 _0158_
*440 _0159_
*441 _0160_
*442 _0161_
*443 _0162_
*444 _0163_
*445 _0164_
*446 _0165_
*447 _0166_
*448 _0167_
*449 _0168_
*450 _0169_
*451 _0170_
*452 _0171_
*453 _0172_
*454 _0173_
*455 _0174_
*456 _0175_
*457 _0176_
*458 _0177_
*459 _0178_
*460 _0179_
*461 _0180_
*462 _0181_
*463 _0182_
*464 _0183_
*465 _0184_
*466 _0185_
*467 _0186_
*468 _0187_
*469 _0188_
*470 _0189_
*471 _0190_
*472 _0191_
*473 _0192_
*474 _0193_
*475 _0194_
*476 _0195_
*477 _0196_
*478 _0197_
*479 _0198_
*480 _0199_
*481 _0200_
*482 _0201_
*483 _0202_
*484 _0203_
*485 _0204_
*486 _0205_
*487 _0206_
*488 _0207_
*489 _0208_
*490 _0209_
*491 _0210_
*492 _0211_
*493 _0212_
*494 _0213_
*495 _0214_
*496 _0215_
*497 _0216_
*498 _0217_
*499 _0218_
*500 _0219_
*501 _0220_
*502 _0221_
*503 _0222_
*504 _0223_
*505 _0224_
*506 _0225_
*507 _0226_
*508 _0227_
*509 _0228_
*510 _0229_
*511 _0230_
*512 _0231_
*513 _0232_
*514 _0233_
*515 _0234_
*516 _0235_
*517 _0236_
*518 _0237_
*519 _0238_
*520 _0239_
*521 _0240_
*522 _0241_
*523 _0242_
*524 _0243_
*525 _0244_
*526 _0245_
*527 _0246_
*528 _0247_
*529 _0248_
*530 _0249_
*531 _0250_
*532 _0251_
*533 _0252_
*534 _0253_
*535 _0254_
*536 _0255_
*537 _0256_
*538 _0257_
*539 _0258_
*540 _0259_
*541 _0260_
*542 _0261_
*543 _0262_
*544 _0263_
*545 _0264_
*546 _0265_
*547 _0266_
*548 _0267_
*549 _0268_
*550 _0269_
*551 _0270_
*552 _0271_
*553 _0272_
*554 _0273_
*555 _0274_
*556 _0275_
*557 _0276_
*558 _0277_
*559 _0278_
*560 _0279_
*561 _0280_
*562 _0281_
*563 _0282_
*564 _0283_
*565 _0284_
*566 _0285_
*567 _0286_
*568 _0287_
*569 _0288_
*570 _0289_
*571 _0290_
*572 _0291_
*573 _0292_
*574 _0293_
*575 _0294_
*576 _0295_
*577 _0296_
*578 _0297_
*579 _0298_
*580 _0299_
*581 _0300_
*582 _0301_
*583 _0302_
*584 _0303_
*585 _0304_
*586 _0305_
*587 _0306_
*588 _0307_
*589 _0308_
*590 _0309_
*591 _0310_
*592 _0311_
*593 _0312_
*594 _0313_
*595 _0314_
*596 _0315_
*597 _0316_
*598 _0317_
*599 _0318_
*600 _0319_
*601 _0320_
*602 _0321_
*603 _0322_
*604 _0323_
*605 _0324_
*606 _0325_
*607 _0326_
*608 _0327_
*609 _0328_
*610 _0329_
*611 _0330_
*612 _0331_
*613 _0332_
*614 _0333_
*615 _0334_
*616 _0335_
*617 _0336_
*618 _0337_
*619 _0338_
*620 _0339_
*621 _0340_
*622 _0341_
*623 _0342_
*624 _0343_
*625 _0344_
*626 _0345_
*627 _0346_
*628 _0347_
*629 _0348_
*630 _0349_
*631 _0350_
*632 _0351_
*633 _0352_
*634 _0353_
*635 _0354_
*636 _0355_
*637 _0356_
*638 _0357_
*639 _0358_
*640 _0359_
*641 _0360_
*642 _0361_
*643 _0362_
*644 _0363_
*645 _0364_
*646 _0365_
*647 _0366_
*648 _0367_
*649 _0368_
*650 _0369_
*651 _0370_
*652 _0371_
*653 _0372_
*654 _0373_
*655 _0374_
*656 _0375_
*657 _0376_
*658 _0377_
*659 _0378_
*660 _0379_
*661 _0380_
*662 _0381_
*663 _0382_
*664 _0383_
*665 _0384_
*666 _0385_
*667 _0386_
*668 _0387_
*669 _0388_
*670 _0389_
*671 _0390_
*672 _0391_
*673 _0392_
*674 _0393_
*675 _0394_
*676 _0395_
*677 _0396_
*678 _0397_
*679 _0398_
*680 _0399_
*681 _0400_
*682 _0401_
*683 _0402_
*684 _0403_
*685 _0404_
*686 _0405_
*687 _0406_
*688 _0407_
*689 _0408_
*690 _0409_
*691 _0410_
*692 _0411_
*693 _0412_
*694 _0413_
*695 _0414_
*696 _0415_
*697 _0416_
*698 _0417_
*699 _0418_
*700 _0419_
*701 _0420_
*702 _0421_
*703 _0422_
*704 _0423_
*705 _0424_
*706 _0425_
*707 _0426_
*708 _0427_
*709 _0428_
*710 _0429_
*711 _0430_
*712 _0431_
*713 _0432_
*714 _0433_
*715 _0434_
*716 _0435_
*717 clknet_0_clk
*718 clknet_4_0_0_clk
*719 clknet_4_10_0_clk
*720 clknet_4_11_0_clk
*721 clknet_4_12_0_clk
*722 clknet_4_13_0_clk
*723 clknet_4_14_0_clk
*724 clknet_4_15_0_clk
*725 clknet_4_1_0_clk
*726 clknet_4_2_0_clk
*727 clknet_4_3_0_clk
*728 clknet_4_4_0_clk
*729 clknet_4_5_0_clk
*730 clknet_4_6_0_clk
*731 clknet_4_7_0_clk
*732 clknet_4_8_0_clk
*733 clknet_4_9_0_clk
*734 net1
*735 net10
*736 net11
*737 net12
*738 net13
*739 net132
*740 net133
*741 net134
*742 net135
*743 net136
*744 net137
*745 net138
*746 net139
*747 net14
*748 net140
*749 net141
*750 net142
*751 net143
*752 net144
*753 net145
*754 net146
*755 net147
*756 net148
*757 net149
*758 net15
*759 net150
*760 net151
*761 net152
*762 net153
*763 net154
*764 net155
*765 net156
*766 net157
*767 net158
*768 net159
*769 net16
*770 net160
*771 net161
*772 net162
*773 net163
*774 net164
*775 net165
*776 net166
*777 net167
*778 net168
*779 net169
*780 net17
*781 net170
*782 net171
*783 net172
*784 net173
*785 net174
*786 net175
*787 net176
*788 net177
*789 net178
*790 net179
*791 net18
*792 net180
*793 net181
*794 net182
*795 net183
*796 net184
*797 net185
*798 net186
*799 net187
*800 net188
*801 net189
*802 net19
*803 net190
*804 net191
*805 net192
*806 net193
*807 net194
*808 net195
*809 net196
*810 net197
*811 net198
*812 net199
*813 net2
*814 net20
*815 net200
*816 net201
*817 net202
*818 net21
*819 net22
*820 net23
*821 net24
*822 net25
*823 net26
*824 net27
*825 net28
*826 net29
*827 net3
*828 net30
*829 net31
*830 net32
*831 net33
*832 net34
*833 net35
*834 net36
*835 net37
*836 net38
*837 net39
*838 net4
*839 net40
*840 net41
*841 net42
*842 net43
*843 net44
*844 net45
*845 net46
*846 net47
*847 net48
*848 net49
*849 net5
*850 net50
*851 net51
*852 net52
*853 net53
*854 net54
*855 net55
*856 net56
*857 net57
*858 net58
*859 net59
*860 net6
*861 net60
*862 net61
*863 net7
*864 net8
*865 net9
*866 net96
*867 net97
*868 net98
*869 ANTENNA__0440__A
*870 ANTENNA__0724__B
*871 ANTENNA__0765__A
*872 ANTENNA__0767__A
*873 ANTENNA__0771__A2
*874 ANTENNA__0804__A1
*875 ANTENNA__0804__B1
*876 ANTENNA__0807__B2
*877 ANTENNA__0810__C
*878 ANTENNA__0811__B1
*879 ANTENNA__0812__A2
*880 ANTENNA__0815__B2
*881 ANTENNA__0816__S
*882 ANTENNA__0819__A1
*883 ANTENNA__0820__S
*884 ANTENNA__0824__A1
*885 ANTENNA__0824__B1
*886 ANTENNA__0825__A2
*887 ANTENNA__0830__S
*888 ANTENNA__0833__A
*889 ANTENNA__0834__B1
*890 ANTENNA__0835__A2
*891 ANTENNA__0840__S
*892 ANTENNA__0842__B1
*893 ANTENNA__0843__A2
*894 ANTENNA__0843__C1
*895 ANTENNA__0881__C1
*896 ANTENNA__0947__RESET_B
*897 ANTENNA__0968__RESET_B
*898 ANTENNA__0981__RESET_B
*899 ANTENNA__1008__RESET_B
*900 ANTENNA__1009__RESET_B
*901 ANTENNA__1015__RESET_B
*902 ANTENNA__1016__RESET_B
*903 ANTENNA__1017__RESET_B
*904 ANTENNA_clkbuf_0_clk_A
*905 ANTENNA_clkbuf_0_clk_X
*906 ANTENNA_clkbuf_4_0_0_clk_A
*907 ANTENNA_clkbuf_4_10_0_clk_A
*908 ANTENNA_clkbuf_4_11_0_clk_A
*909 ANTENNA_clkbuf_4_12_0_clk_A
*910 ANTENNA_clkbuf_4_13_0_clk_A
*911 ANTENNA_clkbuf_4_14_0_clk_A
*912 ANTENNA_clkbuf_4_15_0_clk_A
*913 ANTENNA_clkbuf_4_1_0_clk_A
*914 ANTENNA_clkbuf_4_2_0_clk_A
*915 ANTENNA_clkbuf_4_3_0_clk_A
*916 ANTENNA_clkbuf_4_4_0_clk_A
*917 ANTENNA_clkbuf_4_5_0_clk_A
*918 ANTENNA_clkbuf_4_6_0_clk_A
*919 ANTENNA_clkbuf_4_7_0_clk_A
*920 ANTENNA_clkbuf_4_8_0_clk_A
*921 ANTENNA_clkbuf_4_9_0_clk_A
*922 ANTENNA_fanout26_A
*923 ANTENNA_fanout27_X
*924 ANTENNA_fanout28_A
*925 ANTENNA_fanout29_X
*926 ANTENNA_fanout39_A
*927 ANTENNA_fanout40_X
*928 ANTENNA_fanout41_A
*929 ANTENNA_fanout42_A
*930 ANTENNA_fanout43_X
*931 ANTENNA_fanout47_A
*932 ANTENNA_fanout48_X
*933 ANTENNA_input10_A
*934 ANTENNA_input11_A
*935 ANTENNA_input12_A
*936 ANTENNA_input13_A
*937 ANTENNA_input14_A
*938 ANTENNA_input15_A
*939 ANTENNA_input16_A
*940 ANTENNA_input1_A
*941 ANTENNA_input2_A
*942 ANTENNA_input3_A
*943 ANTENNA_input4_A
*944 ANTENNA_input5_A
*945 ANTENNA_input6_A
*946 ANTENNA_input7_A
*947 ANTENNA_input8_A
*948 ANTENNA_input9_A
*949 FILLER_0_101
*950 FILLER_0_109
*951 FILLER_0_111
*952 FILLER_0_113
*953 FILLER_0_121
*954 FILLER_0_130
*955 FILLER_0_138
*956 FILLER_0_141
*957 FILLER_0_153
*958 FILLER_0_16
*959 FILLER_0_165
*960 FILLER_0_167
*961 FILLER_0_169
*962 FILLER_0_181
*963 FILLER_0_193
*964 FILLER_0_195
*965 FILLER_0_20
*966 FILLER_0_204
*967 FILLER_0_216
*968 FILLER_0_225
*969 FILLER_0_233
*970 FILLER_0_237
*971 FILLER_0_241
*972 FILLER_0_253
*973 FILLER_0_27
*974 FILLER_0_29
*975 FILLER_0_41
*976 FILLER_0_53
*977 FILLER_0_55
*978 FILLER_0_57
*979 FILLER_0_69
*980 FILLER_0_77
*981 FILLER_0_81
*982 FILLER_0_83
*983 FILLER_0_85
*984 FILLER_0_9
*985 FILLER_0_97
*986 FILLER_10_101
*987 FILLER_10_128
*988 FILLER_10_149
*989 FILLER_10_151
*990 FILLER_10_18
*991 FILLER_10_183
*992 FILLER_10_195
*993 FILLER_10_197
*994 FILLER_10_201
*995 FILLER_10_210
*996 FILLER_10_222
*997 FILLER_10_234
*998 FILLER_10_246
*999 FILLER_10_248
*1000 FILLER_10_253
*1001 FILLER_10_26
*1002 FILLER_10_44
*1003 FILLER_10_55
*1004 FILLER_10_6
*1005 FILLER_10_63
*1006 FILLER_10_67
*1007 FILLER_10_69
*1008 FILLER_10_82
*1009 FILLER_10_85
*1010 FILLER_10_97
*1011 FILLER_11_128
*1012 FILLER_11_150
*1013 FILLER_11_152
*1014 FILLER_11_161
*1015 FILLER_11_189
*1016 FILLER_11_191
*1017 FILLER_11_205
*1018 FILLER_11_213
*1019 FILLER_11_221
*1020 FILLER_11_223
*1021 FILLER_11_233
*1022 FILLER_11_245
*1023 FILLER_11_249
*1024 FILLER_11_251
*1025 FILLER_11_27
*1026 FILLER_11_31
*1027 FILLER_11_33
*1028 FILLER_11_49
*1029 FILLER_11_57
*1030 FILLER_11_66
*1031 FILLER_11_82
*1032 FILLER_11_90
*1033 FILLER_12_105
*1034 FILLER_12_134
*1035 FILLER_12_138
*1036 FILLER_12_148
*1037 FILLER_12_195
*1038 FILLER_12_239
*1039 FILLER_12_247
*1040 FILLER_12_253
*1041 FILLER_12_29
*1042 FILLER_12_33
*1043 FILLER_12_6
*1044 FILLER_12_82
*1045 FILLER_12_88
*1046 FILLER_13_111
*1047 FILLER_13_113
*1048 FILLER_13_139
*1049 FILLER_13_151
*1050 FILLER_13_222
*1051 FILLER_13_245
*1052 FILLER_13_253
*1053 FILLER_13_26
*1054 FILLER_13_3
*1055 FILLER_13_57
*1056 FILLER_13_61
*1057 FILLER_13_77
*1058 FILLER_13_87
*1059 FILLER_14_115
*1060 FILLER_14_137
*1061 FILLER_14_139
*1062 FILLER_14_141
*1063 FILLER_14_149
*1064 FILLER_14_151
*1065 FILLER_14_18
*1066 FILLER_14_20
*1067 FILLER_14_217
*1068 FILLER_14_242
*1069 FILLER_14_253
*1070 FILLER_14_26
*1071 FILLER_14_29
*1072 FILLER_14_6
*1073 FILLER_14_63
*1074 FILLER_14_83
*1075 FILLER_15_113
*1076 FILLER_15_120
*1077 FILLER_15_138
*1078 FILLER_15_146
*1079 FILLER_15_167
*1080 FILLER_15_169
*1081 FILLER_15_177
*1082 FILLER_15_189
*1083 FILLER_15_191
*1084 FILLER_15_200
*1085 FILLER_15_216
*1086 FILLER_15_26
*1087 FILLER_15_30
*1088 FILLER_15_81
*1089 FILLER_15_83
*1090 FILLER_16_121
*1091 FILLER_16_137
*1092 FILLER_16_139
*1093 FILLER_16_192
*1094 FILLER_16_201
*1095 FILLER_16_213
*1096 FILLER_16_23
*1097 FILLER_16_231
*1098 FILLER_16_253
*1099 FILLER_16_27
*1100 FILLER_16_90
*1101 FILLER_17_104
*1102 FILLER_17_110
*1103 FILLER_17_144
*1104 FILLER_17_159
*1105 FILLER_17_167
*1106 FILLER_17_169
*1107 FILLER_17_214
*1108 FILLER_17_220
*1109 FILLER_17_253
*1110 FILLER_17_36
*1111 FILLER_17_51
*1112 FILLER_17_57
*1113 FILLER_17_87
*1114 FILLER_17_97
*1115 FILLER_18_110
*1116 FILLER_18_139
*1117 FILLER_18_141
*1118 FILLER_18_143
*1119 FILLER_18_15
*1120 FILLER_18_172
*1121 FILLER_18_182
*1122 FILLER_18_184
*1123 FILLER_18_19
*1124 FILLER_18_21
*1125 FILLER_18_253
*1126 FILLER_18_29
*1127 FILLER_18_3
*1128 FILLER_18_39
*1129 FILLER_18_51
*1130 FILLER_18_58
*1131 FILLER_18_67
*1132 FILLER_18_69
*1133 FILLER_18_79
*1134 FILLER_18_83
*1135 FILLER_18_85
*1136 FILLER_19_104
*1137 FILLER_19_113
*1138 FILLER_19_126
*1139 FILLER_19_14
*1140 FILLER_19_160
*1141 FILLER_19_169
*1142 FILLER_19_181
*1143 FILLER_19_200
*1144 FILLER_19_212
*1145 FILLER_19_216
*1146 FILLER_19_218
*1147 FILLER_19_231
*1148 FILLER_19_241
*1149 FILLER_19_243
*1150 FILLER_19_252
*1151 FILLER_19_254
*1152 FILLER_19_43
*1153 FILLER_19_45
*1154 FILLER_19_49
*1155 FILLER_19_53
*1156 FILLER_19_55
*1157 FILLER_19_57
*1158 FILLER_19_59
*1159 FILLER_19_6
*1160 FILLER_19_64
*1161 FILLER_19_68
*1162 FILLER_19_70
*1163 FILLER_19_91
*1164 FILLER_19_99
*1165 FILLER_1_111
*1166 FILLER_1_115
*1167 FILLER_1_119
*1168 FILLER_1_161
*1169 FILLER_1_169
*1170 FILLER_1_204
*1171 FILLER_1_21
*1172 FILLER_1_216
*1173 FILLER_1_225
*1174 FILLER_1_237
*1175 FILLER_1_29
*1176 FILLER_1_52
*1177 FILLER_1_57
*1178 FILLER_1_9
*1179 FILLER_20_105
*1180 FILLER_20_111
*1181 FILLER_20_113
*1182 FILLER_20_143
*1183 FILLER_20_167
*1184 FILLER_20_17
*1185 FILLER_20_179
*1186 FILLER_20_187
*1187 FILLER_20_213
*1188 FILLER_20_221
*1189 FILLER_20_245
*1190 FILLER_20_253
*1191 FILLER_20_29
*1192 FILLER_20_46
*1193 FILLER_20_58
*1194 FILLER_20_66
*1195 FILLER_20_75
*1196 FILLER_20_83
*1197 FILLER_20_9
*1198 FILLER_21_157
*1199 FILLER_21_159
*1200 FILLER_21_189
*1201 FILLER_21_217
*1202 FILLER_21_221
*1203 FILLER_21_223
*1204 FILLER_21_225
*1205 FILLER_21_25
*1206 FILLER_21_27
*1207 FILLER_21_3
*1208 FILLER_21_48
*1209 FILLER_21_78
*1210 FILLER_21_82
*1211 FILLER_22_108
*1212 FILLER_22_130
*1213 FILLER_22_138
*1214 FILLER_22_147
*1215 FILLER_22_159
*1216 FILLER_22_163
*1217 FILLER_22_195
*1218 FILLER_22_223
*1219 FILLER_22_250
*1220 FILLER_22_253
*1221 FILLER_22_41
*1222 FILLER_22_45
*1223 FILLER_22_6
*1224 FILLER_23_10
*1225 FILLER_23_101
*1226 FILLER_23_109
*1227 FILLER_23_111
*1228 FILLER_23_117
*1229 FILLER_23_121
*1230 FILLER_23_123
*1231 FILLER_23_15
*1232 FILLER_23_169
*1233 FILLER_23_191
*1234 FILLER_23_202
*1235 FILLER_23_225
*1236 FILLER_23_27
*1237 FILLER_23_29
*1238 FILLER_23_36
*1239 FILLER_23_48
*1240 FILLER_23_57
*1241 FILLER_23_6
*1242 FILLER_23_73
*1243 FILLER_23_85
*1244 FILLER_23_97
*1245 FILLER_24_108
*1246 FILLER_24_110
*1247 FILLER_24_125
*1248 FILLER_24_127
*1249 FILLER_24_132
*1250 FILLER_24_141
*1251 FILLER_24_143
*1252 FILLER_24_170
*1253 FILLER_24_178
*1254 FILLER_24_185
*1255 FILLER_24_193
*1256 FILLER_24_195
*1257 FILLER_24_197
*1258 FILLER_24_201
*1259 FILLER_24_222
*1260 FILLER_24_225
*1261 FILLER_24_241
*1262 FILLER_24_250
*1263 FILLER_24_253
*1264 FILLER_24_26
*1265 FILLER_24_29
*1266 FILLER_24_3
*1267 FILLER_24_46
*1268 FILLER_24_58
*1269 FILLER_24_70
*1270 FILLER_24_82
*1271 FILLER_24_85
*1272 FILLER_24_95
*1273 FILLER_24_99
*1274 FILLER_25_109
*1275 FILLER_25_111
*1276 FILLER_25_113
*1277 FILLER_25_177
*1278 FILLER_25_181
*1279 FILLER_25_203
*1280 FILLER_25_215
*1281 FILLER_25_223
*1282 FILLER_25_236
*1283 FILLER_25_238
*1284 FILLER_25_254
*1285 FILLER_25_55
*1286 FILLER_25_57
*1287 FILLER_25_87
*1288 FILLER_25_9
*1289 FILLER_26_127
*1290 FILLER_26_132
*1291 FILLER_26_134
*1292 FILLER_26_161
*1293 FILLER_26_163
*1294 FILLER_26_184
*1295 FILLER_26_224
*1296 FILLER_26_23
*1297 FILLER_26_245
*1298 FILLER_26_27
*1299 FILLER_26_29
*1300 FILLER_26_33
*1301 FILLER_26_81
*1302 FILLER_26_83
*1303 FILLER_27_103
*1304 FILLER_27_113
*1305 FILLER_27_125
*1306 FILLER_27_146
*1307 FILLER_27_163
*1308 FILLER_27_167
*1309 FILLER_27_223
*1310 FILLER_27_23
*1311 FILLER_27_245
*1312 FILLER_27_249
*1313 FILLER_27_55
*1314 FILLER_27_57
*1315 FILLER_27_66
*1316 FILLER_27_74
*1317 FILLER_28_132
*1318 FILLER_28_141
*1319 FILLER_28_186
*1320 FILLER_28_224
*1321 FILLER_28_250
*1322 FILLER_28_253
*1323 FILLER_28_29
*1324 FILLER_28_37
*1325 FILLER_28_41
*1326 FILLER_28_45
*1327 FILLER_28_49
*1328 FILLER_28_70
*1329 FILLER_28_82
*1330 FILLER_28_85
*1331 FILLER_28_93
*1332 FILLER_29_111
*1333 FILLER_29_115
*1334 FILLER_29_128
*1335 FILLER_29_132
*1336 FILLER_29_140
*1337 FILLER_29_142
*1338 FILLER_29_150
*1339 FILLER_29_157
*1340 FILLER_29_165
*1341 FILLER_29_167
*1342 FILLER_29_180
*1343 FILLER_29_204
*1344 FILLER_29_223
*1345 FILLER_29_232
*1346 FILLER_29_250
*1347 FILLER_29_254
*1348 FILLER_29_3
*1349 FILLER_29_48
*1350 FILLER_29_72
*1351 FILLER_29_74
*1352 FILLER_29_95
*1353 FILLER_29_99
*1354 FILLER_2_121
*1355 FILLER_2_123
*1356 FILLER_2_149
*1357 FILLER_2_153
*1358 FILLER_2_18
*1359 FILLER_2_193
*1360 FILLER_2_195
*1361 FILLER_2_217
*1362 FILLER_2_229
*1363 FILLER_2_241
*1364 FILLER_2_253
*1365 FILLER_2_26
*1366 FILLER_2_29
*1367 FILLER_2_31
*1368 FILLER_2_6
*1369 FILLER_2_64
*1370 FILLER_2_83
*1371 FILLER_2_96
*1372 FILLER_30_11
*1373 FILLER_30_121
*1374 FILLER_30_123
*1375 FILLER_30_130
*1376 FILLER_30_139
*1377 FILLER_30_141
*1378 FILLER_30_152
*1379 FILLER_30_162
*1380 FILLER_30_174
*1381 FILLER_30_186
*1382 FILLER_30_206
*1383 FILLER_30_210
*1384 FILLER_30_248
*1385 FILLER_30_253
*1386 FILLER_30_66
*1387 FILLER_30_68
*1388 FILLER_30_79
*1389 FILLER_30_83
*1390 FILLER_30_85
*1391 FILLER_30_93
*1392 FILLER_31_10
*1393 FILLER_31_111
*1394 FILLER_31_113
*1395 FILLER_31_12
*1396 FILLER_31_217
*1397 FILLER_31_222
*1398 FILLER_31_225
*1399 FILLER_31_6
*1400 FILLER_31_69
*1401 FILLER_31_98
*1402 FILLER_32_135
*1403 FILLER_32_139
*1404 FILLER_32_141
*1405 FILLER_32_143
*1406 FILLER_32_151
*1407 FILLER_32_18
*1408 FILLER_32_186
*1409 FILLER_32_206
*1410 FILLER_32_208
*1411 FILLER_32_217
*1412 FILLER_32_22
*1413 FILLER_32_222
*1414 FILLER_32_24
*1415 FILLER_32_250
*1416 FILLER_32_253
*1417 FILLER_32_29
*1418 FILLER_32_6
*1419 FILLER_32_85
*1420 FILLER_32_89
*1421 FILLER_32_91
*1422 FILLER_33_111
*1423 FILLER_33_129
*1424 FILLER_33_141
*1425 FILLER_33_143
*1426 FILLER_33_151
*1427 FILLER_33_161
*1428 FILLER_33_165
*1429 FILLER_33_167
*1430 FILLER_33_169
*1431 FILLER_33_181
*1432 FILLER_33_185
*1433 FILLER_33_215
*1434 FILLER_33_223
*1435 FILLER_33_225
*1436 FILLER_33_229
*1437 FILLER_33_23
*1438 FILLER_33_233
*1439 FILLER_33_245
*1440 FILLER_33_35
*1441 FILLER_33_39
*1442 FILLER_33_41
*1443 FILLER_33_44
*1444 FILLER_33_46
*1445 FILLER_33_64
*1446 FILLER_33_72
*1447 FILLER_33_77
*1448 FILLER_33_98
*1449 FILLER_34_128
*1450 FILLER_34_133
*1451 FILLER_34_137
*1452 FILLER_34_139
*1453 FILLER_34_141
*1454 FILLER_34_150
*1455 FILLER_34_152
*1456 FILLER_34_161
*1457 FILLER_34_185
*1458 FILLER_34_187
*1459 FILLER_34_214
*1460 FILLER_34_218
*1461 FILLER_34_225
*1462 FILLER_34_229
*1463 FILLER_34_25
*1464 FILLER_34_250
*1465 FILLER_34_253
*1466 FILLER_34_27
*1467 FILLER_34_29
*1468 FILLER_34_3
*1469 FILLER_34_41
*1470 FILLER_34_49
*1471 FILLER_34_73
*1472 FILLER_34_80
*1473 FILLER_34_85
*1474 FILLER_34_87
*1475 FILLER_35_101
*1476 FILLER_35_109
*1477 FILLER_35_111
*1478 FILLER_35_159
*1479 FILLER_35_167
*1480 FILLER_35_169
*1481 FILLER_35_177
*1482 FILLER_35_46
*1483 FILLER_35_57
*1484 FILLER_35_79
*1485 FILLER_36_105
*1486 FILLER_36_181
*1487 FILLER_36_194
*1488 FILLER_36_21
*1489 FILLER_36_212
*1490 FILLER_36_242
*1491 FILLER_36_253
*1492 FILLER_36_27
*1493 FILLER_36_29
*1494 FILLER_36_51
*1495 FILLER_37_108
*1496 FILLER_37_113
*1497 FILLER_37_146
*1498 FILLER_37_253
*1499 FILLER_37_26
*1500 FILLER_37_3
*1501 FILLER_37_30
*1502 FILLER_37_32
*1503 FILLER_37_77
*1504 FILLER_38_105
*1505 FILLER_38_109
*1506 FILLER_38_111
*1507 FILLER_38_113
*1508 FILLER_38_121
*1509 FILLER_38_128
*1510 FILLER_38_141
*1511 FILLER_38_153
*1512 FILLER_38_157
*1513 FILLER_38_159
*1514 FILLER_38_169
*1515 FILLER_38_190
*1516 FILLER_38_195
*1517 FILLER_38_211
*1518 FILLER_38_216
*1519 FILLER_38_223
*1520 FILLER_38_225
*1521 FILLER_38_230
*1522 FILLER_38_25
*1523 FILLER_38_253
*1524 FILLER_38_29
*1525 FILLER_38_42
*1526 FILLER_38_55
*1527 FILLER_38_60
*1528 FILLER_38_72
*1529 FILLER_38_9
*1530 FILLER_38_90
*1531 FILLER_38_97
*1532 FILLER_3_106
*1533 FILLER_3_113
*1534 FILLER_3_147
*1535 FILLER_3_166
*1536 FILLER_3_199
*1537 FILLER_3_201
*1538 FILLER_3_209
*1539 FILLER_3_221
*1540 FILLER_3_223
*1541 FILLER_3_225
*1542 FILLER_3_237
*1543 FILLER_3_249
*1544 FILLER_3_253
*1545 FILLER_3_3
*1546 FILLER_3_31
*1547 FILLER_3_35
*1548 FILLER_3_83
*1549 FILLER_3_87
*1550 FILLER_4_107
*1551 FILLER_4_139
*1552 FILLER_4_145
*1553 FILLER_4_157
*1554 FILLER_4_161
*1555 FILLER_4_163
*1556 FILLER_4_170
*1557 FILLER_4_178
*1558 FILLER_4_18
*1559 FILLER_4_190
*1560 FILLER_4_194
*1561 FILLER_4_230
*1562 FILLER_4_242
*1563 FILLER_4_246
*1564 FILLER_4_248
*1565 FILLER_4_253
*1566 FILLER_4_26
*1567 FILLER_4_45
*1568 FILLER_4_6
*1569 FILLER_4_82
*1570 FILLER_4_89
*1571 FILLER_5_101
*1572 FILLER_5_111
*1573 FILLER_5_113
*1574 FILLER_5_124
*1575 FILLER_5_147
*1576 FILLER_5_159
*1577 FILLER_5_169
*1578 FILLER_5_179
*1579 FILLER_5_18
*1580 FILLER_5_191
*1581 FILLER_5_203
*1582 FILLER_5_214
*1583 FILLER_5_222
*1584 FILLER_5_225
*1585 FILLER_5_237
*1586 FILLER_5_249
*1587 FILLER_5_251
*1588 FILLER_5_26
*1589 FILLER_5_40
*1590 FILLER_5_44
*1591 FILLER_5_51
*1592 FILLER_5_6
*1593 FILLER_5_63
*1594 FILLER_5_65
*1595 FILLER_5_78
*1596 FILLER_5_86
*1597 FILLER_5_90
*1598 FILLER_5_97
*1599 FILLER_6_107
*1600 FILLER_6_119
*1601 FILLER_6_131
*1602 FILLER_6_137
*1603 FILLER_6_139
*1604 FILLER_6_145
*1605 FILLER_6_147
*1606 FILLER_6_151
*1607 FILLER_6_159
*1608 FILLER_6_189
*1609 FILLER_6_193
*1610 FILLER_6_195
*1611 FILLER_6_209
*1612 FILLER_6_21
*1613 FILLER_6_211
*1614 FILLER_6_232
*1615 FILLER_6_244
*1616 FILLER_6_248
*1617 FILLER_6_25
*1618 FILLER_6_253
*1619 FILLER_6_46
*1620 FILLER_6_48
*1621 FILLER_6_57
*1622 FILLER_6_83
*1623 FILLER_6_85
*1624 FILLER_6_9
*1625 FILLER_6_93
*1626 FILLER_6_95
*1627 FILLER_7_101
*1628 FILLER_7_111
*1629 FILLER_7_113
*1630 FILLER_7_125
*1631 FILLER_7_129
*1632 FILLER_7_139
*1633 FILLER_7_148
*1634 FILLER_7_159
*1635 FILLER_7_167
*1636 FILLER_7_169
*1637 FILLER_7_171
*1638 FILLER_7_180
*1639 FILLER_7_192
*1640 FILLER_7_214
*1641 FILLER_7_223
*1642 FILLER_7_225
*1643 FILLER_7_237
*1644 FILLER_7_249
*1645 FILLER_7_251
*1646 FILLER_7_53
*1647 FILLER_7_55
*1648 FILLER_7_57
*1649 FILLER_7_74
*1650 FILLER_7_83
*1651 FILLER_7_95
*1652 FILLER_7_99
*1653 FILLER_8_117
*1654 FILLER_8_139
*1655 FILLER_8_149
*1656 FILLER_8_156
*1657 FILLER_8_174
*1658 FILLER_8_18
*1659 FILLER_8_186
*1660 FILLER_8_188
*1661 FILLER_8_20
*1662 FILLER_8_213
*1663 FILLER_8_221
*1664 FILLER_8_233
*1665 FILLER_8_245
*1666 FILLER_8_249
*1667 FILLER_8_251
*1668 FILLER_8_253
*1669 FILLER_8_53
*1670 FILLER_8_6
*1671 FILLER_8_60
*1672 FILLER_8_72
*1673 FILLER_8_92
*1674 FILLER_8_94
*1675 FILLER_9_100
*1676 FILLER_9_111
*1677 FILLER_9_113
*1678 FILLER_9_125
*1679 FILLER_9_129
*1680 FILLER_9_131
*1681 FILLER_9_156
*1682 FILLER_9_167
*1683 FILLER_9_183
*1684 FILLER_9_195
*1685 FILLER_9_225
*1686 FILLER_9_237
*1687 FILLER_9_249
*1688 FILLER_9_25
*1689 FILLER_9_251
*1690 FILLER_9_3
*1691 FILLER_9_44
*1692 FILLER_9_54
*1693 FILLER_9_57
*1694 FILLER_9_67
*1695 FILLER_9_79
*1696 FILLER_9_81
*1697 PHY_EDGE_ROW_0_Left_39
*1698 PHY_EDGE_ROW_0_Right_0
*1699 PHY_EDGE_ROW_10_Left_49
*1700 PHY_EDGE_ROW_10_Right_10
*1701 PHY_EDGE_ROW_11_Left_50
*1702 PHY_EDGE_ROW_11_Right_11
*1703 PHY_EDGE_ROW_12_Left_51
*1704 PHY_EDGE_ROW_12_Right_12
*1705 PHY_EDGE_ROW_13_Left_52
*1706 PHY_EDGE_ROW_13_Right_13
*1707 PHY_EDGE_ROW_14_Left_53
*1708 PHY_EDGE_ROW_14_Right_14
*1709 PHY_EDGE_ROW_15_Left_54
*1710 PHY_EDGE_ROW_15_Right_15
*1711 PHY_EDGE_ROW_16_Left_55
*1712 PHY_EDGE_ROW_16_Right_16
*1713 PHY_EDGE_ROW_17_Left_56
*1714 PHY_EDGE_ROW_17_Right_17
*1715 PHY_EDGE_ROW_18_Left_57
*1716 PHY_EDGE_ROW_18_Right_18
*1717 PHY_EDGE_ROW_19_Left_58
*1718 PHY_EDGE_ROW_19_Right_19
*1719 PHY_EDGE_ROW_1_Left_40
*1720 PHY_EDGE_ROW_1_Right_1
*1721 PHY_EDGE_ROW_20_Left_59
*1722 PHY_EDGE_ROW_20_Right_20
*1723 PHY_EDGE_ROW_21_Left_60
*1724 PHY_EDGE_ROW_21_Right_21
*1725 PHY_EDGE_ROW_22_Left_61
*1726 PHY_EDGE_ROW_22_Right_22
*1727 PHY_EDGE_ROW_23_Left_62
*1728 PHY_EDGE_ROW_23_Right_23
*1729 PHY_EDGE_ROW_24_Left_63
*1730 PHY_EDGE_ROW_24_Right_24
*1731 PHY_EDGE_ROW_25_Left_64
*1732 PHY_EDGE_ROW_25_Right_25
*1733 PHY_EDGE_ROW_26_Left_65
*1734 PHY_EDGE_ROW_26_Right_26
*1735 PHY_EDGE_ROW_27_Left_66
*1736 PHY_EDGE_ROW_27_Right_27
*1737 PHY_EDGE_ROW_28_Left_67
*1738 PHY_EDGE_ROW_28_Right_28
*1739 PHY_EDGE_ROW_29_Left_68
*1740 PHY_EDGE_ROW_29_Right_29
*1741 PHY_EDGE_ROW_2_Left_41
*1742 PHY_EDGE_ROW_2_Right_2
*1743 PHY_EDGE_ROW_30_Left_69
*1744 PHY_EDGE_ROW_30_Right_30
*1745 PHY_EDGE_ROW_31_Left_70
*1746 PHY_EDGE_ROW_31_Right_31
*1747 PHY_EDGE_ROW_32_Left_71
*1748 PHY_EDGE_ROW_32_Right_32
*1749 PHY_EDGE_ROW_33_Left_72
*1750 PHY_EDGE_ROW_33_Right_33
*1751 PHY_EDGE_ROW_34_Left_73
*1752 PHY_EDGE_ROW_34_Right_34
*1753 PHY_EDGE_ROW_35_Left_74
*1754 PHY_EDGE_ROW_35_Right_35
*1755 PHY_EDGE_ROW_36_Left_75
*1756 PHY_EDGE_ROW_36_Right_36
*1757 PHY_EDGE_ROW_37_Left_76
*1758 PHY_EDGE_ROW_37_Right_37
*1759 PHY_EDGE_ROW_38_Left_77
*1760 PHY_EDGE_ROW_38_Right_38
*1761 PHY_EDGE_ROW_3_Left_42
*1762 PHY_EDGE_ROW_3_Right_3
*1763 PHY_EDGE_ROW_4_Left_43
*1764 PHY_EDGE_ROW_4_Right_4
*1765 PHY_EDGE_ROW_5_Left_44
*1766 PHY_EDGE_ROW_5_Right_5
*1767 PHY_EDGE_ROW_6_Left_45
*1768 PHY_EDGE_ROW_6_Right_6
*1769 PHY_EDGE_ROW_7_Left_46
*1770 PHY_EDGE_ROW_7_Right_7
*1771 PHY_EDGE_ROW_8_Left_47
*1772 PHY_EDGE_ROW_8_Right_8
*1773 PHY_EDGE_ROW_9_Left_48
*1774 PHY_EDGE_ROW_9_Right_9
*1775 TAP_TAPCELL_ROW_0_78
*1776 TAP_TAPCELL_ROW_0_79
*1777 TAP_TAPCELL_ROW_0_80
*1778 TAP_TAPCELL_ROW_0_81
*1779 TAP_TAPCELL_ROW_0_82
*1780 TAP_TAPCELL_ROW_0_83
*1781 TAP_TAPCELL_ROW_0_84
*1782 TAP_TAPCELL_ROW_0_85
*1783 TAP_TAPCELL_ROW_0_86
*1784 TAP_TAPCELL_ROW_10_127
*1785 TAP_TAPCELL_ROW_10_128
*1786 TAP_TAPCELL_ROW_10_129
*1787 TAP_TAPCELL_ROW_10_130
*1788 TAP_TAPCELL_ROW_10_131
*1789 TAP_TAPCELL_ROW_11_132
*1790 TAP_TAPCELL_ROW_11_133
*1791 TAP_TAPCELL_ROW_11_134
*1792 TAP_TAPCELL_ROW_11_135
*1793 TAP_TAPCELL_ROW_12_136
*1794 TAP_TAPCELL_ROW_12_137
*1795 TAP_TAPCELL_ROW_12_138
*1796 TAP_TAPCELL_ROW_12_139
*1797 TAP_TAPCELL_ROW_12_140
*1798 TAP_TAPCELL_ROW_13_141
*1799 TAP_TAPCELL_ROW_13_142
*1800 TAP_TAPCELL_ROW_13_143
*1801 TAP_TAPCELL_ROW_13_144
*1802 TAP_TAPCELL_ROW_14_145
*1803 TAP_TAPCELL_ROW_14_146
*1804 TAP_TAPCELL_ROW_14_147
*1805 TAP_TAPCELL_ROW_14_148
*1806 TAP_TAPCELL_ROW_14_149
*1807 TAP_TAPCELL_ROW_15_150
*1808 TAP_TAPCELL_ROW_15_151
*1809 TAP_TAPCELL_ROW_15_152
*1810 TAP_TAPCELL_ROW_15_153
*1811 TAP_TAPCELL_ROW_16_154
*1812 TAP_TAPCELL_ROW_16_155
*1813 TAP_TAPCELL_ROW_16_156
*1814 TAP_TAPCELL_ROW_16_157
*1815 TAP_TAPCELL_ROW_16_158
*1816 TAP_TAPCELL_ROW_17_159
*1817 TAP_TAPCELL_ROW_17_160
*1818 TAP_TAPCELL_ROW_17_161
*1819 TAP_TAPCELL_ROW_17_162
*1820 TAP_TAPCELL_ROW_18_163
*1821 TAP_TAPCELL_ROW_18_164
*1822 TAP_TAPCELL_ROW_18_165
*1823 TAP_TAPCELL_ROW_18_166
*1824 TAP_TAPCELL_ROW_18_167
*1825 TAP_TAPCELL_ROW_19_168
*1826 TAP_TAPCELL_ROW_19_169
*1827 TAP_TAPCELL_ROW_19_170
*1828 TAP_TAPCELL_ROW_19_171
*1829 TAP_TAPCELL_ROW_1_87
*1830 TAP_TAPCELL_ROW_1_88
*1831 TAP_TAPCELL_ROW_1_89
*1832 TAP_TAPCELL_ROW_1_90
*1833 TAP_TAPCELL_ROW_20_172
*1834 TAP_TAPCELL_ROW_20_173
*1835 TAP_TAPCELL_ROW_20_174
*1836 TAP_TAPCELL_ROW_20_175
*1837 TAP_TAPCELL_ROW_20_176
*1838 TAP_TAPCELL_ROW_21_177
*1839 TAP_TAPCELL_ROW_21_178
*1840 TAP_TAPCELL_ROW_21_179
*1841 TAP_TAPCELL_ROW_21_180
*1842 TAP_TAPCELL_ROW_22_181
*1843 TAP_TAPCELL_ROW_22_182
*1844 TAP_TAPCELL_ROW_22_183
*1845 TAP_TAPCELL_ROW_22_184
*1846 TAP_TAPCELL_ROW_22_185
*1847 TAP_TAPCELL_ROW_23_186
*1848 TAP_TAPCELL_ROW_23_187
*1849 TAP_TAPCELL_ROW_23_188
*1850 TAP_TAPCELL_ROW_23_189
*1851 TAP_TAPCELL_ROW_24_190
*1852 TAP_TAPCELL_ROW_24_191
*1853 TAP_TAPCELL_ROW_24_192
*1854 TAP_TAPCELL_ROW_24_193
*1855 TAP_TAPCELL_ROW_24_194
*1856 TAP_TAPCELL_ROW_25_195
*1857 TAP_TAPCELL_ROW_25_196
*1858 TAP_TAPCELL_ROW_25_197
*1859 TAP_TAPCELL_ROW_25_198
*1860 TAP_TAPCELL_ROW_26_199
*1861 TAP_TAPCELL_ROW_26_200
*1862 TAP_TAPCELL_ROW_26_201
*1863 TAP_TAPCELL_ROW_26_202
*1864 TAP_TAPCELL_ROW_26_203
*1865 TAP_TAPCELL_ROW_27_204
*1866 TAP_TAPCELL_ROW_27_205
*1867 TAP_TAPCELL_ROW_27_206
*1868 TAP_TAPCELL_ROW_27_207
*1869 TAP_TAPCELL_ROW_28_208
*1870 TAP_TAPCELL_ROW_28_209
*1871 TAP_TAPCELL_ROW_28_210
*1872 TAP_TAPCELL_ROW_28_211
*1873 TAP_TAPCELL_ROW_28_212
*1874 TAP_TAPCELL_ROW_29_213
*1875 TAP_TAPCELL_ROW_29_214
*1876 TAP_TAPCELL_ROW_29_215
*1877 TAP_TAPCELL_ROW_29_216
*1878 TAP_TAPCELL_ROW_2_91
*1879 TAP_TAPCELL_ROW_2_92
*1880 TAP_TAPCELL_ROW_2_93
*1881 TAP_TAPCELL_ROW_2_94
*1882 TAP_TAPCELL_ROW_2_95
*1883 TAP_TAPCELL_ROW_30_217
*1884 TAP_TAPCELL_ROW_30_218
*1885 TAP_TAPCELL_ROW_30_219
*1886 TAP_TAPCELL_ROW_30_220
*1887 TAP_TAPCELL_ROW_30_221
*1888 TAP_TAPCELL_ROW_31_222
*1889 TAP_TAPCELL_ROW_31_223
*1890 TAP_TAPCELL_ROW_31_224
*1891 TAP_TAPCELL_ROW_31_225
*1892 TAP_TAPCELL_ROW_32_226
*1893 TAP_TAPCELL_ROW_32_227
*1894 TAP_TAPCELL_ROW_32_228
*1895 TAP_TAPCELL_ROW_32_229
*1896 TAP_TAPCELL_ROW_32_230
*1897 TAP_TAPCELL_ROW_33_231
*1898 TAP_TAPCELL_ROW_33_232
*1899 TAP_TAPCELL_ROW_33_233
*1900 TAP_TAPCELL_ROW_33_234
*1901 TAP_TAPCELL_ROW_34_235
*1902 TAP_TAPCELL_ROW_34_236
*1903 TAP_TAPCELL_ROW_34_237
*1904 TAP_TAPCELL_ROW_34_238
*1905 TAP_TAPCELL_ROW_34_239
*1906 TAP_TAPCELL_ROW_35_240
*1907 TAP_TAPCELL_ROW_35_241
*1908 TAP_TAPCELL_ROW_35_242
*1909 TAP_TAPCELL_ROW_35_243
*1910 TAP_TAPCELL_ROW_36_244
*1911 TAP_TAPCELL_ROW_36_245
*1912 TAP_TAPCELL_ROW_36_246
*1913 TAP_TAPCELL_ROW_36_247
*1914 TAP_TAPCELL_ROW_36_248
*1915 TAP_TAPCELL_ROW_37_249
*1916 TAP_TAPCELL_ROW_37_250
*1917 TAP_TAPCELL_ROW_37_251
*1918 TAP_TAPCELL_ROW_37_252
*1919 TAP_TAPCELL_ROW_38_253
*1920 TAP_TAPCELL_ROW_38_254
*1921 TAP_TAPCELL_ROW_38_255
*1922 TAP_TAPCELL_ROW_38_256
*1923 TAP_TAPCELL_ROW_38_257
*1924 TAP_TAPCELL_ROW_38_258
*1925 TAP_TAPCELL_ROW_38_259
*1926 TAP_TAPCELL_ROW_38_260
*1927 TAP_TAPCELL_ROW_38_261
*1928 TAP_TAPCELL_ROW_3_96
*1929 TAP_TAPCELL_ROW_3_97
*1930 TAP_TAPCELL_ROW_3_98
*1931 TAP_TAPCELL_ROW_3_99
*1932 TAP_TAPCELL_ROW_4_100
*1933 TAP_TAPCELL_ROW_4_101
*1934 TAP_TAPCELL_ROW_4_102
*1935 TAP_TAPCELL_ROW_4_103
*1936 TAP_TAPCELL_ROW_4_104
*1937 TAP_TAPCELL_ROW_5_105
*1938 TAP_TAPCELL_ROW_5_106
*1939 TAP_TAPCELL_ROW_5_107
*1940 TAP_TAPCELL_ROW_5_108
*1941 TAP_TAPCELL_ROW_6_109
*1942 TAP_TAPCELL_ROW_6_110
*1943 TAP_TAPCELL_ROW_6_111
*1944 TAP_TAPCELL_ROW_6_112
*1945 TAP_TAPCELL_ROW_6_113
*1946 TAP_TAPCELL_ROW_7_114
*1947 TAP_TAPCELL_ROW_7_115
*1948 TAP_TAPCELL_ROW_7_116
*1949 TAP_TAPCELL_ROW_7_117
*1950 TAP_TAPCELL_ROW_8_118
*1951 TAP_TAPCELL_ROW_8_119
*1952 TAP_TAPCELL_ROW_8_120
*1953 TAP_TAPCELL_ROW_8_121
*1954 TAP_TAPCELL_ROW_8_122
*1955 TAP_TAPCELL_ROW_9_123
*1956 TAP_TAPCELL_ROW_9_124
*1957 TAP_TAPCELL_ROW_9_125
*1958 TAP_TAPCELL_ROW_9_126
*1959 _0436_
*1960 _0437_
*1961 _0438_
*1962 _0439_
*1963 _0440_
*1964 _0441_
*1965 _0442_
*1966 _0443_
*1967 _0444_
*1968 _0445_
*1969 _0446_
*1970 _0447_
*1971 _0448_
*1972 _0449_
*1973 _0450_
*1974 _0451_
*1975 _0452_
*1976 _0453_
*1977 _0454_
*1978 _0455_
*1979 _0456_
*1980 _0457_
*1981 _0458_
*1982 _0459_
*1983 _0460_
*1984 _0461_
*1985 _0462_
*1986 _0463_
*1987 _0464_
*1988 _0465_
*1989 _0466_
*1990 _0467_
*1991 _0468_
*1992 _0469_
*1993 _0470_
*1994 _0471_
*1995 _0472_
*1996 _0473_
*1997 _0474_
*1998 _0475_
*1999 _0476_
*2000 _0477_
*2001 _0478_
*2002 _0479_
*2003 _0480_
*2004 _0481_
*2005 _0482_
*2006 _0483_
*2007 _0484_
*2008 _0485_
*2009 _0486_
*2010 _0487_
*2011 _0488_
*2012 _0489_
*2013 _0490_
*2014 _0491_
*2015 _0492_
*2016 _0493_
*2017 _0494_
*2018 _0495_
*2019 _0496_
*2020 _0497_
*2021 _0498_
*2022 _0499_
*2023 _0500_
*2024 _0501_
*2025 _0502_
*2026 _0503_
*2027 _0504_
*2028 _0505_
*2029 _0506_
*2030 _0507_
*2031 _0508_
*2032 _0509_
*2033 _0510_
*2034 _0511_
*2035 _0512_
*2036 _0513_
*2037 _0514_
*2038 _0515_
*2039 _0516_
*2040 _0517_
*2041 _0518_
*2042 _0519_
*2043 _0520_
*2044 _0521_
*2045 _0522_
*2046 _0523_
*2047 _0524_
*2048 _0525_
*2049 _0526_
*2050 _0527_
*2051 _0528_
*2052 _0529_
*2053 _0530_
*2054 _0531_
*2055 _0532_
*2056 _0533_
*2057 _0534_
*2058 _0535_
*2059 _0536_
*2060 _0537_
*2061 _0538_
*2062 _0539_
*2063 _0540_
*2064 _0541_
*2065 _0542_
*2066 _0543_
*2067 _0544_
*2068 _0545_
*2069 _0546_
*2070 _0547_
*2071 _0548_
*2072 _0549_
*2073 _0550_
*2074 _0551_
*2075 _0552_
*2076 _0553_
*2077 _0554_
*2078 _0555_
*2079 _0556_
*2080 _0557_
*2081 _0558_
*2082 _0559_
*2083 _0560_
*2084 _0561_
*2085 _0562_
*2086 _0563_
*2087 _0564_
*2088 _0565_
*2089 _0566_
*2090 _0567_
*2091 _0568_
*2092 _0569_
*2093 _0570_
*2094 _0571_
*2095 _0572_
*2096 _0573_
*2097 _0574_
*2098 _0575_
*2099 _0576_
*2100 _0577_
*2101 _0578_
*2102 _0579_
*2103 _0580_
*2104 _0581_
*2105 _0582_
*2106 _0583_
*2107 _0584_
*2108 _0585_
*2109 _0586_
*2110 _0587_
*2111 _0588_
*2112 _0589_
*2113 _0590_
*2114 _0591_
*2115 _0592_
*2116 _0593_
*2117 _0594_
*2118 _0595_
*2119 _0596_
*2120 _0597_
*2121 _0598_
*2122 _0599_
*2123 _0600_
*2124 _0601_
*2125 _0602_
*2126 _0603_
*2127 _0604_
*2128 _0605_
*2129 _0606_
*2130 _0607_
*2131 _0608_
*2132 _0609_
*2133 _0610_
*2134 _0611_
*2135 _0612_
*2136 _0613_
*2137 _0614_
*2138 _0615_
*2139 _0616_
*2140 _0617_
*2141 _0618_
*2142 _0619_
*2143 _0620_
*2144 _0621_
*2145 _0622_
*2146 _0623_
*2147 _0624_
*2148 _0625_
*2149 _0626_
*2150 _0627_
*2151 _0628_
*2152 _0629_
*2153 _0630_
*2154 _0631_
*2155 _0632_
*2156 _0633_
*2157 _0634_
*2158 _0635_
*2159 _0636_
*2160 _0637_
*2161 _0638_
*2162 _0639_
*2163 _0640_
*2164 _0641_
*2165 _0642_
*2166 _0643_
*2167 _0644_
*2168 _0645_
*2169 _0646_
*2170 _0647_
*2171 _0648_
*2172 _0649_
*2173 _0650_
*2174 _0651_
*2175 _0652_
*2176 _0653_
*2177 _0654_
*2178 _0655_
*2179 _0656_
*2180 _0657_
*2181 _0658_
*2182 _0659_
*2183 _0660_
*2184 _0661_
*2185 _0662_
*2186 _0663_
*2187 _0664_
*2188 _0665_
*2189 _0666_
*2190 _0667_
*2191 _0668_
*2192 _0669_
*2193 _0670_
*2194 _0671_
*2195 _0672_
*2196 _0673_
*2197 _0674_
*2198 _0675_
*2199 _0676_
*2200 _0677_
*2201 _0678_
*2202 _0679_
*2203 _0680_
*2204 _0681_
*2205 _0682_
*2206 _0683_
*2207 _0684_
*2208 _0685_
*2209 _0686_
*2210 _0687_
*2211 _0688_
*2212 _0689_
*2213 _0690_
*2214 _0691_
*2215 _0692_
*2216 _0693_
*2217 _0694_
*2218 _0695_
*2219 _0696_
*2220 _0697_
*2221 _0698_
*2222 _0699_
*2223 _0700_
*2224 _0701_
*2225 _0702_
*2226 _0703_
*2227 _0704_
*2228 _0705_
*2229 _0706_
*2230 _0707_
*2231 _0708_
*2232 _0709_
*2233 _0710_
*2234 _0711_
*2235 _0712_
*2236 _0713_
*2237 _0714_
*2238 _0715_
*2239 _0716_
*2240 _0717_
*2241 _0718_
*2242 _0719_
*2243 _0720_
*2244 _0721_
*2245 _0722_
*2246 _0723_
*2247 _0724_
*2248 _0725_
*2249 _0726_
*2250 _0727_
*2251 _0728_
*2252 _0729_
*2253 _0730_
*2254 _0731_
*2255 _0732_
*2256 _0733_
*2257 _0734_
*2258 _0735_
*2259 _0736_
*2260 _0737_
*2261 _0738_
*2262 _0739_
*2263 _0740_
*2264 _0741_
*2265 _0742_
*2266 _0743_
*2267 _0744_
*2268 _0745_
*2269 _0746_
*2270 _0747_
*2271 _0748_
*2272 _0749_
*2273 _0750_
*2274 _0751_
*2275 _0752_
*2276 _0753_
*2277 _0754_
*2278 _0755_
*2279 _0756_
*2280 _0757_
*2281 _0758_
*2282 _0759_
*2283 _0760_
*2284 _0761_
*2285 _0762_
*2286 _0763_
*2287 _0764_
*2288 _0765_
*2289 _0766_
*2290 _0767_
*2291 _0768_
*2292 _0769_
*2293 _0770_
*2294 _0771_
*2295 _0772_
*2296 _0773_
*2297 _0774_
*2298 _0775_
*2299 _0776_
*2300 _0777_
*2301 _0778_
*2302 _0779_
*2303 _0780_
*2304 _0781_
*2305 _0782_
*2306 _0783_
*2307 _0784_
*2308 _0785_
*2309 _0786_
*2310 _0787_
*2311 _0788_
*2312 _0789_
*2313 _0790_
*2314 _0791_
*2315 _0792_
*2316 _0793_
*2317 _0794_
*2318 _0795_
*2319 _0796_
*2320 _0797_
*2321 _0798_
*2322 _0799_
*2323 _0800_
*2324 _0801_
*2325 _0802_
*2326 _0803_
*2327 _0804_
*2328 _0805_
*2329 _0806_
*2330 _0807_
*2331 _0808_
*2332 _0809_
*2333 _0810_
*2334 _0811_
*2335 _0812_
*2336 _0813_
*2337 _0814_
*2338 _0815_
*2339 _0816_
*2340 _0817_
*2341 _0818_
*2342 _0819_
*2343 _0820_
*2344 _0821_
*2345 _0822_
*2346 _0823_
*2347 _0824_
*2348 _0825_
*2349 _0826_
*2350 _0827_
*2351 _0828_
*2352 _0829_
*2353 _0830_
*2354 _0831_
*2355 _0832_
*2356 _0833_
*2357 _0834_
*2358 _0835_
*2359 _0836_
*2360 _0837_
*2361 _0838_
*2362 _0839_
*2363 _0840_
*2364 _0841_
*2365 _0842_
*2366 _0843_
*2367 _0844_
*2368 _0845_
*2369 _0846_
*2370 _0847_
*2371 _0848_
*2372 _0849_
*2373 _0850_
*2374 _0851_
*2375 _0852_
*2376 _0853_
*2377 _0854_
*2378 _0855_
*2379 _0856_
*2380 _0857_
*2381 _0858_
*2382 _0859_
*2383 _0860_
*2384 _0861_
*2385 _0862_
*2386 _0863_
*2387 _0864_
*2388 _0865_
*2389 _0866_
*2390 _0867_
*2391 _0868_
*2392 _0869_
*2393 _0870_
*2394 _0871_
*2395 _0872_
*2396 _0873_
*2397 _0874_
*2398 _0875_
*2399 _0876_
*2400 _0877_
*2401 _0878_
*2402 _0879_
*2403 _0880_
*2404 _0881_
*2405 _0882_
*2406 _0883_
*2407 _0884_
*2408 _0885_
*2409 _0886_
*2410 _0887_
*2411 _0888_
*2412 _0889_
*2413 _0890_
*2414 _0891_
*2415 _0892_
*2416 _0893_
*2417 _0894_
*2418 _0895_
*2419 _0896_
*2420 _0897_
*2421 _0898_
*2422 _0899_
*2423 _0900_
*2424 _0901_
*2425 _0902_
*2426 _0903_
*2427 _0904_
*2428 _0905_
*2429 _0906_
*2430 _0907_
*2431 _0908_
*2432 _0909_
*2433 _0910_
*2434 _0911_
*2435 _0912_
*2436 _0913_
*2437 _0914_
*2438 _0915_
*2439 _0916_
*2440 _0917_
*2441 _0918_
*2442 _0919_
*2443 _0920_
*2444 _0921_
*2445 _0922_
*2446 _0923_
*2447 _0924_
*2448 _0925_
*2449 _0926_
*2450 _0927_
*2451 _0928_
*2452 _0929_
*2453 _0930_
*2454 _0930__98
*2455 _0931_
*2456 _0931__97
*2457 _0932_
*2458 _0933_
*2459 _0934_
*2460 _0935_
*2461 _0936_
*2462 _0937_
*2463 _0938_
*2464 _0939_
*2465 _0940_
*2466 _0941_
*2467 _0942_
*2468 _0943_
*2469 _0944_
*2470 _0945_
*2471 _0946_
*2472 _0947_
*2473 _0947__96
*2474 _0948_
*2475 _0949_
*2476 _0950_
*2477 _0951_
*2478 _0952_
*2479 _0953_
*2480 _0954_
*2481 _0955_
*2482 _0956_
*2483 _0957_
*2484 _0958_
*2485 _0959_
*2486 _0960_
*2487 _0961_
*2488 _0962_
*2489 _0963_
*2490 _0964_
*2491 _0965_
*2492 _0966_
*2493 _0967_
*2494 _0968_
*2495 _0969_
*2496 _0970_
*2497 _0971_
*2498 _0972_
*2499 _0973_
*2500 _0974_
*2501 _0975_
*2502 _0976_
*2503 _0977_
*2504 _0978_
*2505 _0979_
*2506 _0980_
*2507 _0981_
*2508 _0982_
*2509 _0983_
*2510 _0984_
*2511 _0985_
*2512 _0986_
*2513 _0987_
*2514 _0988_
*2515 _0989_
*2516 _0990_
*2517 _0991_
*2518 _0992_
*2519 _0993_
*2520 _0994_
*2521 _0995_
*2522 _0996_
*2523 _0997_
*2524 _0998_
*2525 _0999_
*2526 _1000_
*2527 _1001_
*2528 _1002_
*2529 _1003_
*2530 _1004_
*2531 _1005_
*2532 _1006_
*2533 _1007_
*2534 _1008_
*2535 _1009_
*2536 _1010_
*2537 _1011_
*2538 _1012_
*2539 _1013_
*2540 _1014_
*2541 _1015_
*2542 _1016_
*2543 _1017_
*2544 _1018_
*2545 _1019_
*2546 _1020_
*2547 _1021_
*2548 _1022_
*2549 _1023_
*2550 _1024_
*2551 _1025_
*2552 _1026_
*2553 _1027_
*2554 _1028_
*2555 _1029_
*2556 _1030_
*2557 _1031_
*2558 _1032_
*2559 _1033_
*2560 _1034_
*2561 _1035_
*2562 _1036_
*2563 _1037_
*2564 _1038_
*2565 _1039_
*2566 _1040_
*2567 _1041_
*2568 _1042_
*2569 _1043_
*2570 _1044_
*2571 _1115_
*2572 clkbuf_0_clk
*2573 clkbuf_4_0_0_clk
*2574 clkbuf_4_10_0_clk
*2575 clkbuf_4_11_0_clk
*2576 clkbuf_4_12_0_clk
*2577 clkbuf_4_13_0_clk
*2578 clkbuf_4_14_0_clk
*2579 clkbuf_4_15_0_clk
*2580 clkbuf_4_1_0_clk
*2581 clkbuf_4_2_0_clk
*2582 clkbuf_4_3_0_clk
*2583 clkbuf_4_4_0_clk
*2584 clkbuf_4_5_0_clk
*2585 clkbuf_4_6_0_clk
*2586 clkbuf_4_7_0_clk
*2587 clkbuf_4_8_0_clk
*2588 clkbuf_4_9_0_clk
*2589 clkload0
*2590 clkload1
*2591 clkload10
*2592 clkload11
*2593 clkload12
*2594 clkload13
*2595 clkload14
*2596 clkload2
*2597 clkload3
*2598 clkload4
*2599 clkload5
*2600 clkload6
*2601 clkload7
*2602 clkload8
*2603 clkload9
*2604 fanout18
*2605 fanout19
*2606 fanout20
*2607 fanout21
*2608 fanout22
*2609 fanout23
*2610 fanout24
*2611 fanout25
*2612 fanout26
*2613 fanout27
*2614 fanout28
*2615 fanout29
*2616 fanout30
*2617 fanout31
*2618 fanout32
*2619 fanout33
*2620 fanout34
*2621 fanout35
*2622 fanout36
*2623 fanout37
*2624 fanout38
*2625 fanout39
*2626 fanout40
*2627 fanout41
*2628 fanout42
*2629 fanout43
*2630 fanout44
*2631 fanout45
*2632 fanout46
*2633 fanout47
*2634 fanout48
*2635 fanout49
*2636 fanout50
*2637 fanout51
*2638 fanout52
*2639 fanout53
*2640 fanout54
*2641 fanout55
*2642 fanout56
*2643 fanout57
*2644 fanout58
*2645 fanout59
*2646 fanout60
*2647 fanout61
*2648 hold1
*2649 hold10
*2650 hold11
*2651 hold12
*2652 hold13
*2653 hold14
*2654 hold15
*2655 hold16
*2656 hold17
*2657 hold18
*2658 hold19
*2659 hold2
*2660 hold20
*2661 hold21
*2662 hold22
*2663 hold23
*2664 hold24
*2665 hold25
*2666 hold26
*2667 hold27
*2668 hold28
*2669 hold29
*2670 hold3
*2671 hold30
*2672 hold31
*2673 hold32
*2674 hold33
*2675 hold34
*2676 hold35
*2677 hold36
*2678 hold37
*2679 hold38
*2680 hold39
*2681 hold4
*2682 hold40
*2683 hold41
*2684 hold42
*2685 hold43
*2686 hold44
*2687 hold45
*2688 hold46
*2689 hold47
*2690 hold48
*2691 hold49
*2692 hold5
*2693 hold50
*2694 hold51
*2695 hold52
*2696 hold53
*2697 hold54
*2698 hold55
*2699 hold56
*2700 hold57
*2701 hold58
*2702 hold59
*2703 hold6
*2704 hold60
*2705 hold61
*2706 hold62
*2707 hold63
*2708 hold64
*2709 hold65
*2710 hold66
*2711 hold67
*2712 hold68
*2713 hold69
*2714 hold7
*2715 hold70
*2716 hold71
*2717 hold8
*2718 hold9
*2719 input1
*2720 input10
*2721 input11
*2722 input12
*2723 input13
*2724 input14
*2725 input15
*2726 input16
*2727 input2
*2728 input3
*2729 input4
*2730 input5
*2731 input6
*2732 input7
*2733 input8
*2734 input9
*2735 output17
*2736 team_05_100
*2737 team_05_101
*2738 team_05_102
*2739 team_05_103
*2740 team_05_104
*2741 team_05_105
*2742 team_05_106
*2743 team_05_107
*2744 team_05_108
*2745 team_05_109
*2746 team_05_110
*2747 team_05_111
*2748 team_05_112
*2749 team_05_113
*2750 team_05_114
*2751 team_05_115
*2752 team_05_116
*2753 team_05_117
*2754 team_05_118
*2755 team_05_119
*2756 team_05_120
*2757 team_05_121
*2758 team_05_122
*2759 team_05_123
*2760 team_05_124
*2761 team_05_125
*2762 team_05_126
*2763 team_05_127
*2764 team_05_128
*2765 team_05_129
*2766 team_05_130
*2767 team_05_131
*2768 team_05_62
*2769 team_05_63
*2770 team_05_64
*2771 team_05_65
*2772 team_05_66
*2773 team_05_67
*2774 team_05_68
*2775 team_05_69
*2776 team_05_70
*2777 team_05_71
*2778 team_05_72
*2779 team_05_73
*2780 team_05_74
*2781 team_05_75
*2782 team_05_76
*2783 team_05_77
*2784 team_05_78
*2785 team_05_79
*2786 team_05_80
*2787 team_05_81
*2788 team_05_82
*2789 team_05_83
*2790 team_05_84
*2791 team_05_85
*2792 team_05_86
*2793 team_05_87
*2794 team_05_88
*2795 team_05_89
*2796 team_05_90
*2797 team_05_91
*2798 team_05_92
*2799 team_05_93
*2800 team_05_94
*2801 team_05_95
*2802 team_05_99

*PORTS
clk I
en I
gpio_in[0] I
gpio_in[10] I
gpio_in[11] I
gpio_in[12] I
gpio_in[13] I
gpio_in[14] I
gpio_in[15] I
gpio_in[16] I
gpio_in[17] I
gpio_in[18] I
gpio_in[19] I
gpio_in[1] I
gpio_in[20] I
gpio_in[21] I
gpio_in[22] I
gpio_in[23] I
gpio_in[24] I
gpio_in[25] I
gpio_in[26] I
gpio_in[27] I
gpio_in[28] I
gpio_in[29] I
gpio_in[2] I
gpio_in[30] I
gpio_in[31] I
gpio_in[32] I
gpio_in[33] I
gpio_in[3] I
gpio_in[4] I
gpio_in[5] I
gpio_in[6] I
gpio_in[7] I
gpio_in[8] I
gpio_in[9] I
gpio_oeb[0] O
gpio_oeb[10] O
gpio_oeb[11] O
gpio_oeb[12] O
gpio_oeb[13] O
gpio_oeb[14] O
gpio_oeb[15] O
gpio_oeb[16] O
gpio_oeb[17] O
gpio_oeb[18] O
gpio_oeb[19] O
gpio_oeb[1] O
gpio_oeb[20] O
gpio_oeb[21] O
gpio_oeb[22] O
gpio_oeb[23] O
gpio_oeb[24] O
gpio_oeb[25] O
gpio_oeb[26] O
gpio_oeb[27] O
gpio_oeb[28] O
gpio_oeb[29] O
gpio_oeb[2] O
gpio_oeb[30] O
gpio_oeb[31] O
gpio_oeb[32] O
gpio_oeb[33] O
gpio_oeb[3] O
gpio_oeb[4] O
gpio_oeb[5] O
gpio_oeb[6] O
gpio_oeb[7] O
gpio_oeb[8] O
gpio_oeb[9] O
gpio_out[0] O
gpio_out[10] O
gpio_out[11] O
gpio_out[12] O
gpio_out[13] O
gpio_out[14] O
gpio_out[15] O
gpio_out[16] O
gpio_out[17] O
gpio_out[18] O
gpio_out[19] O
gpio_out[1] O
gpio_out[20] O
gpio_out[21] O
gpio_out[22] O
gpio_out[23] O
gpio_out[24] O
gpio_out[25] O
gpio_out[26] O
gpio_out[27] O
gpio_out[28] O
gpio_out[29] O
gpio_out[2] O
gpio_out[30] O
gpio_out[31] O
gpio_out[32] O
gpio_out[33] O
gpio_out[3] O
gpio_out[4] O
gpio_out[5] O
gpio_out[6] O
gpio_out[7] O
gpio_out[8] O
gpio_out[9] O
nrst I

*D_NET *1 0.0107086
*CONN
*P clk I
*I *2572:A I *D sky130_fd_sc_hd__clkbuf_16
*I *904:DIODE I *D sky130_fd_sc_hd__diode_2
*CAP
1 clk 0.00401218
2 *2572:A 0.000162924
3 *904:DIODE 0
4 *1:15 0.0041751
5 *2572:A *2189:A1 4.66108e-05
6 *2572:A *2189:B1 2.75145e-05
7 *2572:A *554:8 4.43591e-05
8 *1:15 gpio_oeb[18] 2.15176e-05
9 *1:15 gpio_out[29] 0
10 *1:15 *2055:A2 9.50307e-05
11 *1:15 *2148:B 0.000126679
12 *1:15 *2189:B1 6.44051e-05
13 *1:15 *2249:A2 0.0007394
14 *1:15 *25:13 7.56675e-05
15 *1:15 *434:22 0.000152422
16 *1:15 *448:24 0
17 *1:15 *448:28 0.000516258
18 *1:15 *717:81 0
19 *1:15 *802:35 6.95335e-05
20 *1:15 *822:30 0.000379008
21 *1:15 *830:48 0
*RES
1 clk *1:15 21.0965 
2 *1:15 *904:DIODE 1.6 
3 *1:15 *2572:A 4.135 
*END

*D_NET *2 0.00154244
*CONN
*P en I
*I *2719:A I *D sky130_fd_sc_hd__clkbuf_1
*I *940:DIODE I *D sky130_fd_sc_hd__diode_2
*CAP
1 en 0.000447582
2 *2719:A 0.00016635
3 *940:DIODE 0
4 *2:13 0.000613932
5 *2:13 *2448:D 0
6 *2:13 *2642:A 0
7 *2:13 *105:11 0.000314581
8 *2:13 *861:10 0
*RES
1 en *2:13 8.7385 
2 *2:13 *940:DIODE 1.6 
3 *2:13 *2719:A 4.045 
*END

*D_NET *3 0.000990659
*CONN
*P gpio_in[0] I
*I *941:DIODE I *D sky130_fd_sc_hd__diode_2
*I *2727:A I *D sky130_fd_sc_hd__clkbuf_1
*CAP
1 gpio_in[0] 0.000409435
2 *941:DIODE 0
3 *2727:A 8.5894e-05
4 *3:5 0.000495329
5 *2727:A gpio_out[14] 0
6 *2727:A *2732:A 0
7 *2727:A *14:5 0
8 *3:5 gpio_out[14] 0
9 *3:5 *14:5 0
*RES
1 gpio_in[0] *3:5 7.32 
2 *3:5 *2727:A 4.92 
3 *3:5 *941:DIODE 3.6 
*END

*D_NET *4 0.00181725
*CONN
*P gpio_in[10] I
*I *942:DIODE I *D sky130_fd_sc_hd__diode_2
*I *2728:A I *D sky130_fd_sc_hd__clkbuf_1
*CAP
1 gpio_in[10] 0.000497899
2 *942:DIODE 7.26849e-05
3 *2728:A 1.90266e-05
4 *4:13 0.000589611
5 *942:DIODE *2196:A 8.23374e-05
6 *942:DIODE *2731:A 0.00012411
7 *942:DIODE *860:8 0.000159697
8 *2728:A *2196:A 5.4155e-06
9 *4:13 *2196:A 9.13092e-05
10 *4:13 *2196:B 4.9968e-05
11 *4:13 *2490:D 4.1652e-06
12 *4:13 *6:7 0
13 *4:13 *7:5 0
14 *4:13 *860:8 0.000121023
*RES
1 gpio_in[10] *4:13 11.525 
2 *4:13 *2728:A 1.96 
3 *4:13 *942:DIODE 4.12 
*END

*D_NET *5 0.00102785
*CONN
*P gpio_in[11] I
*I *943:DIODE I *D sky130_fd_sc_hd__diode_2
*I *2729:A I *D sky130_fd_sc_hd__clkbuf_1
*CAP
1 gpio_in[11] 0.000410061
2 *943:DIODE 0
3 *2729:A 7.88823e-05
4 *5:5 0.000488943
5 *2729:A *2196:A 4.99619e-05
6 *5:5 *7:5 0
*RES
1 gpio_in[11] *5:5 7.32 
2 *5:5 *2729:A 4.92 
3 *5:5 *943:DIODE 3.6 
*END

*D_NET *6 0.00108613
*CONN
*P gpio_in[12] I
*I *2730:A I *D sky130_fd_sc_hd__clkbuf_1
*I *944:DIODE I *D sky130_fd_sc_hd__diode_2
*CAP
1 gpio_in[12] 0.000459298
2 *2730:A 0
3 *944:DIODE 7.00035e-05
4 *6:7 0.000529301
5 *944:DIODE *2489:D 2.75229e-05
6 *6:7 gpio_out[16] 0
7 *6:7 *2490:D 0
8 *4:13 *6:7 0
*RES
1 gpio_in[12] *6:7 10.085 
2 *6:7 *944:DIODE 2.74 
3 *6:7 *2730:A 1.6 
*END

*D_NET *7 0.00123236
*CONN
*P gpio_in[13] I
*I *945:DIODE I *D sky130_fd_sc_hd__diode_2
*I *2731:A I *D sky130_fd_sc_hd__clkbuf_1
*CAP
1 gpio_in[13] 0.000410838
2 *945:DIODE 0
3 *2731:A 8.06524e-05
4 *7:5 0.000491491
5 *2731:A *2196:A 0.000125264
6 *942:DIODE *2731:A 0.00012411
7 *4:13 *7:5 0
8 *5:5 *7:5 0
*RES
1 gpio_in[13] *7:5 7.32 
2 *7:5 *2731:A 5.61 
3 *7:5 *945:DIODE 3.6 
*END

*D_NET *14 0.000990659
*CONN
*P gpio_in[1] I
*I *946:DIODE I *D sky130_fd_sc_hd__diode_2
*I *2732:A I *D sky130_fd_sc_hd__clkbuf_1
*CAP
1 gpio_in[1] 0.000412327
2 *946:DIODE 0
3 *2732:A 8.30023e-05
4 *14:5 0.000495329
5 *2727:A *2732:A 0
6 *2727:A *14:5 0
7 *3:5 *14:5 0
*RES
1 gpio_in[1] *14:5 7.32 
2 *14:5 *2732:A 4.92 
3 *14:5 *946:DIODE 3.6 
*END

*D_NET *25 0.000738046
*CONN
*P gpio_in[2] I
*I *947:DIODE I *D sky130_fd_sc_hd__diode_2
*I *2733:A I *D sky130_fd_sc_hd__clkbuf_1
*CAP
1 gpio_in[2] 0.000204454
2 *947:DIODE 5.8188e-05
3 *2733:A 0
4 *25:13 0.000262643
5 *947:DIODE *2459:D 7.00889e-06
6 *947:DIODE *864:10 3.00381e-05
7 *25:13 *31:13 6.87892e-05
8 *25:13 *791:61 0
9 *25:13 *791:67 0
10 *25:13 *864:10 3.12569e-05
11 *1:15 *25:13 7.56675e-05
*RES
1 gpio_in[2] *25:13 4.6585 
2 *25:13 *2733:A 1.6 
3 *25:13 *947:DIODE 2.74 
*END

*D_NET *30 0.00128108
*CONN
*P gpio_in[3] I
*I *948:DIODE I *D sky130_fd_sc_hd__diode_2
*I *2734:A I *D sky130_fd_sc_hd__clkbuf_1
*CAP
1 gpio_in[3] 0.000336504
2 *948:DIODE 8.65685e-05
3 *2734:A 0
4 *30:13 0.000423072
5 *948:DIODE gpio_out[0] 0.00012657
6 *948:DIODE *865:12 7.35729e-05
7 *30:13 gpio_out[0] 7.0782e-05
8 *30:13 *2198:B 5.78448e-05
9 *30:13 *2198:D 3.04982e-05
10 *30:13 *32:13 7.56675e-05
11 *30:13 *865:12 0
*RES
1 gpio_in[3] *30:13 7.2085 
2 *30:13 *2734:A 1.6 
3 *30:13 *948:DIODE 3.775 
*END

*D_NET *31 0.000643843
*CONN
*P gpio_in[4] I
*I *933:DIODE I *D sky130_fd_sc_hd__diode_2
*I *2720:A I *D sky130_fd_sc_hd__clkbuf_1
*CAP
1 gpio_in[4] 0.000162181
2 *933:DIODE 7.82605e-05
3 *2720:A 0
4 *31:13 0.000240442
5 *31:13 gpio_oeb[29] 7.32038e-05
6 *31:13 *864:10 2.09665e-05
7 *25:13 *31:13 6.87892e-05
*RES
1 gpio_in[4] *31:13 3.8935 
2 *31:13 *2720:A 1.6 
3 *31:13 *933:DIODE 2.74 
*END

*D_NET *32 0.000943224
*CONN
*P gpio_in[5] I
*I *934:DIODE I *D sky130_fd_sc_hd__diode_2
*I *2721:A I *D sky130_fd_sc_hd__clkbuf_1
*CAP
1 gpio_in[5] 0.000235763
2 *934:DIODE 5.89645e-05
3 *2721:A 0
4 *32:13 0.000294728
5 *934:DIODE *2479:D 8.23457e-05
6 *934:DIODE *736:8 1.56428e-05
7 *32:13 gpio_out[20] 6.11949e-05
8 *32:13 *2198:B 1.1561e-05
9 *32:13 *2481:CLK 1.92979e-05
10 *32:13 *864:10 8.80588e-05
11 *30:13 *32:13 7.56675e-05
*RES
1 gpio_in[5] *32:13 5.6785 
2 *32:13 *2721:A 1.6 
3 *32:13 *934:DIODE 2.74 
*END

*D_NET *33 0.00166319
*CONN
*P gpio_in[6] I
*I *935:DIODE I *D sky130_fd_sc_hd__diode_2
*I *2722:A I *D sky130_fd_sc_hd__clkbuf_1
*CAP
1 gpio_in[6] 0.000462638
2 *935:DIODE 1.93479e-05
3 *2722:A 0
4 *33:27 0.000481986
5 *935:DIODE *936:DIODE 2.30292e-05
6 *33:27 gpio_oeb[16] 0
7 *33:27 gpio_oeb[22] 2.96366e-05
8 *33:27 gpio_oeb[33] 0
9 *33:27 *936:DIODE 5.39673e-05
10 *33:27 *937:DIODE 0.000122331
11 *33:27 *2197:A 5.5201e-05
12 *33:27 *2199:B 1.60203e-05
13 *33:27 *2483:D 7.04759e-05
14 *33:27 *2486:CLK 0
15 *33:27 *35:13 6.98095e-05
16 *33:27 *737:10 0.0002236
17 *33:27 *747:8 3.5142e-05
*RES
1 gpio_in[6] *33:27 10.9776 
2 *33:27 *2722:A 1.6 
3 *33:27 *935:DIODE 2.05 
*END

*D_NET *34 0.0034465
*CONN
*P gpio_in[7] I
*I *936:DIODE I *D sky130_fd_sc_hd__diode_2
*I *2723:A I *D sky130_fd_sc_hd__clkbuf_1
*CAP
1 gpio_in[7] 0.000808617
2 *936:DIODE 0.000381184
3 *2723:A 0
4 *34:13 0.0011898
5 *936:DIODE gpio_oeb[33] 0.000316415
6 *936:DIODE *938:DIODE 0
7 *936:DIODE *2197:C 0
8 *936:DIODE *2199:B 0.000163204
9 *936:DIODE *2486:RESET_B 0
10 *936:DIODE *36:13 0.000304758
11 *936:DIODE *737:10 0
12 *936:DIODE *758:10 0
13 *34:13 gpio_oeb[33] 5.33491e-05
14 *34:13 gpio_out[16] 0.00010221
15 *34:13 gpio_out[5] 0
16 *34:13 *36:13 4.99619e-05
17 *935:DIODE *936:DIODE 2.30292e-05
18 *33:27 *936:DIODE 5.39673e-05
*RES
1 gpio_in[7] *34:13 14.2683 
2 *34:13 *2723:A 1.6 
3 *34:13 *936:DIODE 14.645 
*END

*D_NET *35 0.0011828
*CONN
*P gpio_in[8] I
*I *937:DIODE I *D sky130_fd_sc_hd__diode_2
*I *2724:A I *D sky130_fd_sc_hd__clkbuf_1
*CAP
1 gpio_in[8] 0.000337329
2 *937:DIODE 4.02567e-05
3 *2724:A 0
4 *35:13 0.000377586
5 *937:DIODE *747:8 4.82863e-05
6 *35:13 gpio_oeb[16] 3.14094e-05
7 *35:13 gpio_oeb[1] 0
8 *35:13 *2486:CLK 8.68724e-05
9 *35:13 *729:37 3.12639e-05
10 *35:13 *729:61 3.76596e-05
11 *33:27 *937:DIODE 0.000122331
12 *33:27 *35:13 6.98095e-05
*RES
1 gpio_in[8] *35:13 6.6985 
2 *35:13 *2724:A 1.6 
3 *35:13 *937:DIODE 2.74 
*END

*D_NET *36 0.00274459
*CONN
*P gpio_in[9] I
*I *938:DIODE I *D sky130_fd_sc_hd__diode_2
*I *2725:A I *D sky130_fd_sc_hd__clkbuf_1
*CAP
1 gpio_in[9] 0.000614136
2 *938:DIODE 0.000295669
3 *2725:A 2.08101e-05
4 *36:13 0.000930614
5 *938:DIODE gpio_oeb[33] 3.00381e-05
6 *938:DIODE *2489:D 0
7 *36:13 gpio_oeb[22] 8.8266e-05
8 *36:13 gpio_oeb[33] 0.000110077
9 *36:13 gpio_out[12] 6.35352e-05
10 *36:13 gpio_out[16] 6.35352e-05
11 *36:13 *738:10 4.82863e-05
12 *36:13 *758:10 0.0001249
13 *936:DIODE *938:DIODE 0
14 *936:DIODE *36:13 0.000304758
15 *34:13 *36:13 4.99619e-05
*RES
1 gpio_in[9] *36:13 13.6752 
2 *36:13 *2725:A 1.96 
3 *36:13 *938:DIODE 9.935 
*END

*D_NET *37 0.000586597
*CONN
*P gpio_oeb[0] O
*I *2802:HI O *D sky130_fd_sc_hd__conb_1
*CAP
1 gpio_oeb[0] 0.000217095
2 *2802:HI 0.000217095
3 gpio_oeb[0] gpio_out[22] 6.95349e-05
4 gpio_oeb[0] gpio_out[2] 8.28724e-05
*RES
1 *2802:HI gpio_oeb[0] 5.02157 
*END

*D_NET *38 0.000587243
*CONN
*P gpio_oeb[10] O
*I *2745:HI O *D sky130_fd_sc_hd__conb_1
*CAP
1 gpio_oeb[10] 0.00023645
2 *2745:HI 0.00023645
3 gpio_oeb[10] gpio_oeb[26] 0.000114342
*RES
1 *2745:HI gpio_oeb[10] 5.53157 
*END

*D_NET *39 0.000538148
*CONN
*P gpio_oeb[11] O
*I *2746:HI O *D sky130_fd_sc_hd__conb_1
*CAP
1 gpio_oeb[11] 0.000241314
2 *2746:HI 0.000241314
3 gpio_oeb[11] gpio_oeb[13] 2.24901e-05
4 gpio_oeb[11] gpio_oeb[7] 3.30292e-05
*RES
1 *2746:HI gpio_oeb[11] 6.8343 
*END

*D_NET *40 0.000563183
*CONN
*P gpio_oeb[12] O
*I *2747:HI O *D sky130_fd_sc_hd__conb_1
*CAP
1 gpio_oeb[12] 0.000187217
2 *2747:HI 0.000187217
3 gpio_oeb[12] gpio_oeb[17] 0.000111885
4 gpio_oeb[12] gpio_out[25] 7.68632e-05
5 gpio_oeb[12] gpio_out[28] 0
*RES
1 *2747:HI gpio_oeb[12] 5.02157 
*END

*D_NET *41 0.000641188
*CONN
*P gpio_oeb[13] O
*I *2748:HI O *D sky130_fd_sc_hd__conb_1
*CAP
1 gpio_oeb[13] 0.000250349
2 *2748:HI 0.000250349
3 gpio_oeb[13] gpio_out[20] 0.000118
4 gpio_oeb[13] *728:34 0
5 gpio_oeb[11] gpio_oeb[13] 2.24901e-05
*RES
1 *2748:HI gpio_oeb[13] 7.3443 
*END

*D_NET *42 0.00208321
*CONN
*P gpio_oeb[14] O
*I *2768:LO O *D sky130_fd_sc_hd__conb_1
*CAP
1 gpio_oeb[14] 0.000956659
2 *2768:LO 0.000956659
3 gpio_oeb[14] gpio_out[11] 0.000169897
4 gpio_oeb[14] gpio_out[15] 0
*RES
1 *2768:LO gpio_oeb[14] 13.2104 
*END

*D_NET *43 0.000542517
*CONN
*P gpio_oeb[15] O
*I *2749:HI O *D sky130_fd_sc_hd__conb_1
*CAP
1 gpio_oeb[15] 0.000187154
2 *2749:HI 0.000187154
3 gpio_oeb[15] gpio_out[21] 8.53361e-05
4 gpio_oeb[15] gpio_out[2] 8.28724e-05
5 gpio_oeb[15] *718:36 0
*RES
1 *2749:HI gpio_oeb[15] 5.86677 
*END

*D_NET *44 0.000893055
*CONN
*P gpio_oeb[16] O
*I *2750:HI O *D sky130_fd_sc_hd__conb_1
*CAP
1 gpio_oeb[16] 0.000419578
2 *2750:HI 0.000419578
3 gpio_oeb[16] gpio_oeb[1] 2.24901e-05
4 gpio_oeb[16] *2483:CLK 0
5 gpio_oeb[16] *729:37 0
6 *33:27 gpio_oeb[16] 0
7 *35:13 gpio_oeb[16] 3.14094e-05
*RES
1 *2750:HI gpio_oeb[16] 9.8943 
*END

*D_NET *45 0.000673851
*CONN
*P gpio_oeb[17] O
*I *2751:HI O *D sky130_fd_sc_hd__conb_1
*CAP
1 gpio_oeb[17] 0.000238315
2 *2751:HI 0.000238315
3 gpio_oeb[17] gpio_out[13] 0
4 gpio_oeb[17] gpio_out[33] 8.53361e-05
5 gpio_oeb[12] gpio_oeb[17] 0.000111885
*RES
1 *2751:HI gpio_oeb[17] 6.04157 
*END

*D_NET *46 0.000777222
*CONN
*P gpio_oeb[18] O
*I *2752:HI O *D sky130_fd_sc_hd__conb_1
*CAP
1 gpio_oeb[18] 0.000362148
2 *2752:HI 0.000362148
3 gpio_oeb[18] gpio_out[29] 3.14094e-05
4 gpio_oeb[18] *2157:B 0
5 *1:15 gpio_oeb[18] 2.15176e-05
*RES
1 *2752:HI gpio_oeb[18] 8.3643 
*END

*D_NET *47 0.000632486
*CONN
*P gpio_oeb[19] O
*I *2753:HI O *D sky130_fd_sc_hd__conb_1
*CAP
1 gpio_oeb[19] 0.00022556
2 *2753:HI 0.00022556
3 gpio_oeb[19] gpio_oeb[29] 0
4 gpio_oeb[19] gpio_oeb[7] 2.24901e-05
5 gpio_oeb[19] gpio_out[24] 0.000119675
6 gpio_oeb[19] *864:10 3.92005e-05
*RES
1 *2753:HI gpio_oeb[19] 6.54523 
*END

*D_NET *48 0.000472198
*CONN
*P gpio_oeb[1] O
*I *2736:HI O *D sky130_fd_sc_hd__conb_1
*CAP
1 gpio_oeb[1] 0.0002106
2 *2736:HI 0.0002106
3 gpio_oeb[1] gpio_oeb[23] 2.85068e-05
4 gpio_oeb[16] gpio_oeb[1] 2.24901e-05
5 *35:13 gpio_oeb[1] 0
*RES
1 *2736:HI gpio_oeb[1] 6.0987 
*END

*D_NET *49 0.000460544
*CONN
*P gpio_oeb[20] O
*I *2754:HI O *D sky130_fd_sc_hd__conb_1
*CAP
1 gpio_oeb[20] 0.000148092
2 *2754:HI 0.000148092
3 gpio_oeb[20] gpio_out[22] 7.32038e-05
4 gpio_oeb[20] gpio_out[3] 7.32038e-05
5 gpio_oeb[20] *718:28 1.79536e-05
*RES
1 *2754:HI gpio_oeb[20] 5.2385 
*END

*D_NET *50 0.000515865
*CONN
*P gpio_oeb[21] O
*I *2755:HI O *D sky130_fd_sc_hd__conb_1
*CAP
1 gpio_oeb[21] 0.000219873
2 *2755:HI 0.000219873
3 gpio_oeb[21] gpio_oeb[31] 7.61195e-05
4 gpio_oeb[21] *2529:D 0
*RES
1 *2755:HI gpio_oeb[21] 5.61177 
*END

*D_NET *51 0.000758887
*CONN
*P gpio_oeb[22] O
*I *2756:HI O *D sky130_fd_sc_hd__conb_1
*CAP
1 gpio_oeb[22] 0.000304787
2 *2756:HI 0.000304787
3 gpio_oeb[22] gpio_oeb[33] 3.14094e-05
4 *33:27 gpio_oeb[22] 2.96366e-05
5 *36:13 gpio_oeb[22] 8.8266e-05
*RES
1 *2756:HI gpio_oeb[22] 7.8543 
*END

*D_NET *52 0.00056706
*CONN
*P gpio_oeb[23] O
*I *2757:HI O *D sky130_fd_sc_hd__conb_1
*CAP
1 gpio_oeb[23] 0.000254458
2 *2757:HI 0.000254458
3 gpio_oeb[23] gpio_out[0] 2.96366e-05
4 gpio_oeb[1] gpio_oeb[23] 2.85068e-05
*RES
1 *2757:HI gpio_oeb[23] 7.0893 
*END

*D_NET *53 0.000960313
*CONN
*P gpio_oeb[24] O
*I *2758:HI O *D sky130_fd_sc_hd__conb_1
*CAP
1 gpio_oeb[24] 0.000465138
2 *2758:HI 0.000465138
3 gpio_oeb[24] gpio_out[31] 0
4 gpio_oeb[24] *170:23 3.00381e-05
*RES
1 *2758:HI gpio_oeb[24] 11.88 
*END

*D_NET *54 0.000485224
*CONN
*P gpio_oeb[25] O
*I *2759:HI O *D sky130_fd_sc_hd__conb_1
*CAP
1 gpio_oeb[25] 0.000143494
2 *2759:HI 0.000143494
3 gpio_oeb[25] gpio_out[29] 7.71293e-05
4 gpio_oeb[25] gpio_out[3] 8.53361e-05
5 gpio_oeb[25] *718:20 3.57702e-05
*RES
1 *2759:HI gpio_oeb[25] 5.35677 
*END

*D_NET *55 0.000801307
*CONN
*P gpio_oeb[26] O
*I *2760:HI O *D sky130_fd_sc_hd__conb_1
*CAP
1 gpio_oeb[26] 0.00028754
2 *2760:HI 0.00028754
3 gpio_oeb[26] gpio_out[32] 0.000111885
4 gpio_oeb[26] *2090:B 0
5 gpio_oeb[10] gpio_oeb[26] 0.000114342
*RES
1 *2760:HI gpio_oeb[26] 6.21637 
*END

*D_NET *56 0.000938019
*CONN
*P gpio_oeb[27] O
*I *2761:HI O *D sky130_fd_sc_hd__conb_1
*CAP
1 gpio_oeb[27] 0.000272489
2 *2761:HI 0.000272489
3 gpio_oeb[27] gpio_oeb[5] 8.28789e-05
4 gpio_oeb[27] gpio_oeb[8] 0
5 gpio_oeb[27] gpio_out[10] 0.00011135
6 gpio_oeb[27] *2531:CLK 0.000198813
*RES
1 *2761:HI gpio_oeb[27] 7.5133 
*END

*D_NET *57 0.00189557
*CONN
*P gpio_oeb[28] O
*I *2762:HI O *D sky130_fd_sc_hd__conb_1
*CAP
1 gpio_oeb[28] 0.000827146
2 *2762:HI 0.000827146
3 gpio_oeb[28] gpio_oeb[32] 0.000198454
4 gpio_oeb[28] gpio_oeb[4] 3.6993e-05
5 gpio_oeb[28] gpio_out[26] 5.83121e-06
6 gpio_oeb[28] gpio_out[6] 0
*RES
1 *2762:HI gpio_oeb[28] 16.6968 
*END

*D_NET *58 0.000671598
*CONN
*P gpio_oeb[29] O
*I *2763:HI O *D sky130_fd_sc_hd__conb_1
*CAP
1 gpio_oeb[29] 0.0002117
2 *2763:HI 0.0002117
3 gpio_oeb[29] gpio_out[24] 2.24901e-05
4 gpio_oeb[29] *864:10 0.000152503
5 gpio_oeb[19] gpio_oeb[29] 0
6 *31:13 gpio_oeb[29] 7.32038e-05
*RES
1 *2763:HI gpio_oeb[29] 6.37677 
*END

*D_NET *59 0.000751264
*CONN
*P gpio_oeb[2] O
*I *2737:HI O *D sky130_fd_sc_hd__conb_1
*CAP
1 gpio_oeb[2] 0.000375632
2 *2737:HI 0.000375632
*RES
1 *2737:HI gpio_oeb[2] 9.84 
*END

*D_NET *60 0.000415682
*CONN
*P gpio_oeb[30] O
*I *2764:HI O *D sky130_fd_sc_hd__conb_1
*CAP
1 gpio_oeb[30] 0.000126741
2 *2764:HI 0.000126741
3 gpio_oeb[30] gpio_out[13] 7.68632e-05
4 gpio_oeb[30] gpio_out[27] 8.53361e-05
*RES
1 *2764:HI gpio_oeb[30] 4.84677 
*END

*D_NET *61 0.000665109
*CONN
*P gpio_oeb[31] O
*I *2765:HI O *D sky130_fd_sc_hd__conb_1
*CAP
1 gpio_oeb[31] 0.000251827
2 *2765:HI 0.000251827
3 gpio_oeb[31] gpio_oeb[8] 8.53361e-05
4 gpio_oeb[21] gpio_oeb[31] 7.61195e-05
*RES
1 *2765:HI gpio_oeb[31] 6.88677 
*END

*D_NET *62 0.00150874
*CONN
*P gpio_oeb[32] O
*I *2766:HI O *D sky130_fd_sc_hd__conb_1
*CAP
1 gpio_oeb[32] 0.000482733
2 *2766:HI 0.000482733
3 gpio_oeb[32] gpio_oeb[4] 0.000158261
4 gpio_oeb[32] gpio_oeb[9] 0.000138269
5 gpio_oeb[32] gpio_out[6] 4.82919e-05
6 gpio_oeb[28] gpio_oeb[32] 0.000198454
*RES
1 *2766:HI gpio_oeb[32] 12.8002 
*END

*D_NET *63 0.00136795
*CONN
*P gpio_oeb[33] O
*I *2767:HI O *D sky130_fd_sc_hd__conb_1
*CAP
1 gpio_oeb[33] 0.000363203
2 *2767:HI 0.000363203
3 gpio_oeb[33] gpio_out[12] 7.02214e-05
4 gpio_oeb[33] gpio_out[5] 3.00381e-05
5 gpio_oeb[22] gpio_oeb[33] 3.14094e-05
6 *936:DIODE gpio_oeb[33] 0.000316415
7 *938:DIODE gpio_oeb[33] 3.00381e-05
8 *33:27 gpio_oeb[33] 0
9 *34:13 gpio_oeb[33] 5.33491e-05
10 *36:13 gpio_oeb[33] 0.000110077
*RES
1 *2767:HI gpio_oeb[33] 9.7235 
*END

*D_NET *64 0.00149583
*CONN
*P gpio_oeb[3] O
*I *2738:HI O *D sky130_fd_sc_hd__conb_1
*CAP
1 gpio_oeb[3] 0.000325398
2 *2738:HI 0.000325398
3 gpio_oeb[3] gpio_oeb[6] 0.000228204
4 gpio_oeb[3] gpio_out[1] 0.00061683
*RES
1 *2738:HI gpio_oeb[3] 10.6316 
*END

*D_NET *65 0.0013006
*CONN
*P gpio_oeb[4] O
*I *2739:HI O *D sky130_fd_sc_hd__conb_1
*CAP
1 gpio_oeb[4] 0.000444388
2 *2739:HI 0.000444388
3 gpio_oeb[4] gpio_oeb[9] 0.000216567
4 gpio_oeb[28] gpio_oeb[4] 3.6993e-05
5 gpio_oeb[32] gpio_oeb[4] 0.000158261
*RES
1 *2739:HI gpio_oeb[4] 11.9954 
*END

*D_NET *66 0.000539229
*CONN
*P gpio_oeb[5] O
*I *2740:HI O *D sky130_fd_sc_hd__conb_1
*CAP
1 gpio_oeb[5] 0.000185507
2 *2740:HI 0.000185507
3 gpio_oeb[5] gpio_oeb[8] 8.53361e-05
4 gpio_oeb[5] *2531:D 0
5 gpio_oeb[27] gpio_oeb[5] 8.28789e-05
*RES
1 *2740:HI gpio_oeb[5] 5.86677 
*END

*D_NET *67 0.0010692
*CONN
*P gpio_oeb[6] O
*I *2741:HI O *D sky130_fd_sc_hd__conb_1
*CAP
1 gpio_oeb[6] 0.000341326
2 *2741:HI 0.000341326
3 gpio_oeb[6] gpio_out[28] 0.000158342
4 gpio_oeb[3] gpio_oeb[6] 0.000228204
*RES
1 *2741:HI gpio_oeb[6] 8.25637 
*END

*D_NET *68 0.000538123
*CONN
*P gpio_oeb[7] O
*I *2742:HI O *D sky130_fd_sc_hd__conb_1
*CAP
1 gpio_oeb[7] 0.000241302
2 *2742:HI 0.000241302
3 gpio_oeb[11] gpio_oeb[7] 3.30292e-05
4 gpio_oeb[19] gpio_oeb[7] 2.24901e-05
*RES
1 *2742:HI gpio_oeb[7] 6.8343 
*END

*D_NET *69 0.000539331
*CONN
*P gpio_oeb[8] O
*I *2743:HI O *D sky130_fd_sc_hd__conb_1
*CAP
1 gpio_oeb[8] 0.00018433
2 *2743:HI 0.00018433
3 gpio_oeb[27] gpio_oeb[8] 0
4 gpio_oeb[31] gpio_oeb[8] 8.53361e-05
5 gpio_oeb[5] gpio_oeb[8] 8.53361e-05
*RES
1 *2743:HI gpio_oeb[8] 5.02157 
*END

*D_NET *70 0.000934535
*CONN
*P gpio_oeb[9] O
*I *2744:HI O *D sky130_fd_sc_hd__conb_1
*CAP
1 gpio_oeb[9] 0.000273335
2 *2744:HI 0.000273335
3 gpio_oeb[9] gpio_out[26] 3.30292e-05
4 gpio_oeb[32] gpio_oeb[9] 0.000138269
5 gpio_oeb[4] gpio_oeb[9] 0.000216567
*RES
1 *2744:HI gpio_oeb[9] 8.1243 
*END

*D_NET *71 0.000859069
*CONN
*P gpio_out[0] O
*I *2769:LO O *D sky130_fd_sc_hd__conb_1
*CAP
1 gpio_out[0] 0.00031604
2 *2769:LO 0.00031604
3 gpio_oeb[23] gpio_out[0] 2.96366e-05
4 *948:DIODE gpio_out[0] 0.00012657
5 *30:13 gpio_out[0] 7.0782e-05
*RES
1 *2769:LO gpio_out[0] 8.6343 
*END

*D_NET *72 0.000815338
*CONN
*P gpio_out[10] O
*I *2779:LO O *D sky130_fd_sc_hd__conb_1
*CAP
1 gpio_out[10] 0.000296311
2 *2779:LO 0.000296311
3 gpio_out[10] gpio_out[30] 0.000111366
4 gpio_out[10] *2532:D 0
5 gpio_oeb[27] gpio_out[10] 0.00011135
*RES
1 *2779:LO gpio_out[10] 7.06157 
*END

*D_NET *73 0.00133143
*CONN
*P gpio_out[11] O
*I *2780:LO O *D sky130_fd_sc_hd__conb_1
*CAP
1 gpio_out[11] 0.000467972
2 *2780:LO 0.000467972
3 gpio_out[11] gpio_out[30] 0
4 gpio_out[11] gpio_out[7] 0.000225591
5 gpio_oeb[14] gpio_out[11] 0.000169897
*RES
1 *2780:LO gpio_out[11] 9.96117 
*END

*D_NET *74 0.00138431
*CONN
*P gpio_out[12] O
*I *2781:LO O *D sky130_fd_sc_hd__conb_1
*CAP
1 gpio_out[12] 0.000584671
2 *2781:LO 0.000584671
3 gpio_out[12] gpio_out[16] 8.12126e-05
4 gpio_out[12] gpio_out[5] 0
5 gpio_oeb[33] gpio_out[12] 7.02214e-05
6 *36:13 gpio_out[12] 6.35352e-05
*RES
1 *2781:LO gpio_out[12] 7.81903 
*END

*D_NET *75 0.000621661
*CONN
*P gpio_out[13] O
*I *2782:LO O *D sky130_fd_sc_hd__conb_1
*CAP
1 gpio_out[13] 0.000230959
2 *2782:LO 0.000230959
3 gpio_out[13] gpio_out[33] 8.28789e-05
4 gpio_oeb[17] gpio_out[13] 0
5 gpio_oeb[30] gpio_out[13] 7.68632e-05
*RES
1 *2782:LO gpio_out[13] 5.53157 
*END

*D_NET *76 0.000980391
*CONN
*P gpio_out[14] O
*I *2735:X O *D sky130_fd_sc_hd__buf_2
*CAP
1 gpio_out[14] 0.000490195
2 *2735:X 0.000490195
3 *2727:A gpio_out[14] 0
4 *3:5 gpio_out[14] 0
*RES
1 *2735:X gpio_out[14] 11.715 
*END

*D_NET *77 0.000923934
*CONN
*P gpio_out[15] O
*I *2783:LO O *D sky130_fd_sc_hd__conb_1
*CAP
1 gpio_out[15] 0.000452775
2 *2783:LO 0.000452775
3 gpio_out[15] gpio_out[18] 0
4 gpio_out[15] *2239:A 1.83847e-05
5 gpio_oeb[14] gpio_out[15] 0
*RES
1 *2783:LO gpio_out[15] 11.37 
*END

*D_NET *78 0.00206208
*CONN
*P gpio_out[16] O
*I *2784:LO O *D sky130_fd_sc_hd__conb_1
*CAP
1 gpio_out[16] 0.000907561
2 *2784:LO 0.000907561
3 gpio_out[12] gpio_out[16] 8.12126e-05
4 *6:7 gpio_out[16] 0
5 *34:13 gpio_out[16] 0.00010221
6 *36:13 gpio_out[16] 6.35352e-05
*RES
1 *2784:LO gpio_out[16] 13.0938 
*END

*D_NET *79 0.000917771
*CONN
*P gpio_out[17] O
*I *2785:LO O *D sky130_fd_sc_hd__conb_1
*CAP
1 gpio_out[17] 0.000450192
2 *2785:LO 0.000450192
3 gpio_out[17] gpio_out[18] 0
4 gpio_out[17] gpio_out[19] 0
5 gpio_out[17] *170:23 1.7386e-05
*RES
1 *2785:LO gpio_out[17] 11.37 
*END

*D_NET *80 0.000921812
*CONN
*P gpio_out[18] O
*I *2786:LO O *D sky130_fd_sc_hd__conb_1
*CAP
1 gpio_out[18] 0.000453712
2 *2786:LO 0.000453712
3 gpio_out[18] *170:23 1.4389e-05
4 gpio_out[15] gpio_out[18] 0
5 gpio_out[17] gpio_out[18] 0
*RES
1 *2786:LO gpio_out[18] 11.37 
*END

*D_NET *81 0.00104623
*CONN
*P gpio_out[19] O
*I *2787:LO O *D sky130_fd_sc_hd__conb_1
*CAP
1 gpio_out[19] 0.000499615
2 *2787:LO 0.000499615
3 gpio_out[19] gpio_out[31] 7.00889e-06
4 gpio_out[19] *170:23 3.99879e-05
5 gpio_out[17] gpio_out[19] 0
*RES
1 *2787:LO gpio_out[19] 12.06 
*END

*D_NET *82 0.0020615
*CONN
*P gpio_out[1] O
*I *2770:LO O *D sky130_fd_sc_hd__conb_1
*CAP
1 gpio_out[1] 0.00071742
2 *2770:LO 0.00071742
3 gpio_out[1] gpio_out[25] 9.82856e-06
4 gpio_out[1] gpio_out[28] 0
5 gpio_oeb[3] gpio_out[1] 0.00061683
*RES
1 *2770:LO gpio_out[1] 15.6133 
*END

*D_NET *83 0.000838882
*CONN
*P gpio_out[20] O
*I *2788:LO O *D sky130_fd_sc_hd__conb_1
*CAP
1 gpio_out[20] 0.000301713
2 *2788:LO 0.000301713
3 gpio_out[20] *728:34 5.62618e-05
4 gpio_oeb[13] gpio_out[20] 0.000118
5 *32:13 gpio_out[20] 6.11949e-05
*RES
1 *2788:LO gpio_out[20] 7.58023 
*END

*D_NET *84 0.000400722
*CONN
*P gpio_out[21] O
*I *2789:LO O *D sky130_fd_sc_hd__conb_1
*CAP
1 gpio_out[21] 0.000146934
2 *2789:LO 0.000146934
3 gpio_out[21] gpio_out[26] 2.15176e-05
4 gpio_oeb[15] gpio_out[21] 8.53361e-05
*RES
1 *2789:LO gpio_out[21] 4.84677 
*END

*D_NET *85 0.000634557
*CONN
*P gpio_out[22] O
*I *2790:LO O *D sky130_fd_sc_hd__conb_1
*CAP
1 gpio_out[22] 0.000245909
2 *2790:LO 0.000245909
3 gpio_out[22] *718:36 0
4 gpio_oeb[0] gpio_out[22] 6.95349e-05
5 gpio_oeb[20] gpio_out[22] 7.32038e-05
*RES
1 *2790:LO gpio_out[22] 6.2585 
*END

*D_NET *86 0.000447312
*CONN
*P gpio_out[23] O
*I *2791:LO O *D sky130_fd_sc_hd__conb_1
*CAP
1 gpio_out[23] 0.000142556
2 *2791:LO 0.000142556
3 gpio_out[23] gpio_out[32] 7.68632e-05
4 gpio_out[23] gpio_out[9] 8.53361e-05
*RES
1 *2791:LO gpio_out[23] 5.10177 
*END

*D_NET *87 0.000796424
*CONN
*P gpio_out[24] O
*I *2792:LO O *D sky130_fd_sc_hd__conb_1
*CAP
1 gpio_out[24] 0.000327129
2 *2792:LO 0.000327129
3 gpio_out[24] *864:10 0
4 gpio_oeb[19] gpio_out[24] 0.000119675
5 gpio_oeb[29] gpio_out[24] 2.24901e-05
*RES
1 *2792:LO gpio_out[24] 8.3793 
*END

*D_NET *88 0.000420248
*CONN
*P gpio_out[25] O
*I *2793:LO O *D sky130_fd_sc_hd__conb_1
*CAP
1 gpio_out[25] 0.00012411
2 *2793:LO 0.00012411
3 gpio_out[25] gpio_out[28] 8.53361e-05
4 gpio_oeb[12] gpio_out[25] 7.68632e-05
5 gpio_out[1] gpio_out[25] 9.82856e-06
*RES
1 *2793:LO gpio_out[25] 4.84677 
*END

*D_NET *89 0.000680944
*CONN
*P gpio_out[26] O
*I *2794:LO O *D sky130_fd_sc_hd__conb_1
*CAP
1 gpio_out[26] 0.000310283
2 *2794:LO 0.000310283
3 gpio_oeb[28] gpio_out[26] 5.83121e-06
4 gpio_oeb[9] gpio_out[26] 3.30292e-05
5 gpio_out[21] gpio_out[26] 2.15176e-05
*RES
1 *2794:LO gpio_out[26] 7.3443 
*END

*D_NET *90 0.000542499
*CONN
*P gpio_out[27] O
*I *2795:LO O *D sky130_fd_sc_hd__conb_1
*CAP
1 gpio_out[27] 0.000187142
2 *2795:LO 0.000187142
3 gpio_out[27] gpio_out[9] 8.28789e-05
4 gpio_oeb[30] gpio_out[27] 8.53361e-05
*RES
1 *2795:LO gpio_out[27] 5.86677 
*END

*D_NET *91 0.000967537
*CONN
*P gpio_out[28] O
*I *2796:LO O *D sky130_fd_sc_hd__conb_1
*CAP
1 gpio_out[28] 0.000361929
2 *2796:LO 0.000361929
3 gpio_oeb[12] gpio_out[28] 0
4 gpio_oeb[6] gpio_out[28] 0.000158342
5 gpio_out[1] gpio_out[28] 0
6 gpio_out[25] gpio_out[28] 8.53361e-05
*RES
1 *2796:LO gpio_out[28] 6.39117 
*END

*D_NET *92 0.000419341
*CONN
*P gpio_out[29] O
*I *2797:LO O *D sky130_fd_sc_hd__conb_1
*CAP
1 gpio_out[29] 0.000155401
2 *2797:LO 0.000155401
3 gpio_oeb[18] gpio_out[29] 3.14094e-05
4 gpio_oeb[25] gpio_out[29] 7.71293e-05
5 *1:15 gpio_out[29] 0
*RES
1 *2797:LO gpio_out[29] 4.84677 
*END

*D_NET *93 0.000492863
*CONN
*P gpio_out[2] O
*I *2771:LO O *D sky130_fd_sc_hd__conb_1
*CAP
1 gpio_out[2] 0.000163559
2 *2771:LO 0.000163559
3 gpio_out[2] *718:36 0
4 gpio_oeb[0] gpio_out[2] 8.28724e-05
5 gpio_oeb[15] gpio_out[2] 8.28724e-05
*RES
1 *2771:LO gpio_out[2] 5.35677 
*END

*D_NET *94 0.000977425
*CONN
*P gpio_out[30] O
*I *2798:LO O *D sky130_fd_sc_hd__conb_1
*CAP
1 gpio_out[30] 0.000361356
2 *2798:LO 0.000361356
3 gpio_out[30] gpio_out[7] 0.000143348
4 gpio_out[10] gpio_out[30] 0.000111366
5 gpio_out[11] gpio_out[30] 0
*RES
1 *2798:LO gpio_out[30] 5.54597 
*END

*D_NET *95 0.00128072
*CONN
*P gpio_out[31] O
*I *2799:LO O *D sky130_fd_sc_hd__conb_1
*CAP
1 gpio_out[31] 0.000552751
2 *2799:LO 0.000552751
3 gpio_out[31] *170:23 0.000168213
4 gpio_oeb[24] gpio_out[31] 0
5 gpio_out[19] gpio_out[31] 7.00889e-06
*RES
1 *2799:LO gpio_out[31] 13.95 
*END

*D_NET *96 0.000546755
*CONN
*P gpio_out[32] O
*I *2800:LO O *D sky130_fd_sc_hd__conb_1
*CAP
1 gpio_out[32] 0.000179003
2 *2800:LO 0.000179003
3 gpio_out[32] gpio_out[9] 0
4 gpio_oeb[26] gpio_out[32] 0.000111885
5 gpio_out[23] gpio_out[32] 7.68632e-05
*RES
1 *2800:LO gpio_out[32] 5.02157 
*END

*D_NET *97 0.000485684
*CONN
*P gpio_out[33] O
*I *2801:LO O *D sky130_fd_sc_hd__conb_1
*CAP
1 gpio_out[33] 0.000158735
2 *2801:LO 0.000158735
3 gpio_oeb[17] gpio_out[33] 8.53361e-05
4 gpio_out[13] gpio_out[33] 8.28789e-05
*RES
1 *2801:LO gpio_out[33] 5.35677 
*END

*D_NET *98 0.00055725
*CONN
*P gpio_out[3] O
*I *2772:LO O *D sky130_fd_sc_hd__conb_1
*CAP
1 gpio_out[3] 0.000170287
2 *2772:LO 0.000170287
3 gpio_out[3] *718:20 5.8136e-05
4 gpio_oeb[20] gpio_out[3] 7.32038e-05
5 gpio_oeb[25] gpio_out[3] 8.53361e-05
*RES
1 *2772:LO gpio_out[3] 5.86677 
*END

*D_NET *99 0.000786235
*CONN
*P gpio_out[4] O
*I *2773:LO O *D sky130_fd_sc_hd__conb_1
*CAP
1 gpio_out[4] 0.000393118
2 *2773:LO 0.000393118
3 gpio_out[4] gpio_out[6] 0
4 gpio_out[4] gpio_out[8] 0
*RES
1 *2773:LO gpio_out[4] 10.35 
*END

*D_NET *100 0.000943537
*CONN
*P gpio_out[5] O
*I *2774:LO O *D sky130_fd_sc_hd__conb_1
*CAP
1 gpio_out[5] 0.00045675
2 *2774:LO 0.00045675
3 gpio_oeb[33] gpio_out[5] 3.00381e-05
4 gpio_out[12] gpio_out[5] 0
5 *34:13 gpio_out[5] 0
*RES
1 *2774:LO gpio_out[5] 11.37 
*END

*D_NET *101 0.000817486
*CONN
*P gpio_out[6] O
*I *2775:LO O *D sky130_fd_sc_hd__conb_1
*CAP
1 gpio_out[6] 0.000384597
2 *2775:LO 0.000384597
3 gpio_oeb[28] gpio_out[6] 0
4 gpio_oeb[32] gpio_out[6] 4.82919e-05
5 gpio_out[4] gpio_out[6] 0
*RES
1 *2775:LO gpio_out[6] 10.35 
*END

*D_NET *102 0.00091554
*CONN
*P gpio_out[7] O
*I *2776:LO O *D sky130_fd_sc_hd__conb_1
*CAP
1 gpio_out[7] 0.000273301
2 *2776:LO 0.000273301
3 gpio_out[11] gpio_out[7] 0.000225591
4 gpio_out[30] gpio_out[7] 0.000143348
*RES
1 *2776:LO gpio_out[7] 7.23637 
*END

*D_NET *103 0.000786235
*CONN
*P gpio_out[8] O
*I *2777:LO O *D sky130_fd_sc_hd__conb_1
*CAP
1 gpio_out[8] 0.000393118
2 *2777:LO 0.000393118
3 gpio_out[4] gpio_out[8] 0
*RES
1 *2777:LO gpio_out[8] 10.35 
*END

*D_NET *104 0.000663515
*CONN
*P gpio_out[9] O
*I *2778:LO O *D sky130_fd_sc_hd__conb_1
*CAP
1 gpio_out[9] 0.00024765
2 *2778:LO 0.00024765
3 gpio_out[23] gpio_out[9] 8.53361e-05
4 gpio_out[27] gpio_out[9] 8.28789e-05
5 gpio_out[32] gpio_out[9] 0
*RES
1 *2778:LO gpio_out[9] 6.04157 
*END

*D_NET *105 0.00145448
*CONN
*P nrst I
*I *2726:A I *D sky130_fd_sc_hd__clkbuf_1
*I *939:DIODE I *D sky130_fd_sc_hd__diode_2
*CAP
1 nrst 0.000403853
2 *2726:A 0
3 *939:DIODE 8.26249e-05
4 *105:11 0.000486478
5 *105:11 *2242:A 0.000166943
6 *105:11 *861:10 0
7 *2:13 *105:11 0.000314581
*RES
1 nrst *105:11 8.60177 
2 *105:11 *939:DIODE 2.74 
3 *105:11 *2726:A 1.6 
*END

*D_NET *108 0.00589022
*CONN
*I *2249:A1 I *D sky130_fd_sc_hd__a32o_1
*I *2161:A I *D sky130_fd_sc_hd__and3_1
*I *2162:A1 I *D sky130_fd_sc_hd__a21o_1
*I *2158:A I *D sky130_fd_sc_hd__or2_1
*I *2159:A I *D sky130_fd_sc_hd__nand2_1
*I *2679:A I *D sky130_fd_sc_hd__dlygate4sd3_1
*I *2135:C1 I *D sky130_fd_sc_hd__a221o_1
*I *2457:Q O *D sky130_fd_sc_hd__dfrtp_2
*CAP
1 *2249:A1 0.000245519
2 *2161:A 7.29078e-05
3 *2162:A1 0.000135223
4 *2158:A 0
5 *2159:A 1.65487e-05
6 *2679:A 0
7 *2135:C1 0.000185179
8 *2457:Q 0.000151565
9 *108:67 0.000487111
10 *108:40 4.48414e-05
11 *108:38 0.000263337
12 *108:29 0.000141056
13 *108:25 0.000283198
14 *108:10 0.000410023
15 *2135:C1 *2458:CLK 5.05521e-05
16 *2135:C1 *2573:A 0.000416239
17 *2135:C1 *115:79 7.04155e-05
18 *2135:C1 *718:16 0.000505414
19 *2159:A *2159:B 4.99619e-05
20 *2159:A *2160:C 0.00012657
21 *2159:A *115:20 4.60584e-05
22 *2161:A *2163:A_N 0
23 *2161:A *115:51 5.05437e-05
24 *2162:A1 *2160:B 0
25 *2162:A1 *2160:C 0.000113797
26 *2162:A1 *2162:A2 7.63883e-05
27 *2162:A1 *846:34 0.000351079
28 *2249:A1 *2249:A3 0.00019898
29 *2249:A1 *2590:A 8.65961e-05
30 *2249:A1 *115:51 5.74791e-05
31 *108:10 *2458:D 4.43871e-06
32 *108:10 *846:40 0
33 *108:25 *2458:CLK 2.42236e-05
34 *108:25 *2458:D 0.000110315
35 *108:25 *115:12 0.000116853
36 *108:29 *115:20 5.80958e-05
37 *108:38 *2136:B 0
38 *108:38 *2160:B 0.000160635
39 *108:38 *2160:C 3.66286e-05
40 *108:38 *115:20 5.30691e-05
41 *108:40 *2160:B 8.40213e-05
42 *108:40 *2160:C 0.000150653
43 *108:40 *115:20 4.60584e-05
44 *108:67 *2160:B 0
45 *108:67 *2162:A2 0
46 *108:67 *2458:CLK 1.79098e-05
47 *108:67 *2458:D 6.92253e-05
48 *108:67 *115:12 2.92496e-05
49 *108:67 *116:50 0.000292258
*RES
1 *2457:Q *108:10 5.52 
2 *108:10 *2135:C1 10.725 
3 *108:10 *108:25 2.4 
4 *108:25 *108:29 2.795 
5 *108:29 *2679:A 1.6 
6 *108:29 *108:38 2.535 
7 *108:38 *108:40 1.485 
8 *108:40 *2159:A 2.74 
9 *108:40 *2158:A 1.6 
10 *108:38 *2162:A1 9.785 
11 *108:25 *108:67 6.185 
12 *108:67 *2161:A 3.01 
13 *108:67 *2249:A1 6.205 
*END

*D_NET *109 0.00446917
*CONN
*I *2268:B2 I *D sky130_fd_sc_hd__a221o_1
*I *2186:A1 I *D sky130_fd_sc_hd__a31o_1
*I *2682:A I *D sky130_fd_sc_hd__dlygate4sd3_1
*I *2185:B I *D sky130_fd_sc_hd__and3_1
*I *2183:A1 I *D sky130_fd_sc_hd__o21ai_1
*I *2148:A I *D sky130_fd_sc_hd__or2_1
*I *2150:B2 I *D sky130_fd_sc_hd__a221o_1
*I *2467:Q O *D sky130_fd_sc_hd__dfrtp_2
*CAP
1 *2268:B2 0.000108577
2 *2186:A1 6.49373e-05
3 *2682:A 3.79971e-05
4 *2185:B 4.47138e-05
5 *2183:A1 0.000106104
6 *2148:A 2.97957e-05
7 *2150:B2 0.000129172
8 *2467:Q 3.38648e-05
9 *109:75 0.00024849
10 *109:62 0.000180353
11 *109:18 0.000312099
12 *109:12 0.000362802
13 *109:10 0.000211593
14 *109:8 0.000164557
15 *2148:A *376:58 1.4389e-05
16 *2150:B2 *915:DIODE 4.82863e-05
17 *2150:B2 *2150:A1 4.00541e-06
18 *2150:B2 *2150:C1 0.000198046
19 *2150:B2 *110:32 2.59387e-05
20 *2150:B2 *443:33 0
21 *2150:B2 *457:70 4.70343e-05
22 *2150:B2 *717:18 0.000148292
23 *2150:B2 *717:33 1.71013e-05
24 *2150:B2 *822:30 3.26822e-05
25 *2183:A1 *2183:A2 8.49205e-05
26 *2183:A1 *802:41 8.95933e-05
27 *2185:B *2185:C 8.80347e-07
28 *2185:B *2466:RESET_B 3.64998e-06
29 *2186:A1 *2186:A2 4.99619e-05
30 *2186:A1 *2187:B 1.56428e-05
31 *2186:A1 *110:22 0.000198934
32 *2268:B2 *2187:B 4.01778e-05
33 *2268:B2 *2268:A1 1.12643e-05
34 *2268:B2 *2268:B1 6.28765e-05
35 *2268:B2 *110:22 0.000120655
36 *2268:B2 *717:134 0
37 *2268:B2 *814:25 1.12643e-05
38 *2268:B2 *822:30 0.000157626
39 *2682:A *2468:CLK 4.82863e-05
40 *2682:A *791:23 1.61831e-05
41 *109:8 *852:36 4.82919e-05
42 *109:10 *2466:RESET_B 0.000152127
43 *109:10 *551:44 0
44 *109:10 *822:30 9.86611e-05
45 *109:12 *2183:A2 0
46 *109:12 *2466:RESET_B 7.5416e-05
47 *109:12 *822:30 0.000130846
48 *109:18 *110:32 0
49 *109:18 *457:70 1.73877e-05
50 *109:18 *822:30 0.000111641
51 *109:62 *110:26 0
52 *109:62 *551:44 0
53 *109:62 *822:30 6.36578e-05
54 *109:75 *2468:CLK 0.000180405
55 *109:75 *110:26 0
56 *109:75 *822:30 0.000107995
*RES
1 *2467:Q *109:8 4.05 
2 *109:8 *109:10 2.145 
3 *109:10 *109:12 2.655 
4 *109:12 *109:18 3.21 
5 *109:18 *2150:B2 7.62375 
6 *109:18 *2148:A 4.05 
7 *109:12 *2183:A1 5.775 
8 *109:10 *2185:B 4.05 
9 *109:8 *109:62 1.38 
10 *109:62 *2682:A 4.395 
11 *109:62 *109:75 4.4 
12 *109:75 *2186:A1 3.43 
13 *109:75 *2268:B2 8.73875 
*END

*D_NET *110 0.00674073
*CONN
*I *2270:B2 I *D sky130_fd_sc_hd__a221o_1
*I *2186:B1 I *D sky130_fd_sc_hd__a31o_1
*I *2185:A I *D sky130_fd_sc_hd__and3_1
*I *2153:B2 I *D sky130_fd_sc_hd__o221a_1
*I *2150:A1 I *D sky130_fd_sc_hd__a221o_1
*I *2468:Q O *D sky130_fd_sc_hd__dfrtp_1
*CAP
1 *2270:B2 0
2 *2186:B1 0
3 *2185:A 3.30433e-05
4 *2153:B2 0.000119939
5 *2150:A1 1.68778e-05
6 *2468:Q 0.000149119
7 *110:32 0.000444267
8 *110:26 0.000550206
9 *110:22 0.000618733
10 *110:14 0.00055814
11 *2150:A1 *443:33 9.15458e-06
12 *2153:B2 *443:22 4.94465e-05
13 *2153:B2 *443:33 9.80278e-05
14 *2153:B2 *443:52 4.82863e-05
15 *2153:B2 *717:18 1.47256e-05
16 *2185:A *2185:C 4.82919e-05
17 *2185:A *2466:RESET_B 0.000122337
18 *2185:A *123:8 4.82919e-05
19 *110:14 *2268:B1 2.47827e-05
20 *110:14 *2604:A 7.22354e-05
21 *110:14 *829:101 0.000138961
22 *110:14 *852:26 0.000140628
23 *110:22 *2186:A2 2.0514e-05
24 *110:22 *2268:B1 0.000428709
25 *110:22 *2604:A 0.000124895
26 *110:26 *2186:A3 6.23375e-05
27 *110:26 *2266:B2 2.95721e-05
28 *110:26 *2468:CLK 0
29 *110:26 *123:36 0.000371232
30 *110:26 *123:47 0.000180416
31 *110:26 *551:44 0.000187401
32 *110:32 *2147:B2 5.16418e-05
33 *110:32 *2150:B1 4.82919e-05
34 *110:32 *2150:C1 0.000468885
35 *110:32 *2183:A2 7.44375e-05
36 *110:32 *2621:A 8.53113e-06
37 *110:32 *123:10 0.000312083
38 *110:32 *123:36 3.09233e-05
39 *110:32 *443:22 0.000535086
40 *110:32 *457:70 4.73534e-05
41 *110:32 *551:44 1.07797e-05
42 *110:32 *717:18 2.43956e-05
43 *110:32 *727:32 6.82164e-05
44 *2150:B2 *2150:A1 4.00541e-06
45 *2150:B2 *110:32 2.59387e-05
46 *2186:A1 *110:22 0.000198934
47 *2268:B2 *110:22 0.000120655
48 *109:18 *110:32 0
49 *109:62 *110:26 0
50 *109:75 *110:26 0
*RES
1 *2468:Q *110:14 8.82125 
2 *110:14 *110:22 8.52375 
3 *110:22 *110:26 8.735 
4 *110:26 *110:32 12.905 
5 *110:32 *2150:A1 1.96 
6 *110:32 *2153:B2 4.12 
7 *110:26 *2185:A 4.74 
8 *110:22 *2186:B1 1.6 
9 *110:14 *2270:B2 1.6 
*END

*D_NET *111 0.00395002
*CONN
*I *2272:B2 I *D sky130_fd_sc_hd__a221o_1
*I *2153:A1 I *D sky130_fd_sc_hd__o221a_1
*I *2188:A I *D sky130_fd_sc_hd__and2_1
*I *2151:B2 I *D sky130_fd_sc_hd__a22o_1
*I *2189:A1 I *D sky130_fd_sc_hd__o21ai_1
*I *2469:Q O *D sky130_fd_sc_hd__dfrtp_1
*CAP
1 *2272:B2 3.56942e-05
2 *2153:A1 0.00033137
3 *2188:A 0
4 *2151:B2 7.9349e-05
5 *2189:A1 4.1896e-05
6 *2469:Q 0
7 *111:25 0.0001426
8 *111:14 0.000200247
9 *111:10 0.00073221
10 *111:4 0.000341435
11 *2151:B2 *2151:A2 3.99514e-06
12 *2151:B2 *2193:B 5.42126e-05
13 *2151:B2 *2193:C 0.000189198
14 *2151:B2 *376:58 4.6603e-05
15 *2151:B2 *531:10 0
16 *2151:B2 *842:62 0.000163992
17 *2153:A1 *2151:A1 0.000155227
18 *2153:A1 *2151:B1 0.00011381
19 *2153:A1 *2154:B 4.07479e-05
20 *2153:A1 *2155:B1 6.40489e-05
21 *2153:A1 *2190:A 0
22 *2153:A1 *2193:B 3.22964e-05
23 *2153:A1 *2193:C 0
24 *2153:A1 *2634:A 0
25 *2189:A1 *717:12 2.76356e-05
26 *2272:B2 *2273:A2 1.12643e-05
27 *2272:B2 *818:62 4.82863e-05
28 *2272:B2 *821:54 7.23635e-05
29 *2272:B2 *829:86 1.87449e-05
30 *2272:B2 *829:101 1.49106e-05
31 *111:10 *2190:A 6.88971e-05
32 *111:10 *2469:D 5.83121e-06
33 *111:10 *2469:RESET_B 1.75984e-05
34 *111:10 *2634:A 0
35 *111:10 *818:62 8.8266e-05
36 *111:10 *821:54 0.000259214
37 *111:10 *829:101 0.000186194
38 *111:14 *717:12 7.62032e-05
39 *111:25 *2190:A 6.55328e-05
40 *111:25 *842:62 0.00017354
41 *2572:A *2189:A1 4.66108e-05
*RES
1 *2469:Q *111:4 1.6 
2 *111:4 *111:10 9.77 
3 *111:10 *111:14 3.83 
4 *111:14 *2189:A1 2.395 
5 *111:14 *111:25 4.145 
6 *111:25 *2151:B2 6.72 
7 *111:25 *2188:A 3.6 
8 *111:10 *2153:A1 10.02 
9 *111:4 *2272:B2 2.75875 
*END

*D_NET *112 0.00447081
*CONN
*I *2274:B2 I *D sky130_fd_sc_hd__a221o_1
*I *2192:A I *D sky130_fd_sc_hd__or2_1
*I *2151:A1 I *D sky130_fd_sc_hd__a22o_1
*I *2191:A I *D sky130_fd_sc_hd__nand2_1
*I *2152:B2 I *D sky130_fd_sc_hd__o22a_1
*I *2470:Q O *D sky130_fd_sc_hd__dfrtp_1
*CAP
1 *2274:B2 3.67753e-05
2 *2192:A 4.85794e-05
3 *2151:A1 0.000170446
4 *2191:A 0
5 *2152:B2 0.000343478
6 *2470:Q 0
7 *112:52 0.000549872
8 *112:16 0.000474903
9 *112:10 0.000677582
10 *112:4 0.000252085
11 *2151:A1 *2155:B1 5.16348e-05
12 *2151:A1 *2193:C 4.66108e-05
13 *2151:A1 *556:25 2.50702e-05
14 *2152:B2 *2152:A1 4.29151e-06
15 *2152:B2 *2155:A1 2.54268e-05
16 *2152:B2 *2156:A2 5.53549e-06
17 *2152:B2 *2195:A 0.000182112
18 *2152:B2 *2195:B 5.39961e-05
19 *2152:B2 *2471:D 0.000113269
20 *2152:B2 *2634:A 0
21 *2152:B2 *113:14 6.07575e-06
22 *2152:B2 *532:20 4.00541e-06
23 *2152:B2 *558:8 1.08758e-05
24 *2152:B2 *733:21 7.1009e-05
25 *2152:B2 *733:32 0.000316192
26 *2152:B2 *802:31 0.000169683
27 *2192:A *2470:CLK 4.00541e-06
28 *2274:B2 *2274:A1 1.87449e-05
29 *2274:B2 *2274:C1 2.42057e-05
30 *2274:B2 *2275:B1 7.61366e-05
31 *2274:B2 *818:50 3.64998e-06
32 *112:10 *2275:B1 0.000123225
33 *112:10 *2604:A 4.54719e-05
34 *112:10 *818:50 0.000119105
35 *112:10 *821:44 0
36 *112:10 *845:42 1.91597e-05
37 *112:16 *2604:A 0.000139933
38 *112:16 *821:44 0
39 *112:52 *2191:B 2.8585e-06
40 *112:52 *2470:CLK 6.88676e-05
41 *112:52 *556:25 3.07153e-05
42 *2153:A1 *2151:A1 0.000155227
*RES
1 *2470:Q *112:4 1.6 
2 *112:4 *112:10 6.515 
3 *112:10 *112:16 4.43 
4 *112:16 *2152:B2 17.175 
5 *112:16 *2191:A 1.6 
6 *112:10 *112:52 5.9 
7 *112:52 *2151:A1 8.63 
8 *112:52 *2192:A 2.47 
9 *112:4 *2274:B2 2.75875 
*END

*D_NET *113 0.00378061
*CONN
*I *2276:B2 I *D sky130_fd_sc_hd__a221o_1
*I *2152:A1 I *D sky130_fd_sc_hd__o22a_1
*I *2194:A I *D sky130_fd_sc_hd__xnor2_1
*I *2155:A1 I *D sky130_fd_sc_hd__a221o_1
*I *2471:Q O *D sky130_fd_sc_hd__dfrtp_1
*CAP
1 *2276:B2 5.5484e-05
2 *2152:A1 4.52479e-05
3 *2194:A 0.000110066
4 *2155:A1 0.000198963
5 *2471:Q 0.000212733
6 *113:14 0.000346718
7 *113:12 0.00044191
8 *113:6 0.00062719
9 *2152:A1 *2471:D 4.66108e-05
10 *2155:A1 *2152:B1 2.49909e-05
11 *2155:A1 *2155:A2 1.37395e-05
12 *2155:A1 *2155:B2 0
13 *2155:A1 *2156:B1 0.00018955
14 *2155:A1 *2278:B2 0
15 *2155:A1 *380:8 2.81679e-05
16 *2155:A1 *532:20 3.63489e-05
17 *2194:A *2156:A1 4.41506e-05
18 *2194:A *2156:A2 8.53113e-06
19 *2194:A *2194:B 3.09164e-05
20 *2194:A *2195:A 4.20291e-05
21 *2194:A *2195:B 0.000103333
22 *2194:A *2634:A 2.13396e-05
23 *2194:A *802:31 3.32209e-05
24 *2276:B2 *2505:D 6.03947e-06
25 *2276:B2 *717:335 7.36136e-05
26 *2276:B2 *818:31 0.000139262
27 *2276:B2 *818:42 9.50342e-06
28 *113:6 *2277:A2 0.000257157
29 *113:12 *2156:B1 0.000122331
30 *113:12 *2277:A2 0.000181005
31 *113:12 *2471:CLK 0.00012032
32 *113:12 *2471:D 4.42693e-05
33 *113:14 *2156:B1 0.000118081
34 *113:14 *2471:D 1.19928e-05
35 *2152:B2 *2152:A1 4.29151e-06
36 *2152:B2 *2155:A1 2.54268e-05
37 *2152:B2 *113:14 6.07575e-06
*RES
1 *2471:Q *113:6 4.465 
2 *113:6 *113:12 5.745 
3 *113:12 *113:14 1.14 
4 *113:14 *2155:A1 5.44 
5 *113:14 *2194:A 8.285 
6 *113:12 *2152:A1 2.665 
7 *113:6 *2276:B2 7.34375 
*END

*D_NET *114 0.000660948
*CONN
*I *2155:C1 I *D sky130_fd_sc_hd__a221o_1
*I *2278:B2 I *D sky130_fd_sc_hd__a221o_1
*I *2472:Q O *D sky130_fd_sc_hd__dfrtp_1
*CAP
1 *2155:C1 0
2 *2278:B2 0.000195679
3 *2472:Q 5.03754e-05
4 *114:8 0.000246055
5 *2278:B2 *2155:B2 2.583e-05
6 *2278:B2 *2278:C1 1.12643e-05
7 *2278:B2 *372:10 5.4857e-05
8 *2278:B2 *380:8 3.76406e-06
9 *2278:B2 *842:62 0
10 *114:8 *2155:B2 5.96644e-05
11 *114:8 *380:8 1.34594e-05
12 *2155:A1 *2278:B2 0
*RES
1 *2472:Q *114:8 2.755 
2 *114:8 *2278:B2 8.49875 
3 *114:8 *2155:C1 1.6 
*END

*D_NET *115 0.00888163
*CONN
*I *2250:B2 I *D sky130_fd_sc_hd__a221o_1
*I *2135:A1 I *D sky130_fd_sc_hd__a221o_1
*I *2161:B I *D sky130_fd_sc_hd__and3_1
*I *2162:A2 I *D sky130_fd_sc_hd__a21o_1
*I *2136:A I *D sky130_fd_sc_hd__or2_1
*I *2158:B I *D sky130_fd_sc_hd__or2_1
*I *2159:B I *D sky130_fd_sc_hd__nand2_1
*I *2458:Q O *D sky130_fd_sc_hd__dfrtp_2
*CAP
1 *2250:B2 0.000344458
2 *2135:A1 2.08101e-05
3 *2161:B 0
4 *2162:A2 0.000140397
5 *2136:A 0
6 *2158:B 0
7 *2159:B 7.13653e-05
8 *2458:Q 0.000597338
9 *115:79 0.000961057
10 *115:51 0.000528542
11 *115:36 0.000409053
12 *115:20 0.000502536
13 *115:12 0.000492832
14 *115:6 0.00123388
15 *2135:A1 *2135:B1 0
16 *2135:A1 *2573:A 0
17 *2159:B *2157:A 2.57174e-05
18 *2159:B *2160:C 2.30292e-05
19 *2162:A2 *2161:C 6.37488e-06
20 *2162:A2 *2163:A_N 4.82919e-05
21 *2162:A2 *116:50 0
22 *2162:A2 *539:23 7.70304e-06
23 *2250:B2 *2039:A 5.75434e-05
24 *2250:B2 *2039:B 0.000151063
25 *2250:B2 *2135:A2 1.2818e-05
26 *2250:B2 *2135:B1 5.56285e-05
27 *2250:B2 *2138:A1 0.000284969
28 *2250:B2 *430:12 9.47454e-05
29 *2250:B2 *431:14 0.000489681
30 *2250:B2 *434:45 4.91396e-05
31 *2250:B2 *717:81 9.82856e-06
32 *2250:B2 *717:83 0.000118081
33 *115:6 *2458:CLK 2.75229e-05
34 *115:6 *2458:D 1.4389e-05
35 *115:6 *718:16 0.000101476
36 *115:12 *2458:CLK 0.000139933
37 *115:20 *2136:B 0
38 *115:20 *2138:A2 4.66108e-05
39 *115:20 *2160:B 0.000232105
40 *115:36 *2138:A2 4.66108e-05
41 *115:51 *2138:A2 4.66108e-05
42 *115:51 *2161:C 4.05674e-06
43 *115:51 *2458:CLK 0.000180398
44 *115:51 *395:12 0
45 *115:51 *395:32 0
46 *115:51 *539:23 5.062e-06
47 *115:51 *725:21 0.000113909
48 *115:79 *2135:B1 2.75145e-05
49 *115:79 *2250:A1 4.9968e-05
50 *115:79 *2458:CLK 2.05056e-05
51 *115:79 *2573:A 0.00023876
52 *115:79 *404:33 2.78732e-05
53 *115:79 *717:83 0.000167266
54 *2135:C1 *115:79 7.04155e-05
55 *2159:A *2159:B 4.99619e-05
56 *2159:A *115:20 4.60584e-05
57 *2161:A *115:51 5.05437e-05
58 *2162:A1 *2162:A2 7.63883e-05
59 *2249:A1 *115:51 5.74791e-05
60 *108:25 *115:12 0.000116853
61 *108:29 *115:20 5.80958e-05
62 *108:38 *115:20 5.30691e-05
63 *108:40 *115:20 4.60584e-05
64 *108:67 *2162:A2 0
65 *108:67 *115:12 2.92496e-05
*RES
1 *2458:Q *115:6 8.605 
2 *115:6 *115:12 5.635 
3 *115:12 *115:20 6.36 
4 *115:20 *2159:B 3.1 
5 *115:20 *2158:B 1.6 
6 *115:12 *115:36 0.45 
7 *115:36 *2136:A 1.6 
8 *115:36 *115:51 10.39 
9 *115:51 *2162:A2 7.61 
10 *115:51 *2161:B 1.6 
11 *115:6 *115:79 12.415 
12 *115:79 *2135:A1 1.96 
13 *115:79 *2250:B2 15.545 
*END

*D_NET *116 0.00611589
*CONN
*I *2252:B2 I *D sky130_fd_sc_hd__a221o_1
*I *2137:B1 I *D sky130_fd_sc_hd__a21o_1
*I *2134:A1 I *D sky130_fd_sc_hd__a32o_1
*I *2161:C I *D sky130_fd_sc_hd__and3_1
*I *2162:B1 I *D sky130_fd_sc_hd__a21o_1
*I *2459:Q O *D sky130_fd_sc_hd__dfrtp_1
*CAP
1 *2252:B2 0.000158853
2 *2137:B1 0.000442968
3 *2134:A1 5.92714e-05
4 *2161:C 4.8438e-05
5 *2162:B1 0.000219951
6 *2459:Q 0
7 *116:50 0.0010824
8 *116:42 0.000875857
9 *116:27 0.000214676
10 *116:4 0.00024934
11 *2134:A1 *717:98 9.22308e-05
12 *2137:B1 *2138:A2 0.000107825
13 *2137:B1 *2589:A 0.000104892
14 *2137:B1 *409:10 8.72789e-05
15 *2137:B1 *430:16 0.000116158
16 *2137:B1 *434:45 4.40812e-05
17 *2161:C *539:23 8.77771e-05
18 *2162:B1 *2163:A_N 4.35456e-05
19 *2162:B1 *2459:RESET_B 5.05521e-05
20 *2162:B1 *846:34 3.86607e-05
21 *2252:B2 *2249:A3 4.13171e-05
22 *2252:B2 *2492:RESET_B 6.57705e-05
23 *2252:B2 *262:10 2.48591e-05
24 *2252:B2 *725:32 7.23602e-05
25 *2252:B2 *725:45 0.000182349
26 *2252:B2 *828:79 9.23395e-05
27 *116:27 *2459:RESET_B 2.75145e-05
28 *116:42 *2459:RESET_B 5.83121e-06
29 *116:42 *2492:RESET_B 0.000107415
30 *116:50 *2138:A2 0.000646704
31 *116:50 *2458:CLK 0.000140248
32 *116:50 *725:21 0.000172735
33 *116:50 *725:32 0.000109009
34 *116:50 *846:34 0
35 *2162:A2 *2161:C 6.37488e-06
36 *2162:A2 *116:50 0
37 *108:67 *116:50 0.000292258
38 *115:51 *2161:C 4.05674e-06
*RES
1 *2459:Q *116:4 1.6 
2 *116:4 *2162:B1 9.23 
3 *116:4 *116:27 0.45 
4 *116:27 *2161:C 6.89 
5 *116:27 *116:42 1.83 
6 *116:42 *116:50 14.92 
7 *116:50 *2134:A1 6.725 
8 *116:50 *2137:B1 11.915 
9 *116:42 *2252:B2 9.545 
*END

*D_NET *117 0.00687506
*CONN
*I *2164:A I *D sky130_fd_sc_hd__and2_1
*I *2165:A I *D sky130_fd_sc_hd__or2_1
*I *2139:A1 I *D sky130_fd_sc_hd__o22a_1
*I *2134:B2 I *D sky130_fd_sc_hd__a32o_1
*I *2254:B2 I *D sky130_fd_sc_hd__a221o_1
*I *2170:A1 I *D sky130_fd_sc_hd__a31o_1
*I *2460:Q O *D sky130_fd_sc_hd__dfrtp_1
*CAP
1 *2164:A 0.000107561
2 *2165:A 2.89988e-05
3 *2139:A1 0.000168439
4 *2134:B2 0.000260543
5 *2254:B2 2.07154e-05
6 *2170:A1 7.23092e-05
7 *2460:Q 0
8 *117:68 0.000201175
9 *117:44 0.00094347
10 *117:23 0.000881358
11 *117:10 0.000521907
12 *117:6 0.000168059
13 *2134:B2 *913:DIODE 0
14 *2134:B2 *2249:B1 0.000160831
15 *2134:B2 *2250:A1 0
16 *2134:B2 *395:12 6.9221e-05
17 *2134:B2 *717:98 0
18 *2139:A1 *2141:A2 0.000372475
19 *2139:A1 *2249:B1 7.49327e-05
20 *2139:A1 *395:12 9.24211e-05
21 *2139:A1 *434:37 0
22 *2164:A *2171:B 3.60648e-06
23 *2164:A *539:36 8.53113e-06
24 *2164:A *850:69 9.26907e-06
25 *2165:A *2164:B 4.66108e-05
26 *2170:A1 *2170:A2 3.64998e-06
27 *2170:A1 *2170:B1 1.17309e-05
28 *2254:B2 *2254:A2 4.87465e-06
29 *2254:B2 *2673:A 1.18246e-05
30 *117:10 *2166:A_N 0
31 *117:10 *2166:B 7.23602e-05
32 *117:10 *539:23 5.4003e-05
33 *117:10 *539:36 0.000129047
34 *117:10 *725:84 0
35 *117:23 *2170:A2 6.27438e-05
36 *117:23 *2170:B1 3.43327e-05
37 *117:23 *2254:A1 8.52883e-05
38 *117:23 *2254:A2 1.43191e-05
39 *117:23 *2254:B1 4.66108e-05
40 *117:23 *2673:A 9.31412e-06
41 *117:44 *2141:A2 0.000291365
42 *117:44 *2249:B1 1.0129e-05
43 *117:44 *2253:A1 0.000195658
44 *117:44 *2673:A 1.53053e-05
45 *117:44 *118:61 0.000486988
46 *117:44 *819:68 0.000750815
47 *117:68 *2166:B 0.000170953
48 *117:68 *539:36 0.000201312
49 *117:68 *850:69 0
*RES
1 *2460:Q *117:6 3.6 
2 *117:6 *117:10 4.145 
3 *117:10 *2170:A1 2.665 
4 *117:10 *117:23 4.605 
5 *117:23 *2254:B2 2.06875 
6 *117:23 *117:44 17.995 
7 *117:44 *2134:B2 9.74 
8 *117:44 *2139:A1 5.86 
9 *117:6 *117:68 2.4 
10 *117:68 *2165:A 4.05 
11 *117:68 *2164:A 4.86 
*END

*D_NET *118 0.00870604
*CONN
*I *2256:B2 I *D sky130_fd_sc_hd__a221o_1
*I *2686:A I *D sky130_fd_sc_hd__dlygate4sd3_1
*I *2140:B2 I *D sky130_fd_sc_hd__a2bb2o_1
*I *2139:B2 I *D sky130_fd_sc_hd__o22a_1
*I *2169:B I *D sky130_fd_sc_hd__and3_1
*I *2167:A1 I *D sky130_fd_sc_hd__o21ai_1
*I *2170:A2 I *D sky130_fd_sc_hd__a31o_1
*I *2461:Q O *D sky130_fd_sc_hd__dfrtp_2
*CAP
1 *2256:B2 7.2322e-05
2 *2686:A 4.13562e-05
3 *2140:B2 0
4 *2139:B2 0.000423928
5 *2169:B 0
6 *2167:A1 0.000206019
7 *2170:A2 0.000205393
8 *2461:Q 0.00013852
9 *118:61 0.00123216
10 *118:40 0.00104624
11 *118:25 0.000444032
12 *118:12 0.000269679
13 *118:10 0.000180742
14 *118:6 0.000285942
15 *2139:B2 *2002:B 3.48476e-05
16 *2139:B2 *2140:A2_N 1.46744e-05
17 *2139:B2 *2140:B1 0.000338043
18 *2139:B2 *2143:B1 4.01778e-05
19 *2139:B2 *434:37 8.41015e-06
20 *2139:B2 *832:100 0.000194174
21 *2139:B2 *847:54 9.04308e-05
22 *2167:A1 *2169:C 0.000387891
23 *2167:A1 *2171:B 4.66108e-05
24 *2167:A1 *541:8 4.88721e-05
25 *2167:A1 *541:21 5.58436e-05
26 *2170:A2 *2170:B1 0.00015896
27 *2170:A2 *2171:B 0.000330359
28 *2170:A2 *539:36 1.53032e-05
29 *2170:A2 *841:65 0.000372498
30 *2256:B2 *2256:C1 4.46376e-05
31 *2256:B2 *841:65 0.000118216
32 *2686:A *2495:D 3.45588e-05
33 *118:10 *841:65 0.000137571
34 *118:10 *850:69 0
35 *118:12 *2171:B 2.07184e-05
36 *118:12 *841:65 0.000137571
37 *118:12 *850:69 0
38 *118:40 *2169:C 8.49503e-05
39 *118:40 *2171:A_N 4.89295e-05
40 *118:40 *2171:B 0.000121023
41 *118:40 *544:21 8.52845e-05
42 *118:61 *1974:A 4.48925e-05
43 *118:61 *2140:A2_N 4.82919e-05
44 *118:61 *2141:A1 2.15594e-05
45 *118:61 *2141:A2 8.53113e-06
46 *118:61 *2174:A 0.000115232
47 *118:61 *2174:B 6.18286e-05
48 *118:61 *2463:CLK 9.50342e-06
49 *118:61 *119:27 0
50 *118:61 *365:12 0.000266605
51 *118:61 *544:21 3.57349e-05
52 *118:61 *791:47 0
53 *118:61 *819:43 5.83121e-06
54 *118:61 *819:68 1.07797e-05
55 *118:61 *822:77 6.97528e-06
56 *118:61 *850:44 0
57 *2170:A1 *2170:A2 3.64998e-06
58 *117:23 *2170:A2 6.27438e-05
59 *117:44 *118:61 0.000486988
*RES
1 *2461:Q *118:6 3.085 
2 *118:6 *118:10 3.635 
3 *118:10 *118:12 1.635 
4 *118:12 *2170:A2 9.525 
5 *118:12 *118:25 2 
6 *118:25 *2167:A1 6.115 
7 *118:25 *118:40 4.02 
8 *118:40 *2169:B 1.6 
9 *118:40 *118:61 19.39 
10 *118:61 *2139:B2 13.535 
11 *118:61 *2140:B2 1.6 
12 *118:10 *2686:A 4.395 
13 *118:6 *2256:B2 3.56875 
*END

*D_NET *119 0.00428452
*CONN
*I *1974:A I *D sky130_fd_sc_hd__inv_2
*I *2258:B2 I *D sky130_fd_sc_hd__a221o_1
*I *2169:A I *D sky130_fd_sc_hd__and3_1
*I *2170:B1 I *D sky130_fd_sc_hd__a31o_1
*I *2462:Q O *D sky130_fd_sc_hd__dfrtp_1
*CAP
1 *1974:A 0.000183287
2 *2258:B2 0.000288106
3 *2169:A 0
4 *2170:B1 0.000384875
5 *2462:Q 5.33738e-05
6 *119:27 0.000405393
7 *119:12 0.000644247
8 *119:6 0.000378747
9 *1974:A *819:68 0.000151346
10 *1974:A *822:77 0
11 *1974:A *847:54 4.66108e-05
12 *2170:B1 *2166:B 4.99619e-05
13 *2170:B1 *2254:A1 1.23017e-05
14 *2170:B1 *2254:A2 4.42124e-05
15 *2170:B1 *2255:B1 8.64421e-05
16 *2170:B1 *2673:A 0.000159156
17 *2170:B1 *819:68 4.01811e-05
18 *2170:B1 *822:77 9.37731e-05
19 *2258:B2 *2255:A1 6.11019e-05
20 *2258:B2 *2257:B1 6.55328e-05
21 *2258:B2 *2258:B1 1.24708e-05
22 *2258:B2 *2258:C1 2.06767e-05
23 *2258:B2 *2259:B1 0
24 *2258:B2 *2260:C1 4.81835e-05
25 *2258:B2 *2495:RESET_B 5.83121e-06
26 *2258:B2 *224:12 1.91597e-05
27 *2258:B2 *544:21 0.00015829
28 *2258:B2 *819:80 5.26391e-05
29 *2258:B2 *819:95 0.000134379
30 *2258:B2 *822:77 0.000156593
31 *2258:B2 *841:55 2.62749e-05
32 *119:6 *791:47 5.05521e-05
33 *119:12 *791:47 7.08493e-05
34 *119:27 *2174:A 0
35 *119:27 *819:80 0.000100279
36 *119:27 *822:77 2.97802e-05
37 *2170:A1 *2170:B1 1.17309e-05
38 *2170:A2 *2170:B1 0.00015896
39 *117:23 *2170:B1 3.43327e-05
40 *118:61 *1974:A 4.48925e-05
41 *118:61 *119:27 0
*RES
1 *2462:Q *119:6 2.395 
2 *119:6 *119:12 3.935 
3 *119:12 *2170:B1 11.4 
4 *119:12 *119:27 2.4 
5 *119:27 *2169:A 3.6 
6 *119:27 *2258:B2 11.2388 
7 *119:6 *1974:A 9.47 
*END

*D_NET *120 0.00591222
*CONN
*I *2178:A2 I *D sky130_fd_sc_hd__a31o_1
*I *2173:A1 I *D sky130_fd_sc_hd__o21ai_1
*I *2260:B2 I *D sky130_fd_sc_hd__a221o_1
*I *2172:A I *D sky130_fd_sc_hd__and2_1
*I *2144:A1 I *D sky130_fd_sc_hd__a32o_1
*I *2142:B1 I *D sky130_fd_sc_hd__a21oi_1
*I *2463:Q O *D sky130_fd_sc_hd__dfrtp_1
*CAP
1 *2178:A2 0.000168117
2 *2173:A1 1.65992e-05
3 *2260:B2 0.000175605
4 *2172:A 0.000102733
5 *2144:A1 0.000113301
6 *2142:B1 8.90458e-05
7 *2463:Q 0.000123338
8 *120:46 0.000367016
9 *120:40 0.000295015
10 *120:14 0.000638632
11 *120:8 0.000626023
12 *120:6 0.000291455
13 *2142:B1 *2142:A2 1.08758e-05
14 *2144:A1 *2142:A1 0.00020779
15 *2144:A1 *2142:A2 0.000152814
16 *2144:A1 *121:16 1.65192e-05
17 *2144:A1 *425:50 5.33085e-05
18 *2144:A1 *847:54 0
19 *2172:A *2173:B1 1.43623e-05
20 *2172:A *2177:C 4.66108e-05
21 *2173:A1 *2173:B1 3.21081e-06
22 *2178:A2 *2178:A1 0.000209815
23 *2178:A2 *2178:A3 0.000133243
24 *2178:A2 *2179:B 8.53113e-06
25 *2178:A2 *2463:RESET_B 4.80285e-05
26 *2178:A2 *121:45 5.16418e-05
27 *2178:A2 *121:65 9.50342e-06
28 *2178:A2 *549:31 2.30292e-05
29 *2260:B2 *2260:C1 3.26889e-05
30 *2260:B2 *822:34 0.000198939
31 *2260:B2 *828:40 7.24949e-05
32 *2260:B2 *836:24 0.000149741
33 *2260:B2 *841:34 7.49327e-05
34 *2260:B2 *841:40 0.000141547
35 *120:6 *2176:A1 4.82919e-05
36 *120:6 *2463:RESET_B 5.8825e-05
37 *120:14 *2142:A2 3.57349e-05
38 *120:14 *2463:RESET_B 5.2089e-05
39 *120:14 *121:45 3.85884e-05
40 *120:14 *122:12 3.09233e-05
41 *120:14 *122:36 0.000429836
42 *120:40 *2177:A 5.83121e-06
43 *120:40 *2177:B 2.49909e-05
44 *120:40 *2177:C 6.43935e-05
45 *120:40 *2463:RESET_B 2.86623e-05
46 *120:40 *121:65 6.06655e-05
47 *120:40 *122:36 0.000168116
48 *120:40 *122:47 2.49909e-05
49 *120:40 *127:10 2.42236e-05
50 *120:46 *2174:B 7.00889e-06
51 *120:46 *2177:C 6.35271e-05
52 *120:46 *546:14 4.10092e-05
53 *120:46 *836:24 3.80022e-05
*RES
1 *2463:Q *120:6 3.085 
2 *120:6 *120:8 2 
3 *120:8 *120:14 10.415 
4 *120:14 *2142:B1 2.74 
5 *120:14 *2144:A1 8.87 
6 *120:8 *120:40 6.485 
7 *120:40 *120:46 3.665 
8 *120:46 *2172:A 5.01 
9 *120:46 *2260:B2 9.31875 
10 *120:40 *2173:A1 1.96 
11 *120:6 *2178:A2 9.185 
*END

*D_NET *121 0.00499594
*CONN
*I *2262:B2 I *D sky130_fd_sc_hd__a221o_1
*I *2177:A I *D sky130_fd_sc_hd__and3_1
*I *2683:A I *D sky130_fd_sc_hd__dlygate4sd3_1
*I *2178:A1 I *D sky130_fd_sc_hd__a31o_1
*I *2175:A1 I *D sky130_fd_sc_hd__o21ai_1
*I *2144:B2 I *D sky130_fd_sc_hd__a32o_1
*I *2146:A1 I *D sky130_fd_sc_hd__o221a_1
*I *2464:Q O *D sky130_fd_sc_hd__dfrtp_2
*CAP
1 *2262:B2 0.000173438
2 *2177:A 7.0553e-05
3 *2683:A 0
4 *2178:A1 0.000136435
5 *2175:A1 3.37585e-05
6 *2144:B2 0
7 *2146:A1 0.000205921
8 *2464:Q 3.05188e-05
9 *121:65 0.000392193
10 *121:47 0.000136435
11 *121:45 0.000235355
12 *121:16 0.000359528
13 *121:12 0.000561911
14 *121:6 0.000492217
15 *2146:A1 *2144:A3 0
16 *2146:A1 *2146:C1 0.000143991
17 *2146:A1 *2147:A1 7.89594e-05
18 *2146:A1 *122:12 4.92062e-05
19 *2146:A1 *379:40 0.000122331
20 *2177:A *122:47 3.54025e-05
21 *2178:A1 *2178:A3 1.91597e-05
22 *2178:A1 *549:31 1.61831e-05
23 *2262:B2 *2262:C1 0.00011398
24 *2262:B2 *127:10 0
25 *2262:B2 *819:143 0
26 *2262:B2 *828:30 0.000183036
27 *2262:B2 *828:32 2.49708e-05
28 *2262:B2 *841:28 2.42236e-05
29 *2262:B2 *841:34 2.49708e-05
30 *121:6 *850:14 1.4399e-05
31 *121:12 *2175:A2 3.86529e-05
32 *121:12 *2464:RESET_B 1.53577e-05
33 *121:12 *546:14 4.43871e-06
34 *121:12 *791:33 0
35 *121:12 *836:24 0.000139933
36 *121:12 *850:14 1.03323e-05
37 *121:16 *2142:A2 8.97486e-05
38 *121:16 *425:50 2.97561e-05
39 *121:16 *836:24 0.00036162
40 *121:45 *2179:B 9.68787e-05
41 *121:45 *2463:RESET_B 0.000137578
42 *121:65 *127:10 0
43 *121:65 *819:143 0
44 *2144:A1 *121:16 1.65192e-05
45 *2178:A2 *2178:A1 0.000209815
46 *2178:A2 *121:45 5.16418e-05
47 *2178:A2 *121:65 9.50342e-06
48 *120:14 *121:45 3.85884e-05
49 *120:40 *2177:A 5.83121e-06
50 *120:40 *121:65 6.06655e-05
*RES
1 *2464:Q *121:6 2.05 
2 *121:6 *121:12 6.845 
3 *121:12 *121:16 6.185 
4 *121:16 *2146:A1 5.875 
5 *121:16 *2144:B2 1.6 
6 *121:12 *2175:A1 4.05 
7 *121:6 *121:45 4.655 
8 *121:45 *121:47 2 
9 *121:47 *2178:A1 4.495 
10 *121:47 *2683:A 1.6 
11 *121:45 *121:65 2.655 
12 *121:65 *2177:A 4.74 
13 *121:65 *2262:B2 7.77 
*END

*D_NET *122 0.00600432
*CONN
*I *2264:B2 I *D sky130_fd_sc_hd__a221o_1
*I *2178:B1 I *D sky130_fd_sc_hd__a31o_1
*I *2177:B I *D sky130_fd_sc_hd__and3_1
*I *2147:A1 I *D sky130_fd_sc_hd__a22o_1
*I *2146:B2 I *D sky130_fd_sc_hd__o221a_1
*I *2465:Q O *D sky130_fd_sc_hd__dfrtp_1
*CAP
1 *2264:B2 6.56525e-05
2 *2178:B1 0.000125393
3 *2177:B 3.98087e-05
4 *2147:A1 0.000325708
5 *2146:B2 0
6 *2465:Q 0
7 *122:47 0.000731447
8 *122:36 0.000737873
9 *122:12 0.000444317
10 *122:6 0.000276272
11 *2147:A1 *1984:A 8.40213e-05
12 *2147:A1 *2147:A2 0.000115146
13 *2147:A1 *2147:B2 6.30952e-05
14 *2147:A1 *2149:B1 0.000258213
15 *2147:A1 *2149:C1 0
16 *2147:A1 *375:10 8.65961e-05
17 *2147:A1 *457:45 4.82863e-05
18 *2178:B1 *2184:A1 5.83121e-06
19 *2178:B1 *2636:A 0.000112123
20 *2178:B1 *549:31 0.00023468
21 *2178:B1 *834:29 5.83373e-05
22 *2178:B1 *850:14 6.97118e-05
23 *2264:B2 *2636:A 0.000229897
24 *2264:B2 *828:30 1.12643e-05
25 *2264:B2 *834:29 0.000123751
26 *2264:B2 *841:28 1.12643e-05
27 *122:12 *2147:A2 8.1526e-05
28 *122:12 *127:10 0.000233231
29 *122:36 *127:10 0.000588449
30 *2146:A1 *2147:A1 7.89594e-05
31 *2146:A1 *122:12 4.92062e-05
32 *2177:A *122:47 3.54025e-05
33 *120:14 *122:12 3.09233e-05
34 *120:14 *122:36 0.000429836
35 *120:40 *2177:B 2.49909e-05
36 *120:40 *122:36 0.000168116
37 *120:40 *122:47 2.49909e-05
*RES
1 *2465:Q *122:6 3.6 
2 *122:6 *122:12 5.45 
3 *122:12 *2146:B2 1.6 
4 *122:12 *2147:A1 9.445 
5 *122:6 *122:36 8.99 
6 *122:36 *2177:B 2.05 
7 *122:36 *122:47 7.97 
8 *122:47 *2178:B1 7.155 
9 *122:47 *2264:B2 6.36375 
*END

*D_NET *123 0.00524637
*CONN
*I *2181:A1 I *D sky130_fd_sc_hd__o21ai_1
*I *2266:B2 I *D sky130_fd_sc_hd__a221o_1
*I *2186:A2 I *D sky130_fd_sc_hd__a31o_1
*I *2180:A I *D sky130_fd_sc_hd__and2_1
*I *2149:A1 I *D sky130_fd_sc_hd__o221a_1
*I *2147:B2 I *D sky130_fd_sc_hd__a22o_1
*I *2466:Q O *D sky130_fd_sc_hd__dfrtp_1
*CAP
1 *2181:A1 0.000338206
2 *2266:B2 0.000111414
3 *2186:A2 6.70142e-05
4 *2180:A 2.12988e-05
5 *2149:A1 0
6 *2147:B2 0.000381627
7 *2466:Q 6.43848e-05
8 *123:47 0.000271521
9 *123:36 0.000606496
10 *123:10 0.000465173
11 *123:8 0.000301829
12 *2147:B2 *2149:B1 1.12578e-05
13 *2147:B2 *2149:C1 0.000232018
14 *2147:B2 *376:58 9.3062e-06
15 *2147:B2 *457:24 2.92496e-05
16 *2147:B2 *457:45 0.000162311
17 *2147:B2 *727:32 4.88568e-05
18 *2147:B2 *834:29 2.15738e-05
19 *2180:A *2184:A1 4.99619e-05
20 *2180:A *2186:A3 0.000124895
21 *2180:A *551:44 4.35348e-05
22 *2181:A1 *2616:A 4.97278e-05
23 *2181:A1 *2636:A 0
24 *2181:A1 *126:33 6.16226e-06
25 *2181:A1 *834:29 0
26 *2266:B2 *2266:C1 2.49708e-05
27 *2266:B2 *2468:CLK 0
28 *2266:B2 *126:33 9.13742e-05
29 *2266:B2 *828:16 2.92496e-05
30 *2266:B2 *828:22 2.49708e-05
31 *123:8 *2466:RESET_B 1.91597e-05
32 *123:10 *727:32 0.000306058
33 *123:36 *2184:B1 5.92191e-05
34 *123:36 *126:33 0
35 *123:36 *727:32 0.000111378
36 *123:47 *126:33 4.43871e-06
37 *2147:A1 *2147:B2 6.30952e-05
38 *2185:A *123:8 4.82919e-05
39 *2186:A1 *2186:A2 4.99619e-05
40 *110:22 *2186:A2 2.0514e-05
41 *110:26 *2266:B2 2.95721e-05
42 *110:26 *123:36 0.000371232
43 *110:26 *123:47 0.000180416
44 *110:32 *2147:B2 5.16418e-05
45 *110:32 *123:10 0.000312083
46 *110:32 *123:36 3.09233e-05
*RES
1 *2466:Q *123:8 4.395 
2 *123:8 *123:10 3.675 
3 *123:10 *2147:B2 13.42 
4 *123:10 *2149:A1 3.6 
5 *123:8 *123:36 4.695 
6 *123:36 *2180:A 4.74 
7 *123:36 *123:47 2.145 
8 *123:47 *2186:A2 4.74 
9 *123:47 *2266:B2 5.985 
10 *123:36 *2181:A1 5.33663 
*END

*D_NET *124 0.00042049
*CONN
*I *2624:A I *D sky130_fd_sc_hd__clkbuf_2
*I *2521:Q O *D sky130_fd_sc_hd__dfrtp_1
*CAP
1 *2624:A 7.66631e-05
2 *2521:Q 7.66631e-05
3 *2624:A *2101:B 7.89611e-05
4 *2624:A *133:16 4.66108e-05
5 *2624:A *731:24 0.000141592
*RES
1 *2521:Q *2624:A 9.285 
*END

*D_NET *125 0.00131373
*CONN
*I *2622:A I *D sky130_fd_sc_hd__dlymetal6s2s_1
*I *2522:Q O *D sky130_fd_sc_hd__dfrtp_1
*CAP
1 *2622:A 0.000589282
2 *2522:Q 0.000589282
3 *2622:A *2522:D 4.9253e-06
4 *2622:A *2522:RESET_B 0.000120741
5 *2622:A *731:34 9.50342e-06
6 *2622:A *834:29 0
*RES
1 *2522:Q *2622:A 14.205 
*END

*D_NET *126 0.00647814
*CONN
*I *2620:A I *D sky130_fd_sc_hd__clkbuf_4
*I *1985:A1 I *D sky130_fd_sc_hd__a21bo_2
*I *2688:A I *D sky130_fd_sc_hd__dlygate4sd3_1
*I *2523:Q O *D sky130_fd_sc_hd__dfrtp_1
*CAP
1 *2620:A 1.33704e-05
2 *1985:A1 3.60995e-05
3 *2688:A 0.000631176
4 *2523:Q 0
5 *126:33 0.00156359
6 *126:4 0.0021453
7 *1985:A1 *2621:A 3.00381e-05
8 *1985:A1 *832:6 8.65905e-05
9 *1985:A1 *834:46 3.00381e-05
10 *2620:A *2621:A 4.60584e-05
11 *2620:A *832:6 8.65961e-05
12 *2688:A *2523:D 1.98869e-05
13 *2688:A *731:46 0.00011964
14 *2688:A *851:53 1.45231e-05
15 *126:33 *2147:A2 1.7396e-05
16 *126:33 *2184:A1 0
17 *126:33 *2184:B1 7.03934e-05
18 *126:33 *2265:A1 2.05583e-05
19 *126:33 *2265:A2 0.000266612
20 *126:33 *2267:B1 0
21 *126:33 *2292:A 0
22 *126:33 *2292:B 0.000121601
23 *126:33 *2465:CLK 0
24 *126:33 *2465:RESET_B 7.89767e-05
25 *126:33 *2467:CLK 0
26 *126:33 *2586:A 8.5242e-05
27 *126:33 *2616:A 0.00016307
28 *126:33 *2636:A 0
29 *126:33 *376:58 0
30 *126:33 *457:45 2.18187e-05
31 *126:33 *551:22 0
32 *126:33 *717:251 0.00020613
33 *126:33 *727:32 0
34 *126:33 *730:8 0
35 *126:33 *730:46 0.000134236
36 *126:33 *731:46 5.05437e-05
37 *126:33 *828:16 0.000269016
38 *126:33 *832:21 0
39 *126:33 *852:117 4.76647e-05
40 *2181:A1 *126:33 6.16226e-06
41 *2266:B2 *126:33 9.13742e-05
42 *123:36 *126:33 0
43 *123:47 *126:33 4.43871e-06
*RES
1 *2523:Q *126:4 1.6 
2 *126:4 *2688:A 9.22 
3 *126:4 *126:33 38.24 
4 *126:33 *1985:A1 2.755 
5 *126:33 *2620:A 2.395 
*END

*D_NET *127 0.00482255
*CONN
*I *2684:A I *D sky130_fd_sc_hd__dlygate4sd3_1
*I *2619:A I *D sky130_fd_sc_hd__clkbuf_2
*I *2618:A I *D sky130_fd_sc_hd__buf_2
*I *2524:Q O *D sky130_fd_sc_hd__dfrtp_1
*CAP
1 *2684:A 0.000168327
2 *2619:A 2.43335e-05
3 *2618:A 0.000142435
4 *2524:Q 3.38751e-05
5 *127:10 0.000940395
6 *127:8 0.000975829
7 *2618:A *379:14 0.000130821
8 *2618:A *379:40 9.0444e-05
9 *2618:A *412:18 3.96467e-05
10 *2618:A *830:108 6.36438e-07
11 *2618:A *836:62 0.000121508
12 *2619:A *351:6 4.47209e-05
13 *2619:A *831:8 0.00012411
14 *2619:A *836:62 4.66108e-05
15 *2684:A *2522:CLK 0
16 *2684:A *836:24 0
17 *127:8 *2635:A 4.82863e-05
18 *127:10 *2147:A2 6.5337e-06
19 *127:10 *2179:A_N 0.000194735
20 *127:10 *2261:A1 6.47594e-05
21 *127:10 *2261:B1 5.16418e-05
22 *127:10 *2262:C1 7.96996e-05
23 *127:10 *2522:CLK 0
24 *127:10 *379:40 8.28738e-05
25 *127:10 *422:47 0
26 *127:10 *452:24 2.77052e-05
27 *127:10 *549:8 4.94404e-05
28 *127:10 *730:52 0
29 *127:10 *836:24 0.000487279
30 *2262:B2 *127:10 0
31 *120:40 *127:10 2.42236e-05
32 *121:65 *127:10 0
33 *122:12 *127:10 0.000233231
34 *122:36 *127:10 0.000588449
*RES
1 *2524:Q *127:8 4.05 
2 *127:8 *127:10 21.525 
3 *127:10 *2618:A 6.705 
4 *127:10 *2619:A 4.74 
5 *127:8 *2684:A 6.255 
*END

*D_NET *128 0.00677764
*CONN
*I *2101:B I *D sky130_fd_sc_hd__nor2_1
*I *1964:A I *D sky130_fd_sc_hd__inv_2
*I *2300:B I *D sky130_fd_sc_hd__or4b_1
*I *2102:B I *D sky130_fd_sc_hd__or4_1
*I *2309:B I *D sky130_fd_sc_hd__and3b_1
*I *2477:Q O *D sky130_fd_sc_hd__dfrtp_1
*CAP
1 *2101:B 0.000112794
2 *1964:A 0
3 *2300:B 0
4 *2102:B 0.000118382
5 *2309:B 4.84559e-05
6 *2477:Q 0.000545913
7 *128:49 0.00088359
8 *128:26 0.000989039
9 *128:16 0.000273778
10 *128:10 0.000757111
11 *2101:B *2101:A 0
12 *2101:B *133:8 0
13 *2101:B *133:16 9.82856e-06
14 *2101:B *731:24 2.16389e-05
15 *2102:B *2300:A 7.14241e-05
16 *2102:B *717:255 8.23457e-05
17 *2102:B *717:257 4.77719e-05
18 *2102:B *717:275 7.01359e-05
19 *2309:B *2312:A2 8.53113e-06
20 *2309:B *133:16 4.66108e-05
21 *2309:B *497:18 4.01019e-05
22 *128:10 *2109:A 0
23 *128:10 *2200:A2 9.71067e-05
24 *128:10 *2200:A3 1.00941e-05
25 *128:10 *2200:B1 3.54686e-05
26 *128:10 *2477:RESET_B 0
27 *128:10 *2490:RESET_B 0.000163204
28 *128:10 *130:14 0
29 *128:10 *133:8 0
30 *128:10 *731:24 5.93674e-05
31 *128:10 *851:81 0
32 *128:16 *2521:D 0.000150653
33 *128:26 *2320:A1 0.000158072
34 *128:26 *2320:B1 4.99619e-05
35 *128:26 *2521:D 0.00019637
36 *128:26 *133:16 0.000325962
37 *128:26 *497:18 1.15399e-05
38 *128:26 *499:10 3.60648e-06
39 *128:26 *637:10 6.87369e-05
40 *128:49 *2306:A 0
41 *128:49 *2306:B 7.23602e-05
42 *128:49 *2306:C 0.000132914
43 *128:49 *2312:A2 9.30787e-05
44 *128:49 *2317:B1 2.34345e-05
45 *128:49 *2317:C1 2.97361e-05
46 *128:49 *2322:A2 6.56448e-06
47 *128:49 *497:18 3.20651e-05
48 *128:49 *499:10 0.000157757
49 *128:49 *499:20 0.000113511
50 *128:49 *717:255 0.000550568
51 *128:49 *836:24 2.90919e-05
52 *2624:A *2101:B 7.89611e-05
*RES
1 *2477:Q *128:10 12.585 
2 *128:10 *128:16 3.935 
3 *128:16 *128:26 7.6325 
4 *128:26 *2309:B 4.5375 
5 *128:26 *128:49 14.3075 
6 *128:49 *2102:B 7.61 
7 *128:49 *2300:B 1.6 
8 *128:16 *1964:A 1.6 
9 *128:10 *2101:B 6 
*END

*D_NET *129 0.00203857
*CONN
*I *2106:B I *D sky130_fd_sc_hd__or2_1
*I *2297:C I *D sky130_fd_sc_hd__and4bb_1
*I *2319:A_N I *D sky130_fd_sc_hd__and4bb_1
*I *2487:Q O *D sky130_fd_sc_hd__dfrtp_1
*CAP
1 *2106:B 6.20717e-05
2 *2297:C 0
3 *2319:A_N 0
4 *2487:Q 4.35468e-05
5 *129:25 0.000255466
6 *129:6 0.000236941
7 *2106:B *2319:B_N 0.000203178
8 *2106:B *2319:D 0.000196395
9 *2106:B *2490:RESET_B 2.16917e-05
10 *2106:B *130:16 4.21973e-05
11 *2106:B *494:18 3.66286e-05
12 *129:6 *2319:B_N 1.16578e-05
13 *129:6 *2490:RESET_B 0.0001249
14 *129:6 *615:71 8.73389e-06
15 *129:25 *2296:A 9.82856e-06
16 *129:25 *2297:D 3.0157e-06
17 *129:25 *2319:B_N 0.000385333
18 *129:25 *2319:D 0.00012657
19 *129:25 *2490:RESET_B 0.000270415
*RES
1 *2487:Q *129:6 2.74 
2 *129:6 *2319:A_N 1.6 
3 *129:6 *129:25 8.92 
4 *129:25 *2297:C 1.6 
5 *129:25 *2106:B 4.48 
*END

*D_NET *130 0.00157382
*CONN
*I *2106:A I *D sky130_fd_sc_hd__or2_1
*I *2319:D I *D sky130_fd_sc_hd__and4bb_1
*I *2297:B_N I *D sky130_fd_sc_hd__and4bb_1
*I *2488:Q O *D sky130_fd_sc_hd__dfrtp_1
*CAP
1 *2106:A 0
2 *2319:D 0.000100467
3 *2297:B_N 0
4 *2488:Q 0.00013143
5 *130:16 0.000172312
6 *130:14 0.000203275
7 *2319:D *2319:B_N 0.000104286
8 *2319:D *2320:A2 0.000239807
9 *2319:D *616:12 4.35432e-05
10 *130:14 *2200:A2 0
11 *130:14 *2200:B1 4.55864e-06
12 *130:14 *2490:RESET_B 5.74175e-05
13 *130:14 *494:18 0
14 *130:14 *495:12 7.66083e-05
15 *130:16 *2490:RESET_B 2.66586e-05
16 *130:16 *495:12 4.82919e-05
17 *2106:B *2319:D 0.000196395
18 *2106:B *130:16 4.21973e-05
19 *128:10 *130:14 0
20 *129:25 *2319:D 0.00012657
*RES
1 *2488:Q *130:14 8.39 
2 *130:14 *130:16 1.485 
3 *130:16 *2297:B_N 1.6 
4 *130:16 *2319:D 5.86 
5 *130:14 *2106:A 1.6 
*END

*D_NET *131 0.00308474
*CONN
*I *2110:A I *D sky130_fd_sc_hd__or4bb_2
*I *2296:A I *D sky130_fd_sc_hd__nor2_1
*I *2295:A I *D sky130_fd_sc_hd__and3_1
*I *2489:Q O *D sky130_fd_sc_hd__dfrtp_1
*CAP
1 *2110:A 0.000171022
2 *2296:A 0.000282157
3 *2295:A 2.08101e-05
4 *2489:Q 0.000180411
5 *131:15 0.000647542
6 *131:6 0.000395584
7 *2110:A *2110:D_N 1.53032e-05
8 *2110:A *2295:C 7.14699e-05
9 *2110:A *2305:C 4.66108e-05
10 *2110:A *2305:D 6.92232e-05
11 *2110:A *141:39 6.97256e-05
12 *2110:A *493:20 4.99619e-05
13 *2110:A *616:12 0.000236067
14 *2296:A *2296:B 1.82476e-05
15 *2296:A *2320:A2 0
16 *2296:A *2488:RESET_B 2.03578e-05
17 *2296:A *615:10 0.000353869
18 *2296:A *615:22 7.06865e-05
19 *2296:A *616:12 7.06865e-05
20 *131:6 *2107:A 3.23663e-05
21 *131:6 *2107:B 2.75145e-05
22 *131:15 *2107:B 4.30304e-05
23 *131:15 *2295:C 0.000182265
24 *129:25 *2296:A 9.82856e-06
*RES
1 *2489:Q *131:6 3.775 
2 *131:6 *2295:A 1.96 
3 *131:6 *131:15 2.52 
4 *131:15 *2296:A 11.51 
5 *131:15 *2110:A 9.755 
*END

*D_NET *132 0.000714711
*CONN
*I *2296:B I *D sky130_fd_sc_hd__nor2_1
*I *1965:A I *D sky130_fd_sc_hd__inv_2
*I *2490:Q O *D sky130_fd_sc_hd__dfrtp_1
*CAP
1 *2296:B 0.000114861
2 *1965:A 2.32174e-05
3 *2490:Q 8.79432e-05
4 *132:8 0.000226021
5 *1965:A *2488:D 2.92496e-05
6 *1965:A *141:22 0
7 *1965:A *615:10 2.78732e-05
8 *2296:B *2488:D 6.38291e-05
9 *2296:B *615:10 4.44919e-05
10 *132:8 *2488:CLK 3.23663e-05
11 *132:8 *2488:D 4.66108e-05
12 *2296:A *2296:B 1.82476e-05
*RES
1 *2490:Q *132:8 4.74 
2 *132:8 *1965:A 4.215 
3 *132:8 *2296:B 5.775 
*END

*D_NET *133 0.0072904
*CONN
*I *2101:A I *D sky130_fd_sc_hd__nor2_1
*I *2309:A_N I *D sky130_fd_sc_hd__and3b_1
*I *2102:A I *D sky130_fd_sc_hd__or4_1
*I *2300:A I *D sky130_fd_sc_hd__or4b_1
*I *2317:A1 I *D sky130_fd_sc_hd__a311o_1
*I *2478:Q O *D sky130_fd_sc_hd__dfrtp_1
*CAP
1 *2101:A 0.000173785
2 *2309:A_N 0
3 *2102:A 0.000100498
4 *2300:A 0.000166214
5 *2317:A1 0.000133036
6 *2478:Q 0.000341784
7 *133:39 0.00085315
8 *133:16 0.00113445
9 *133:8 0.000930546
10 *2101:A *851:53 0
11 *2102:A *2102:C 1.31227e-05
12 *2102:A *2321:A1 9.13949e-06
13 *2102:A *2321:A3 0
14 *2102:A *2584:A 3.68999e-05
15 *2300:A *917:DIODE 9.1483e-06
16 *2300:A *2102:D 0.000178007
17 *2300:A *2306:D_N 5.83121e-06
18 *2300:A *2314:B 3.17526e-05
19 *2300:A *135:32 6.23541e-06
20 *2300:A *717:255 7.20899e-05
21 *2300:A *717:257 8.52883e-05
22 *2300:A *717:275 5.63575e-05
23 *2300:A *729:23 1.31828e-05
24 *2317:A1 *2306:A 5.64226e-05
25 *2317:A1 *2309:C 0.000155928
26 *2317:A1 *2317:A2 2.75145e-05
27 *2317:A1 *2317:A3 4.82919e-05
28 *2317:A1 *2318:B2 4.82863e-05
29 *2317:A1 *627:10 3.09164e-05
30 *2317:A1 *634:12 1.12578e-05
31 *133:8 *731:18 6.28765e-05
32 *133:8 *851:53 0
33 *133:8 *851:60 0
34 *133:8 *851:74 0
35 *133:8 *851:81 0
36 *133:16 *2298:A2 4.82919e-05
37 *133:16 *2306:A 0.000112349
38 *133:16 *2317:A2 0.000232111
39 *133:16 *2320:A1 7.98925e-05
40 *133:16 *2521:D 0.000457696
41 *133:39 *917:DIODE 8.52845e-05
42 *133:39 *2298:A2 0.000120655
43 *133:39 *2298:B1 7.50953e-06
44 *133:39 *2306:A 0.000268739
45 *133:39 *2584:A 0.000159054
46 *133:39 *139:10 0
47 *133:39 *493:8 0.000159741
48 *133:39 *729:23 0.000266625
49 *2101:B *2101:A 0
50 *2101:B *133:8 0
51 *2101:B *133:16 9.82856e-06
52 *2102:B *2300:A 7.14241e-05
53 *2309:B *133:16 4.66108e-05
54 *2624:A *133:16 4.66108e-05
55 *128:10 *133:8 0
56 *128:26 *133:16 0.000325962
*RES
1 *2478:Q *133:8 9.4425 
2 *133:8 *133:16 12.1025 
3 *133:16 *2317:A1 8.885 
4 *133:16 *133:39 14.965 
5 *133:39 *2300:A 10.1 
6 *133:39 *2102:A 3.01 
7 *133:16 *2309:A_N 1.6 
8 *133:8 *2101:A 6.4125 
*END

*D_NET *134 0.00225138
*CONN
*I *2307:A I *D sky130_fd_sc_hd__nor2_1
*I *2300:D_N I *D sky130_fd_sc_hd__or4b_1
*I *2102:D I *D sky130_fd_sc_hd__or4_1
*I *2479:Q O *D sky130_fd_sc_hd__dfrtp_1
*CAP
1 *2307:A 8.72779e-05
2 *2300:D_N 0
3 *2102:D 9.46857e-05
4 *2479:Q 0.000214257
5 *134:14 0.000362339
6 *134:6 0.000569188
7 *2102:D *2598:A 0.000106629
8 *2102:D *729:23 1.67072e-05
9 *2307:A *2307:B 1.75875e-05
10 *2307:A *2635:A 6.05851e-05
11 *134:6 *2479:RESET_B 0.000162311
12 *134:6 *2635:A 5.09627e-05
13 *134:14 *2307:B 0
14 *134:14 *2314:B 0.000158886
15 *134:14 *2583:A 8.51862e-05
16 *134:14 *2598:A 7.36484e-05
17 *134:14 *135:10 0
18 *134:14 *135:21 0
19 *134:14 *717:257 1.31227e-05
20 *2300:A *2102:D 0.000178007
*RES
1 *2479:Q *134:6 5.5 
2 *134:6 *134:14 9.16 
3 *134:14 *2102:D 8.255 
4 *134:14 *2300:D_N 1.6 
5 *134:6 *2307:A 3.445 
*END

*D_NET *135 0.00310908
*CONN
*I *2321:A1 I *D sky130_fd_sc_hd__a311o_1
*I *2102:C I *D sky130_fd_sc_hd__or4_1
*I *2300:C I *D sky130_fd_sc_hd__or4b_1
*I *2308:A_N I *D sky130_fd_sc_hd__and2b_1
*I *2480:Q O *D sky130_fd_sc_hd__dfrtp_1
*CAP
1 *2321:A1 0.000143795
2 *2102:C 5.3122e-05
3 *2300:C 0
4 *2308:A_N 7.49927e-05
5 *2480:Q 0.000498053
6 *135:32 0.000267324
7 *135:21 0.000137596
8 *135:10 0.000640235
9 *2102:C *2584:A 6.69608e-06
10 *2308:A_N *632:6 9.02259e-05
11 *2321:A1 *2301:A1 0.000136962
12 *2321:A1 *2307:B 1.93834e-05
13 *2321:A1 *2321:A2 8.7152e-06
14 *2321:A1 *2321:A3 2.34891e-05
15 *2321:A1 *2322:A3 2.75229e-05
16 *2321:A1 *630:16 0.000142518
17 *2321:A1 *637:10 1.00941e-05
18 *135:10 *2307:B 2.86623e-05
19 *135:10 *2324:A_N 5.05437e-05
20 *135:10 *2324:C 7.15588e-05
21 *135:10 *2324:D 3.55992e-06
22 *135:10 *2325:A3 1.5536e-05
23 *135:10 *2598:A 3.51072e-05
24 *135:21 *2307:B 1.15688e-05
25 *135:21 *2314:A 0.000115464
26 *135:21 *2314:B 0.000112403
27 *135:21 *623:18 4.61595e-05
28 *135:32 *623:18 0.000177727
29 *135:32 *717:275 0.000131571
30 *2102:A *2102:C 1.31227e-05
31 *2102:A *2321:A1 9.13949e-06
32 *2300:A *135:32 6.23541e-06
33 *134:14 *135:10 0
34 *134:14 *135:21 0
*RES
1 *2480:Q *135:10 9.84 
2 *135:10 *2308:A_N 5.085 
3 *135:10 *135:21 2.145 
4 *135:21 *2300:C 3.6 
5 *135:21 *135:32 4.145 
6 *135:32 *2102:C 2.395 
7 *135:32 *2321:A1 8.7778 
*END

*D_NET *136 0.00448496
*CONN
*I *2103:B I *D sky130_fd_sc_hd__or4_1
*I *2311:D I *D sky130_fd_sc_hd__and4bb_1
*I *2303:B I *D sky130_fd_sc_hd__or4b_1
*I *2313:A I *D sky130_fd_sc_hd__or4bb_1
*I *2324:B_N I *D sky130_fd_sc_hd__and4bb_1
*I *2481:Q O *D sky130_fd_sc_hd__dfrtp_1
*CAP
1 *2103:B 0.000228928
2 *2311:D 0
3 *2303:B 0.000128297
4 *2313:A 9.01122e-05
5 *2324:B_N 0
6 *2481:Q 0.000600561
7 *136:34 0.000180079
8 *136:30 0.000374274
9 *136:19 0.000261818
10 *136:10 0.000678702
11 *2103:B *2103:A 8.89666e-05
12 *2103:B *139:10 5.16418e-05
13 *2103:B *139:12 0.000155928
14 *2103:B *139:34 4.34042e-05
15 *2103:B *621:8 0.000160314
16 *2303:B *2103:A 0.000132977
17 *2303:B *2303:A 0.000168942
18 *2303:B *2303:C 6.3889e-05
19 *2303:B *2311:C 4.99619e-05
20 *2303:B *139:18 0.000104276
21 *2313:A *2313:B 2.8185e-05
22 *2313:A *2313:C_N 0.000163199
23 *2313:A *2314:B 6.13486e-05
24 *2313:A *728:10 8.40269e-05
25 *136:10 *2324:C 3.09233e-05
26 *136:10 *728:10 0
27 *136:10 *728:14 0
28 *136:10 *728:16 5.35969e-06
29 *136:10 *728:22 2.3706e-05
30 *136:10 *728:73 1.81592e-05
31 *136:19 *2324:C 0.000127373
32 *136:30 *2103:A 2.43519e-05
33 *136:30 *2324:C 6.68849e-05
34 *136:30 *139:34 0.000111543
35 *136:34 *2103:A 8.18626e-05
36 *136:34 *2311:C 4.82863e-05
37 *136:34 *2584:A 2.49909e-05
38 *136:34 *139:18 2.16917e-05
*RES
1 *2481:Q *136:10 11.085 
2 *136:10 *2324:B_N 3.6 
3 *136:10 *136:19 1.635 
4 *136:19 *2313:A 6.12 
5 *136:19 *136:30 2.145 
6 *136:30 *136:34 3.485 
7 *136:34 *2303:B 5.77 
8 *136:34 *2311:D 1.6 
9 *136:30 *2103:B 7.995 
*END

*D_NET *137 0.00464221
*CONN
*I *2311:A_N I *D sky130_fd_sc_hd__and4bb_1
*I *2103:A I *D sky130_fd_sc_hd__or4_1
*I *2303:A I *D sky130_fd_sc_hd__or4b_1
*I *2313:D_N I *D sky130_fd_sc_hd__or4bb_1
*I *2324:A_N I *D sky130_fd_sc_hd__and4bb_1
*I *2482:Q O *D sky130_fd_sc_hd__dfrtp_1
*CAP
1 *2311:A_N 0
2 *2103:A 0.000550356
3 *2303:A 0.000114897
4 *2313:D_N 2.61242e-05
5 *2324:A_N 0.000179406
6 *2482:Q 0.000213794
7 *137:34 0.000726806
8 *137:21 0.000156609
9 *137:8 0.000462132
10 *2103:A *2103:C 0.000122801
11 *2103:A *2103:D 8.52883e-05
12 *2103:A *2584:A 2.01056e-05
13 *2103:A *621:8 4.31796e-05
14 *2103:A *623:18 6.5181e-05
15 *2103:A *729:23 0
16 *2303:A *2199:C 2.59981e-05
17 *2303:A *2303:C 4.82863e-05
18 *2313:D_N *2313:C_N 4.66108e-05
19 *2324:A_N *2324:C 4.82863e-05
20 *2324:A_N *2324:D 3.23663e-05
21 *2324:A_N *728:119 0.000136284
22 *137:8 *2481:RESET_B 2.03321e-05
23 *137:8 *2482:RESET_B 0.000318466
24 *137:8 *728:22 9.5433e-05
25 *137:8 *848:24 9.76522e-05
26 *137:21 *2199:C 0.000116853
27 *137:21 *848:24 2.38193e-05
28 *137:21 *848:26 8.01544e-05
29 *137:34 *2199:C 0.000152127
30 *137:34 *848:26 8.52172e-05
31 *2103:B *2103:A 8.89666e-05
32 *2303:B *2103:A 0.000132977
33 *2303:B *2303:A 0.000168942
34 *135:10 *2324:A_N 5.05437e-05
35 *136:30 *2103:A 2.43519e-05
36 *136:34 *2103:A 8.18626e-05
*RES
1 *2482:Q *137:8 9.315 
2 *137:8 *2324:A_N 7.515 
3 *137:8 *137:21 2.145 
4 *137:21 *2313:D_N 4.05 
5 *137:21 *137:34 3.89 
6 *137:34 *2303:A 7.805 
7 *137:34 *2103:A 14.69 
8 *137:34 *2311:A_N 1.6 
*END

*D_NET *138 0.00207018
*CONN
*I *2310:A I *D sky130_fd_sc_hd__nor2_1
*I *2103:D I *D sky130_fd_sc_hd__or4_1
*I *2303:D_N I *D sky130_fd_sc_hd__or4b_1
*I *2483:Q O *D sky130_fd_sc_hd__dfrtp_1
*CAP
1 *2310:A 0
2 *2103:D 0.000303175
3 *2303:D_N 0.000327265
4 *2483:Q 3.96734e-05
5 *138:25 0.000379545
6 *138:10 0.000443309
7 *2103:D *2103:C 1.43191e-05
8 *2103:D *2304:A 6.11042e-05
9 *2103:D *2304:B 0.000120655
10 *2103:D *2310:B 2.63322e-05
11 *2103:D *621:8 0
12 *2103:D *623:18 4.89295e-05
13 *2303:D_N *2199:C 0
14 *138:10 *2199:C 0.000141606
15 *138:10 *848:26 7.89767e-05
16 *2103:A *2103:D 8.52883e-05
*RES
1 *2483:Q *138:10 7.235 
2 *138:10 *2303:D_N 10.445 
3 *138:10 *138:25 1.14 
4 *138:25 *2103:D 6.79 
5 *138:25 *2310:A 1.6 
*END

*D_NET *139 0.00468419
*CONN
*I *2103:C I *D sky130_fd_sc_hd__or4_1
*I *2313:B I *D sky130_fd_sc_hd__or4bb_1
*I *2324:C I *D sky130_fd_sc_hd__and4bb_1
*I *2311:B_N I *D sky130_fd_sc_hd__and4bb_1
*I *2303:C I *D sky130_fd_sc_hd__or4b_1
*I *2484:Q O *D sky130_fd_sc_hd__dfrtp_1
*CAP
1 *2103:C 4.57124e-05
2 *2313:B 0.000166538
3 *2324:C 0.000142526
4 *2311:B_N 0
5 *2303:C 0.000103143
6 *2484:Q 0.000444449
7 *139:34 0.000373782
8 *139:18 0.000220984
9 *139:12 0.000252166
10 *139:10 0.000559769
11 *2103:C *2304:A 8.35106e-05
12 *2103:C *621:8 0.000233561
13 *2303:C *2304:B 8.57024e-05
14 *2313:B *2313:C_N 9.66021e-05
15 *2324:C *2324:D 0.000203135
16 *2324:C *629:12 2.86623e-05
17 *2324:C *728:10 2.03321e-05
18 *139:10 *2484:RESET_B 5.83121e-06
19 *139:10 *629:10 1.1561e-05
20 *139:10 *729:23 0
21 *139:10 *848:26 0
22 *139:10 *848:36 0
23 *139:12 *629:10 8.0005e-05
24 *139:18 *2304:B 0.000238919
25 *139:18 *2311:C 8.65905e-05
26 *139:34 *629:10 1.52184e-05
27 *139:34 *629:12 5.56388e-05
28 *139:34 *630:16 1.88602e-05
29 *2103:A *2103:C 0.000122801
30 *2103:B *139:10 5.16418e-05
31 *2103:B *139:12 0.000155928
32 *2103:B *139:34 4.34042e-05
33 *2103:D *2103:C 1.43191e-05
34 *2303:A *2303:C 4.82863e-05
35 *2303:B *2303:C 6.3889e-05
36 *2303:B *139:18 0.000104276
37 *2313:A *2313:B 2.8185e-05
38 *2324:A_N *2324:C 4.82863e-05
39 *133:39 *139:10 0
40 *135:10 *2324:C 7.15588e-05
41 *136:10 *2324:C 3.09233e-05
42 *136:19 *2324:C 0.000127373
43 *136:30 *2324:C 6.68849e-05
44 *136:30 *139:34 0.000111543
45 *136:34 *139:18 2.16917e-05
*RES
1 *2484:Q *139:10 9.54 
2 *139:10 *139:12 1.89 
3 *139:12 *139:18 5.315 
4 *139:18 *2303:C 3.79 
5 *139:18 *2311:B_N 1.6 
6 *139:12 *139:34 1.89 
7 *139:34 *2324:C 8.43 
8 *139:34 *2313:B 5.775 
9 *139:10 *2103:C 5.775 
*END

*D_NET *140 0.00399098
*CONN
*I *2105:B I *D sky130_fd_sc_hd__or2_1
*I *2315:A_N I *D sky130_fd_sc_hd__and4bb_1
*I *2305:A I *D sky130_fd_sc_hd__and4_1
*I *2485:Q O *D sky130_fd_sc_hd__dfrtp_1
*CAP
1 *2105:B 7.59098e-05
2 *2315:A_N 0
3 *2305:A 7.82794e-05
4 *2485:Q 0.00120025
5 *140:29 9.09517e-05
6 *140:16 0.00129357
7 *2105:B *2107:B 1.08758e-05
8 *2105:B *2109:A 0.000122155
9 *2105:B *2315:B_N 0
10 *2105:B *494:10 5.57182e-05
11 *2105:B *495:14 0.000228937
12 *2105:B *497:18 4.47209e-05
13 *2305:A *2295:C 8.12462e-06
14 *2305:A *2320:A2 0.000174981
15 *2305:A *497:18 7.98967e-05
16 *140:16 *2200:A3 0.000418691
17 *140:16 *2295:C 3.63701e-06
18 *140:16 *2320:A2 1.79536e-05
19 *140:16 *848:46 2.05641e-05
20 *140:29 *2107:B 1.91597e-05
21 *140:29 *497:18 4.66108e-05
*RES
1 *2485:Q *140:16 7.49193 
2 *140:16 *2305:A 5.745 
3 *140:16 *140:29 2.45 
4 *140:29 *2315:A_N 1.6 
5 *140:29 *2105:B 4.84 
*END

*D_NET *141 0.0051505
*CONN
*I *2105:A I *D sky130_fd_sc_hd__or2_1
*I *2315:D I *D sky130_fd_sc_hd__and4bb_1
*I *2107:A I *D sky130_fd_sc_hd__nor2_1
*I *2486:Q O *D sky130_fd_sc_hd__dfrtp_1
*CAP
1 *2105:A 0.00041636
2 *2315:D 0
3 *2107:A 7.61669e-05
4 *2486:Q 0.00109977
5 *141:39 0.000553347
6 *141:22 0.00131292
7 *2105:A *2107:B 8.82557e-05
8 *2105:A *2295:C 8.23457e-05
9 *2105:A *494:10 0.000186358
10 *2105:A *495:14 8.96017e-05
11 *2107:A *2107:B 4.82863e-05
12 *141:22 *2486:RESET_B 1.08758e-05
13 *141:22 *2488:CLK 0.000116388
14 *141:22 *2488:D 0
15 *141:22 *2488:RESET_B 0.000114492
16 *141:22 *2490:RESET_B 2.42236e-05
17 *141:22 *356:8 2.68156e-05
18 *141:22 *615:10 0
19 *141:22 *615:71 8.10847e-05
20 *141:22 *729:109 2.68526e-05
21 *141:39 *2107:B 0.000378513
22 *141:39 *2295:B 2.49909e-05
23 *141:39 *2297:D 6.17614e-05
24 *141:39 *2305:D 7.9642e-06
25 *141:39 *2316:A2 1.46828e-05
26 *141:39 *614:12 8.65905e-05
27 *141:39 *615:22 0.000119762
28 *1965:A *141:22 0
29 *2110:A *141:39 6.97256e-05
30 *131:6 *2107:A 3.23663e-05
*RES
1 *2486:Q *141:22 21.35 
2 *141:22 *2107:A 3.1 
3 *141:22 *141:39 8.425 
4 *141:39 *2315:D 1.6 
5 *141:39 *2105:A 7.24 
*END

*D_NET *142 0.000687974
*CONN
*I *2221:B I *D sky130_fd_sc_hd__or2_1
*I *1977:A I *D sky130_fd_sc_hd__inv_2
*I *2491:Q O *D sky130_fd_sc_hd__dfrtp_1
*CAP
1 *2221:B 0.000237946
2 *1977:A 6.8714e-05
3 *2491:Q 0
4 *142:4 0.00030666
5 *1977:A *220:21 3.00381e-05
6 *2221:B *2476:CLK 2.75145e-05
7 *2221:B *2571:A 1.71013e-05
8 *2221:B *731:98 0
9 *2221:B *731:111 0
10 *2221:B *853:71 0
*RES
1 *2491:Q *142:4 1.6 
2 *142:4 *1977:A 2.92 
3 *142:4 *2221:B 9.215 
*END

*D_NET *143 0.00391754
*CONN
*I *2491:D I *D sky130_fd_sc_hd__dfrtp_1
*I *2323:A I *D sky130_fd_sc_hd__or3_1
*I *2321:C1 I *D sky130_fd_sc_hd__a311o_1
*I *2111:Y O *D sky130_fd_sc_hd__inv_2
*CAP
1 *2491:D 0.000319319
2 *2323:A 0
3 *2321:C1 0.000377792
4 *2111:Y 0
5 *143:10 0.000600834
6 *143:4 0.000542361
7 *2321:C1 *2301:A1 9.70131e-05
8 *2321:C1 *2306:B 0.000143371
9 *2321:C1 *2321:A2 0.000334294
10 *2321:C1 *2325:A1 9.50342e-06
11 *2321:C1 *2325:A2 2.97679e-05
12 *2321:C1 *627:10 1.92979e-05
13 *2321:C1 *630:16 0.000475682
14 *2321:C1 *637:10 2.10433e-05
15 *2321:C1 *836:16 5.30352e-05
16 *2491:D *2111:A 9.53428e-06
17 *2491:D *2491:CLK 3.74161e-05
18 *2491:D *2491:RESET_B 8.65961e-05
19 *2491:D *498:8 3.83895e-05
20 *2491:D *731:24 0.000347922
21 *143:10 *2111:A 4.82919e-05
22 *143:10 *2306:B 6.85516e-05
23 *143:10 *498:8 3.52139e-06
24 *143:10 *624:8 0.000244504
25 *143:10 *731:24 0
26 *143:10 *836:16 9.50342e-06
*RES
1 *2111:Y *143:4 1.6 
2 *143:4 *143:10 6.47 
3 *143:10 *2321:C1 7.6818 
4 *143:10 *2323:A 3.6 
5 *143:4 *2491:D 7.585 
*END

*D_NET *144 0.0138178
*CONN
*I *2647:A I *D sky130_fd_sc_hd__clkbuf_2
*I *2639:A I *D sky130_fd_sc_hd__buf_2
*I *2634:A I *D sky130_fd_sc_hd__clkbuf_4
*I *2242:X O *D sky130_fd_sc_hd__and2_1
*CAP
1 *2647:A 0
2 *2639:A 0.000134605
3 *2634:A 0.00120288
4 *2242:X 0.000243147
5 *144:28 0.00443288
6 *144:6 0.00333854
7 *2634:A *896:DIODE 4.66826e-05
8 *2634:A *2151:B1 0
9 *2634:A *2152:B1 7.84003e-05
10 *2634:A *2154:B 2.88506e-05
11 *2634:A *2190:A 0
12 *2634:A *2191:B 0.000247553
13 *2634:A *2193:B 5.1807e-05
14 *2634:A *2194:B 0.000135766
15 *2634:A *2195:B 0.000236772
16 *2634:A *2270:A2 0.000223904
17 *2634:A *2278:B1 2.04267e-05
18 *2634:A *2278:C1 0.00030358
19 *2634:A *2504:CLK 0
20 *2634:A *2604:A 0
21 *2634:A *443:52 0.000107955
22 *2634:A *819:18 1.34503e-05
23 *2634:A *821:54 0.00064031
24 *2634:A *829:101 0
25 *2634:A *847:76 3.98908e-05
26 *2639:A *2270:A1 5.37442e-05
27 *2639:A *2270:A2 6.28498e-05
28 *2639:A *2286:C 1.93416e-05
29 *2639:A *2293:A2 0
30 *2639:A *2609:A 4.82863e-05
31 *2639:A *820:23 4.82863e-05
32 *2639:A *821:54 0.000263278
33 *144:28 *2113:A1 3.72916e-05
34 *144:28 *2113:A2 5.80482e-06
35 *144:28 *2113:B2 5.84184e-05
36 *144:28 *2114:C1 9.5753e-06
37 *144:28 *2203:A2 7.23602e-05
38 *144:28 *2203:B1 0.000223186
39 *144:28 *2269:A1 4.41506e-05
40 *144:28 *2563:CLK 0.00069009
41 *144:28 *2563:RESET_B 0.000118995
42 *144:28 *2578:A 1.83847e-05
43 *144:28 *723:6 7.99757e-05
44 *144:28 *723:10 0.000102049
45 *144:28 *805:10 7.06865e-05
46 *144:28 *814:112 9.82412e-05
47 *144:28 *818:62 0.000125034
48 *144:28 *857:59 1.90092e-05
49 *2152:B2 *2634:A 0
50 *2153:A1 *2634:A 0
51 *2194:A *2634:A 2.13396e-05
52 *111:10 *2634:A 0
*RES
1 *2242:X *144:6 4.81 
2 *144:6 *144:28 46.905 
3 *144:28 *2634:A 27.36 
4 *144:28 *2639:A 7.47 
5 *144:6 *2647:A 1.6 
*END

*D_NET *145 0.00247672
*CONN
*I *2225:A1 I *D sky130_fd_sc_hd__mux2_1
*I *1975:A I *D sky130_fd_sc_hd__inv_2
*I *2202:B I *D sky130_fd_sc_hd__and2_2
*I *2218:B I *D sky130_fd_sc_hd__nor2_1
*I *2476:Q O *D sky130_fd_sc_hd__dfrtp_1
*CAP
1 *2225:A1 0.000346635
2 *1975:A 6.40461e-05
3 *2202:B 0
4 *2218:B 0.000184549
5 *2476:Q 0
6 *145:29 0.000230224
7 *145:8 0.00043452
8 *145:6 0.000430428
9 *1975:A *2201:A 4.99619e-05
10 *1975:A *2224:A1 1.91597e-05
11 *1975:A *566:25 8.65961e-05
12 *2218:B *2218:A 4.66108e-05
13 *2218:B *2222:B 0
14 *2218:B *2223:A3 4.82863e-05
15 *2218:B *2474:RESET_B 0
16 *2218:B *722:36 0.000128029
17 *2218:B *722:51 9.387e-06
18 *2225:A1 *2222:B 0
19 *2225:A1 *2224:S 3.65039e-05
20 *2225:A1 *2225:S 3.21634e-05
21 *2225:A1 *2475:CLK 3.38041e-05
22 *2225:A1 *2475:D 0.00011852
23 *2225:A1 *211:10 0
24 *2225:A1 *722:51 8.89673e-05
25 *145:8 *2222:B 0
26 *145:8 *722:51 8.83244e-05
*RES
1 *2476:Q *145:6 3.6 
2 *145:6 *145:8 1.89 
3 *145:8 *2218:B 7.26 
4 *145:8 *145:29 4.19 
5 *145:29 *2202:B 1.6 
6 *145:29 *1975:A 3.085 
7 *145:6 *2225:A1 9.12 
*END

*D_NET *146 0.000531821
*CONN
*I *2457:D I *D sky130_fd_sc_hd__dfrtp_2
*I *2157:Y O *D sky130_fd_sc_hd__nand2_1
*CAP
1 *2457:D 0.000260473
2 *2157:Y 0.000260473
3 *2457:D *2157:A 1.08758e-05
4 *2457:D *718:16 0
5 *2457:D *846:34 0
6 *2457:D *846:40 0
*RES
1 *2157:Y *2457:D 10.815 
*END

*D_NET *147 0.000649841
*CONN
*I *2467:D I *D sky130_fd_sc_hd__dfrtp_2
*I *2184:Y O *D sky130_fd_sc_hd__a21oi_1
*CAP
1 *2467:D 0.000203014
2 *2184:Y 0.000203014
3 *2467:D *2182:B 3.82728e-05
4 *2467:D *2184:A1 1.27474e-05
5 *2467:D *2184:B1 0.000129922
6 *2467:D *2466:D 4.43871e-06
7 *2467:D *2467:CLK 5.05167e-05
8 *2467:D *551:22 7.91584e-06
9 *2467:D *834:29 0
*RES
1 *2184:Y *2467:D 10.425 
*END

*D_NET *148 0.000241907
*CONN
*I *2468:D I *D sky130_fd_sc_hd__dfrtp_1
*I *2187:X O *D sky130_fd_sc_hd__and3b_1
*CAP
1 *2468:D 2.38467e-05
2 *2187:X 2.38467e-05
3 *2468:D *2187:B 9.71067e-05
4 *2468:D *2187:C 9.71067e-05
*RES
1 *2187:X *2468:D 8.325 
*END

*D_NET *149 0.000358753
*CONN
*I *2469:D I *D sky130_fd_sc_hd__dfrtp_1
*I *2190:Y O *D sky130_fd_sc_hd__nor2_1
*CAP
1 *2469:D 7.06867e-05
2 *2190:Y 7.06867e-05
3 *2469:D *2469:CLK 4.66742e-05
4 *2469:D *852:36 0.000164874
5 *111:10 *2469:D 5.83121e-06
*RES
1 *2190:Y *2469:D 5.03 
*END

*D_NET *150 0.0013603
*CONN
*I *2470:D I *D sky130_fd_sc_hd__dfrtp_1
*I *2193:X O *D sky130_fd_sc_hd__and3_1
*CAP
1 *2470:D 0.000405972
2 *2193:X 0.000405972
3 *2470:D *2154:A_N 1.01687e-05
4 *2470:D *2154:B 0.00015639
5 *2470:D *2155:B1 1.09258e-05
6 *2470:D *2191:B 9.37944e-05
7 *2470:D *2193:B 0.000232999
8 *2470:D *733:32 4.40812e-05
*RES
1 *2193:X *2470:D 13.17 
*END

*D_NET *151 0.00083097
*CONN
*I *2471:D I *D sky130_fd_sc_hd__dfrtp_1
*I *2195:X O *D sky130_fd_sc_hd__and2_1
*CAP
1 *2471:D 0.000208305
2 *2195:X 0.000208305
3 *2471:D *2195:A 9.02924e-05
4 *2471:D *2195:B 3.12669e-05
5 *2471:D *2277:A2 5.83121e-06
6 *2471:D *2471:CLK 7.08278e-05
7 *2152:A1 *2471:D 4.66108e-05
8 *2152:B2 *2471:D 0.000113269
9 *113:12 *2471:D 4.42693e-05
10 *113:14 *2471:D 1.19928e-05
*RES
1 *2195:X *2471:D 11.535 
*END

*D_NET *152 0.000708895
*CONN
*I *2458:D I *D sky130_fd_sc_hd__dfrtp_2
*I *2160:X O *D sky130_fd_sc_hd__and3_1
*CAP
1 *2458:D 0.000206504
2 *2160:X 0.000206504
3 *2458:D *2160:B 4.75576e-05
4 *2458:D *718:16 4.99619e-05
5 *2458:D *846:34 0
6 *2458:D *846:40 0
7 *108:10 *2458:D 4.43871e-06
8 *108:25 *2458:D 0.000110315
9 *108:67 *2458:D 6.92253e-05
10 *115:6 *2458:D 1.4389e-05
*RES
1 *2160:X *2458:D 11.58 
*END

*D_NET *153 0.000346961
*CONN
*I *2459:D I *D sky130_fd_sc_hd__dfrtp_1
*I *2163:X O *D sky130_fd_sc_hd__and3b_1
*CAP
1 *2459:D 0.000119782
2 *2163:X 0.000119782
3 *2459:D *791:61 0
4 *2459:D *791:67 4.82919e-05
5 *2459:D *864:10 5.20968e-05
6 *947:DIODE *2459:D 7.00889e-06
*RES
1 *2163:X *2459:D 9.12 
*END

*D_NET *154 0.000327108
*CONN
*I *2460:D I *D sky130_fd_sc_hd__dfrtp_1
*I *2166:X O *D sky130_fd_sc_hd__and3b_1
*CAP
1 *2460:D 0.000138994
2 *2166:X 0.000138994
3 *2460:D *735:8 4.91189e-05
4 *2460:D *791:55 0
*RES
1 *2166:X *2460:D 9.375 
*END

*D_NET *155 0.00061131
*CONN
*I *2461:D I *D sky130_fd_sc_hd__dfrtp_2
*I *2168:Y O *D sky130_fd_sc_hd__a21oi_1
*CAP
1 *2461:D 0.000234938
2 *2168:Y 0.000234938
3 *2461:D *2168:A1 3.23663e-05
4 *2461:D *2168:A2 2.24423e-05
5 *2461:D *2168:B1 7.00889e-06
6 *2461:D *735:8 7.96171e-05
*RES
1 *2168:Y *2461:D 11.52 
*END

*D_NET *156 0.000469793
*CONN
*I *2462:D I *D sky130_fd_sc_hd__dfrtp_1
*I *2171:X O *D sky130_fd_sc_hd__and3b_1
*CAP
1 *2462:D 9.66267e-05
2 *2171:X 9.66267e-05
3 *2462:D *2169:C 4.66108e-05
4 *2462:D *2171:C 9.67081e-06
5 *2462:D *2464:CLK 4.66108e-05
6 *2462:D *791:47 8.42627e-05
7 *2462:D *841:65 8.93844e-05
*RES
1 *2171:X *2462:D 9.225 
*END

*D_NET *157 0.000374978
*CONN
*I *2463:D I *D sky130_fd_sc_hd__dfrtp_1
*I *2174:Y O *D sky130_fd_sc_hd__nor2_1
*CAP
1 *2463:D 0.000181892
2 *2174:Y 0.000181892
3 *2463:D *2463:CLK 5.36384e-06
4 *2463:D *850:36 5.83121e-06
*RES
1 *2174:Y *2463:D 5.495 
*END

*D_NET *158 0.000366708
*CONN
*I *2464:D I *D sky130_fd_sc_hd__dfrtp_2
*I *2176:Y O *D sky130_fd_sc_hd__a21oi_1
*CAP
1 *2464:D 7.5479e-05
2 *2176:Y 7.5479e-05
3 *2464:D *2464:CLK 6.34213e-05
4 *2464:D *546:31 0.000152329
*RES
1 *2176:Y *2464:D 5.39 
*END

*D_NET *159 0.00144046
*CONN
*I *2465:D I *D sky130_fd_sc_hd__dfrtp_1
*I *2179:X O *D sky130_fd_sc_hd__and3b_1
*CAP
1 *2465:D 0.000399209
2 *2179:X 0.000399209
3 *2465:D *2179:C 0.000502803
4 *2465:D *834:29 0.000139238
*RES
1 *2179:X *2465:D 13.425 
*END

*D_NET *160 0.00037111
*CONN
*I *2466:D I *D sky130_fd_sc_hd__dfrtp_1
*I *2182:Y O *D sky130_fd_sc_hd__nor2_1
*CAP
1 *2466:D 0.000133229
2 *2182:Y 0.000133229
3 *2466:D *2182:A 1.17409e-05
4 *2466:D *2182:B 5.83121e-06
5 *2466:D *2465:CLK 0
6 *2466:D *2467:CLK 2.16389e-05
7 *2466:D *834:29 6.10014e-05
8 *2467:D *2466:D 4.43871e-06
*RES
1 *2182:Y *2466:D 9.375 
*END

*D_NET *161 0.00204258
*CONN
*I *2571:A I *D sky130_fd_sc_hd__clkbuf_1
*I *2200:X O *D sky130_fd_sc_hd__o31a_1
*CAP
1 *2571:A 0.000807754
2 *2200:X 0.000807754
3 *2571:A *2200:A1 7.06582e-05
4 *2571:A *2475:CLK 5.05521e-05
5 *2571:A *2476:CLK 1.34503e-05
6 *2571:A *2478:D 4.84165e-05
7 *2571:A *2490:RESET_B 0
8 *2571:A *731:111 6.69341e-05
9 *2571:A *731:117 0.000159964
10 *2571:A *813:10 0
11 *2221:B *2571:A 1.71013e-05
*RES
1 *2200:X *2571:A 19.065 
*END

*D_NET *162 0.000428244
*CONN
*I *2200:B1 I *D sky130_fd_sc_hd__o31a_1
*I *2525:Q O *D sky130_fd_sc_hd__dfrtp_1
*CAP
1 *2200:B1 0.000181997
2 *2525:Q 0.000181997
3 *2200:B1 *2200:A3 1.92979e-05
4 *2200:B1 *494:10 4.9253e-06
5 *2200:B1 *494:18 0
6 *128:10 *2200:B1 3.54686e-05
7 *130:14 *2200:B1 4.55864e-06
*RES
1 *2525:Q *2200:B1 9.72 
*END

*D_NET *163 0.00342301
*CONN
*I *2112:B2 I *D sky130_fd_sc_hd__o22a_1
*I *2431:A0 I *D sky130_fd_sc_hd__mux2_1
*I *2563:Q O *D sky130_fd_sc_hd__dfrtp_1
*CAP
1 *2112:B2 0.000513443
2 *2431:A0 0.000138661
3 *2563:Q 0.000251658
4 *163:10 0.000903761
5 *2112:B2 *1971:A 8.08153e-06
6 *2112:B2 *2112:A1 1.26626e-05
7 *2112:B2 *2112:A2 4.82919e-05
8 *2112:B2 *2113:C1 2.75229e-05
9 *2112:B2 *2231:B 8.53113e-06
10 *2112:B2 *2431:A1 0.0001249
11 *2112:B2 *2432:A1 8.53113e-06
12 *2112:B2 *2527:RESET_B 0.000415935
13 *2112:B2 *2565:CLK 9.14049e-05
14 *2112:B2 *164:12 1.07797e-05
15 *2112:B2 *164:19 1.46744e-05
16 *2112:B2 *173:10 3.09451e-05
17 *2112:B2 *489:40 0
18 *2431:A0 *2431:A1 0.000291898
19 *2431:A0 *2432:S 4.82919e-05
20 *2431:A0 *2692:A 2.30292e-05
21 *2431:A0 *164:19 8.49205e-05
22 *2431:A0 *489:29 8.8266e-05
23 *2431:A0 *489:36 0.000124895
24 *163:10 *2563:RESET_B 8.8266e-05
25 *163:10 *2651:A 0
26 *163:10 *164:12 6.36578e-05
27 *163:10 *859:63 0
28 *163:10 *859:70 0
*RES
1 *2563:Q *163:10 7.815 
2 *163:10 *2431:A0 7.965 
3 *163:10 *2112:B2 15.58 
*END

*D_NET *164 0.00293565
*CONN
*I *2112:A1 I *D sky130_fd_sc_hd__o22a_1
*I *2113:B1 I *D sky130_fd_sc_hd__a221o_1
*I *2432:A0 I *D sky130_fd_sc_hd__mux2_1
*I *2564:Q O *D sky130_fd_sc_hd__dfrtp_1
*CAP
1 *2112:A1 0.000134485
2 *2113:B1 0.000101694
3 *2432:A0 0
4 *2564:Q 0.000246552
5 *164:19 0.000327643
6 *164:12 0.000338015
7 *2112:A1 *2114:C1 8.44359e-05
8 *2112:A1 *2527:RESET_B 0.000230435
9 *2112:A1 *2565:CLK 0.000132842
10 *2112:A1 *2650:A 8.23457e-05
11 *2112:A1 *2703:A 7.72175e-05
12 *2113:B1 *2113:A1 0.000337524
13 *2113:B1 *2113:A2 0.000186627
14 *164:12 *2650:A 3.7634e-05
15 *164:12 *2651:A 0
16 *164:19 *2431:A1 0.000198945
17 *164:19 *2527:RESET_B 0.000120655
18 *164:19 *2703:A 0.000111901
19 *2112:B2 *2112:A1 1.26626e-05
20 *2112:B2 *164:12 1.07797e-05
21 *2112:B2 *164:19 1.46744e-05
22 *2431:A0 *164:19 8.49205e-05
23 *163:10 *164:12 6.36578e-05
*RES
1 *2564:Q *164:12 9.065 
2 *164:12 *2432:A0 1.6 
3 *164:12 *164:19 3.21 
4 *164:19 *2113:B1 9.53 
5 *164:19 *2112:A1 9.665 
*END

*D_NET *165 0.00308243
*CONN
*I *2114:B1 I *D sky130_fd_sc_hd__o221a_1
*I *2113:A1 I *D sky130_fd_sc_hd__a221o_1
*I *2433:A0 I *D sky130_fd_sc_hd__mux2_1
*I *2565:Q O *D sky130_fd_sc_hd__dfrtp_1
*CAP
1 *2114:B1 4.66566e-05
2 *2113:A1 0.000190914
3 *2433:A0 9.82678e-05
4 *2565:Q 0
5 *165:17 0.000379566
6 *165:4 0.000240262
7 *2113:A1 *2113:A2 0.000150365
8 *2113:A1 *2113:C1 0.000180248
9 *2113:A1 *2114:C1 5.05437e-05
10 *2113:A1 *2564:D 0.000120186
11 *2113:A1 *2565:D 8.53113e-06
12 *2113:A1 *2659:A 5.63035e-05
13 *2114:B1 *2113:A2 0.000176873
14 *2114:B1 *2114:C1 2.03321e-05
15 *2114:B1 *2565:D 0.000116165
16 *2114:B1 *2659:A 1.34361e-05
17 *2114:B1 *362:10 9.50342e-06
18 *2433:A0 *2433:A1 0.000164874
19 *2433:A0 *2659:A 8.57024e-05
20 *2433:A0 *717:164 2.32597e-05
21 *165:17 *2659:A 0.000237292
22 *165:17 *717:164 0.000338332
23 *2113:B1 *2113:A1 0.000337524
24 *144:28 *2113:A1 3.72916e-05
*RES
1 *2565:Q *165:4 1.6 
2 *165:4 *2433:A0 4.135 
3 *165:4 *165:17 7.28 
4 *165:17 *2113:A1 10.62 
5 *165:17 *2114:B1 5.745 
*END

*D_NET *166 0.0028931
*CONN
*I *2115:B1 I *D sky130_fd_sc_hd__a221o_1
*I *2434:A0 I *D sky130_fd_sc_hd__mux2_1
*I *2114:A1 I *D sky130_fd_sc_hd__o221a_1
*I *2566:Q O *D sky130_fd_sc_hd__dfrtp_1
*CAP
1 *2115:B1 0.000336525
2 *2434:A0 0
3 *2114:A1 0.000240452
4 *2566:Q 0.000388428
5 *166:10 0.000366826
6 *166:6 0.000851327
7 *2114:A1 *2114:A2 0
8 *2114:A1 *2115:C1 5.30673e-05
9 *2114:A1 *489:40 6.64979e-05
10 *2115:B1 *2114:A2 4.94404e-05
11 *2115:B1 *2566:CLK 6.44414e-05
12 *2115:B1 *2566:D 2.59926e-05
13 *2115:B1 *2566:RESET_B 0.000188957
14 *2115:B1 *362:10 4.82919e-05
15 *2115:B1 *724:42 4.50017e-05
16 *166:6 *2566:RESET_B 4.11729e-05
17 *166:10 *2115:C1 0
18 *166:10 *2566:RESET_B 0
19 *166:10 *489:40 1.01661e-05
20 *166:10 *489:53 8.55971e-05
21 *166:10 *861:53 3.09164e-05
*RES
1 *2566:Q *166:6 5.845 
2 *166:6 *166:10 4.91 
3 *166:10 *2114:A1 8.01 
4 *166:10 *2434:A0 3.6 
5 *166:6 *2115:B1 10.625 
*END

*D_NET *167 0.00179178
*CONN
*I *2116:B2 I *D sky130_fd_sc_hd__o221a_1
*I *2115:A2 I *D sky130_fd_sc_hd__a221o_1
*I *2435:A0 I *D sky130_fd_sc_hd__mux2_1
*I *2567:Q O *D sky130_fd_sc_hd__dfrtp_1
*CAP
1 *2116:B2 0.000156345
2 *2115:A2 0.00035483
3 *2435:A0 6.41149e-05
4 *2567:Q 0
5 *167:10 0.00050495
6 *167:4 0.00024235
7 *2115:A2 *2114:A2 1.85115e-05
8 *2115:A2 *2236:A 3.70779e-05
9 *2115:A2 *361:10 3.72012e-05
10 *2116:B2 *2116:A1 4.60584e-05
11 *2116:B2 *2116:A2 0.00012657
12 *2435:A0 *2435:A1 4.99619e-05
13 *2435:A0 *489:53 8.8266e-05
14 *167:10 *360:12 0
15 *167:10 *489:57 6.55406e-05
16 *167:10 *861:53 0
*RES
1 *2567:Q *167:4 1.6 
2 *167:4 *167:10 5.635 
3 *167:10 *2435:A0 3.085 
4 *167:10 *2115:A2 6.16375 
5 *167:4 *2116:B2 4.495 
*END

*D_NET *168 0.00165462
*CONN
*I *2117:B1 I *D sky130_fd_sc_hd__a221o_1
*I *2436:A0 I *D sky130_fd_sc_hd__mux2_1
*I *2116:A1 I *D sky130_fd_sc_hd__o221a_1
*I *2568:Q O *D sky130_fd_sc_hd__dfrtp_1
*CAP
1 *2117:B1 0.000143143
2 *2436:A0 4.9924e-05
3 *2116:A1 0.000107457
4 *2568:Q 0
5 *168:8 0.00024552
6 *168:4 0.000231281
7 *2116:A1 *2116:A2 7.32968e-05
8 *2116:A1 *2117:C1 0.000116158
9 *2116:A1 *489:57 8.97486e-05
10 *2117:B1 *2117:A2 0
11 *2117:B1 *2117:B2 6.03947e-06
12 *2117:B1 *169:14 5.47731e-05
13 *2436:A0 *2436:A1 6.97118e-05
14 *2436:A0 *2652:A 9.2741e-05
15 *168:8 *2117:C1 0.000206137
16 *168:8 *2119:B1 0
17 *168:8 *2525:D 4.18203e-05
18 *168:8 *489:57 1.26626e-05
19 *168:8 *489:65 6.81426e-05
20 *2116:B2 *2116:A1 4.60584e-05
*RES
1 *2568:Q *168:4 1.6 
2 *168:4 *168:8 4.91 
3 *168:8 *2116:A1 6.63 
4 *168:8 *2436:A0 5.085 
5 *168:4 *2117:B1 3.445 
*END

*D_NET *169 0.00208318
*CONN
*I *2437:A0 I *D sky130_fd_sc_hd__mux2_1
*I *2118:B1 I *D sky130_fd_sc_hd__o22a_1
*I *2117:A1 I *D sky130_fd_sc_hd__a221o_1
*I *2569:Q O *D sky130_fd_sc_hd__dfrtp_1
*CAP
1 *2437:A0 0
2 *2118:B1 0.000113782
3 *2117:A1 2.08101e-05
4 *2569:Q 7.83361e-05
5 *169:14 0.000710229
6 *169:8 0.000653972
7 *2117:A1 *2117:A2 0
8 *2118:B1 *2117:A2 0.000173153
9 *2118:B1 *2118:B2 9.53428e-06
10 *2118:B1 *2119:B2 8.09157e-06
11 *169:8 *2570:CLK 5.21545e-05
12 *169:8 *2653:A 0
13 *169:8 *2681:A 0
14 *169:14 *2117:B2 1.12643e-05
15 *169:14 *2568:D 0.000122002
16 *169:14 *2570:CLK 7.08884e-05
17 *169:14 *2653:A 0
18 *169:14 *722:88 4.18603e-06
19 *2117:B1 *169:14 5.47731e-05
*RES
1 *2569:Q *169:8 5.235 
2 *169:8 *169:14 11.495 
3 *169:14 *2117:A1 1.96 
4 *169:14 *2118:B1 4.135 
5 *169:8 *2437:A0 3.6 
*END

*D_NET *170 0.00428592
*CONN
*I *2713:A I *D sky130_fd_sc_hd__dlygate4sd3_1
*I *2118:A1 I *D sky130_fd_sc_hd__o22a_1
*I *2438:A0 I *D sky130_fd_sc_hd__mux2_1
*I *2570:Q O *D sky130_fd_sc_hd__dfrtp_1
*CAP
1 *2713:A 5.5406e-05
2 *2118:A1 0.000168419
3 *2438:A0 0
4 *2570:Q 0.000186948
5 *170:23 0.0012552
6 *170:12 0.00121832
7 *2118:A1 *2241:A 0.000229897
8 *2118:A1 *177:14 0
9 *2118:A1 *357:19 0.000116158
10 *2713:A *2241:A 4.66108e-05
11 *2713:A *724:68 0.00016063
12 *170:12 *2438:A1 0.000275553
13 *170:12 *2438:S 0
14 *170:12 *2718:A 4.94404e-05
15 *170:23 *2239:A 0
16 *170:23 *2241:A 2.07184e-05
17 *170:23 *2569:D 4.82863e-05
18 *170:23 *2570:D 0.000163204
19 *170:23 *2649:A 2.11084e-05
20 gpio_oeb[24] *170:23 3.00381e-05
21 gpio_out[17] *170:23 1.7386e-05
22 gpio_out[18] *170:23 1.4389e-05
23 gpio_out[19] *170:23 3.99879e-05
24 gpio_out[31] *170:23 0.000168213
*RES
1 *2570:Q *170:12 9.59 
2 *170:12 *2438:A0 1.6 
3 *170:12 *170:23 18.83 
4 *170:23 *2118:A1 7.53 
5 *170:23 *2713:A 5.085 
*END

*D_NET *171 0.00500506
*CONN
*I *1973:A I *D sky130_fd_sc_hd__inv_2
*I *2232:A2 I *D sky130_fd_sc_hd__a21oi_1
*I *2226:C I *D sky130_fd_sc_hd__and3_1
*I *2231:B I *D sky130_fd_sc_hd__xor2_1
*I *2526:Q O *D sky130_fd_sc_hd__dfstp_1
*CAP
1 *1973:A 0
2 *2232:A2 0.000216127
3 *2226:C 3.79703e-05
4 *2231:B 0.000280729
5 *2526:Q 0.000404682
6 *171:54 0.000542131
7 *171:20 0.000488214
8 *171:10 0.0009002
9 *2226:C *2694:A 5.49535e-05
10 *2231:B *2113:B2 2.46089e-05
11 *2231:B *2527:RESET_B 0.000234685
12 *2231:B *2565:CLK 0.000120321
13 *2231:B *173:10 0.00012476
14 *2231:B *717:168 3.86607e-05
15 *2232:A2 *2232:A1 0.000164874
16 *2232:A2 *2233:B 3.59997e-05
17 *2232:A2 *2528:D 8.70844e-05
18 *2232:A2 *172:38 4.99619e-05
19 *2232:A2 *862:59 7.21296e-06
20 *171:10 *1971:A 3.31204e-05
21 *171:10 *2112:B1 6.75724e-05
22 *171:10 *2566:RESET_B 0.000103337
23 *171:10 *2595:A 0.000116151
24 *171:10 *717:200 0
25 *171:10 *861:37 2.21654e-05
26 *171:20 *2112:B1 8.92341e-05
27 *171:20 *2113:B2 2.75707e-05
28 *171:20 *2527:CLK 0
29 *171:20 *363:10 4.22316e-06
30 *171:20 *717:168 7.87127e-05
31 *171:20 *717:200 4.09916e-05
32 *171:54 *2112:B1 5.29023e-05
33 *171:54 *2233:A 1.08758e-05
34 *171:54 *2233:B 0
35 *171:54 *2528:D 8.49205e-05
36 *171:54 *2595:A 4.99619e-05
37 *171:54 *2698:A 4.99619e-05
38 *171:54 *363:10 2.49909e-05
39 *171:54 *364:16 0.000253087
40 *171:54 *579:14 7.35693e-05
41 *2112:B2 *2231:B 8.53113e-06
*RES
1 *2526:Q *171:10 9.6525 
2 *171:10 *171:20 3.765 
3 *171:20 *2231:B 13.3 
4 *171:20 *2226:C 4.11 
5 *171:10 *171:54 9.125 
6 *171:54 *2232:A2 10.28 
7 *171:54 *1973:A 1.6 
*END

*D_NET *172 0.00227059
*CONN
*I *2232:A1 I *D sky130_fd_sc_hd__a21oi_1
*I *2690:A I *D sky130_fd_sc_hd__dlygate4sd3_1
*I *1972:A I *D sky130_fd_sc_hd__inv_2
*I *2226:B I *D sky130_fd_sc_hd__and3_1
*I *2527:Q O *D sky130_fd_sc_hd__dfrtp_1
*CAP
1 *2232:A1 3.78517e-05
2 *2690:A 0
3 *1972:A 7.1012e-05
4 *2226:B 0.000123694
5 *2527:Q 0.000138866
6 *172:38 5.92472e-05
7 *172:18 0.000459434
8 *172:12 0.000424989
9 *1972:A *2698:A 9.50342e-06
10 *1972:A *579:10 0.000128353
11 *1972:A *861:29 0
12 *2226:B *2112:A2 5.05437e-05
13 *2226:B *2694:A 1.19928e-05
14 *2232:A1 *2232:B1 7.66083e-05
15 *172:12 *2528:D 0.000116158
16 *172:18 *2232:B1 0.000196364
17 *172:18 *579:10 7.5416e-05
18 *172:18 *861:29 0
19 *172:38 *2232:B1 7.57202e-05
20 *2232:A2 *2232:A1 0.000164874
21 *2232:A2 *172:38 4.99619e-05
*RES
1 *2527:Q *172:12 7.775 
2 *172:12 *172:18 6.77 
3 *172:18 *2226:B 5.085 
4 *172:18 *1972:A 5.235 
5 *172:12 *172:38 0.795 
6 *172:38 *2690:A 1.6 
7 *172:38 *2232:A1 3.085 
*END

*D_NET *173 0.00261029
*CONN
*I *1971:A I *D sky130_fd_sc_hd__inv_2
*I *2694:A I *D sky130_fd_sc_hd__dlygate4sd3_1
*I *2226:A I *D sky130_fd_sc_hd__and3_1
*I *2528:Q O *D sky130_fd_sc_hd__dfrtp_1
*CAP
1 *1971:A 0.000338109
2 *2694:A 9.43407e-05
3 *2226:A 0
4 *2528:Q 0.000147171
5 *173:14 0.000146261
6 *173:10 0.0005372
7 *1971:A *1970:A 4.43871e-06
8 *1971:A *2112:B1 0.000252282
9 *1971:A *2114:C1 0
10 *1971:A *2595:A 2.96383e-05
11 *1971:A *2657:A 0
12 *1971:A *717:168 1.07797e-05
13 *1971:A *724:25 6.74234e-05
14 *1971:A *724:29 2.75145e-05
15 *2694:A *2112:A2 0.00012115
16 *2694:A *579:10 2.49909e-05
17 *173:10 *2113:B2 0.000122337
18 *173:10 *2231:A 7.22354e-05
19 *173:10 *2527:D 9.71067e-05
20 *173:10 *717:168 0.00011468
21 *173:14 *2112:A2 4.21973e-05
22 *173:14 *2112:B1 4.82919e-05
23 *173:14 *2113:C1 4.82919e-05
24 *2112:B2 *1971:A 8.08153e-06
25 *2112:B2 *173:10 3.09451e-05
26 *2226:B *2694:A 1.19928e-05
27 *2226:C *2694:A 5.49535e-05
28 *2231:B *173:10 0.00012476
29 *171:10 *1971:A 3.31204e-05
*RES
1 *2528:Q *173:10 8.415 
2 *173:10 *173:14 3.14 
3 *173:14 *2226:A 1.6 
4 *173:14 *2694:A 3.895 
5 *173:10 *1971:A 10.785 
*END

*D_NET *174 0.00184415
*CONN
*I *2227:A I *D sky130_fd_sc_hd__and2_1
*I *1970:A I *D sky130_fd_sc_hd__inv_2
*I *2698:A I *D sky130_fd_sc_hd__dlygate4sd3_1
*I *2529:Q O *D sky130_fd_sc_hd__dfrtp_1
*CAP
1 *2227:A 0
2 *1970:A 0.00021132
3 *2698:A 0.00018189
4 *2529:Q 0
5 *174:25 0.000355677
6 *174:4 0.000326247
7 *1970:A *2236:A 0.000124895
8 *1970:A *2526:D 5.92191e-05
9 *1970:A *724:25 5.23362e-05
10 *1970:A *724:29 2.49909e-05
11 *1970:A *724:42 0
12 *1970:A *724:92 4.08514e-05
13 *2698:A *2227:B 9.42224e-05
14 *2698:A *2529:RESET_B 0
15 *2698:A *364:16 4.82919e-05
16 *2698:A *579:10 2.23407e-05
17 *2698:A *861:29 0
18 *2698:A *861:82 7.23602e-05
19 *174:25 *2227:B 4.66108e-05
20 *174:25 *2235:A 5.22973e-05
21 *174:25 *2529:CLK 1.60203e-05
22 *174:25 *580:12 4.36661e-05
23 *174:25 *724:92 7.00889e-06
24 *1971:A *1970:A 4.43871e-06
25 *1972:A *2698:A 9.50342e-06
26 *171:54 *2698:A 4.99619e-05
*RES
1 *2529:Q *174:4 1.6 
2 *174:4 *2698:A 9.47 
3 *174:4 *174:25 2.91 
4 *174:25 *1970:A 9.77 
5 *174:25 *2227:A 1.6 
*END

*D_NET *175 0.00194086
*CONN
*I *2237:A1 I *D sky130_fd_sc_hd__a21oi_1
*I *1969:A I *D sky130_fd_sc_hd__inv_2
*I *2228:B I *D sky130_fd_sc_hd__and3_1
*I *2530:Q O *D sky130_fd_sc_hd__dfrtp_1
*CAP
1 *2237:A1 7.7489e-05
2 *1969:A 0
3 *2228:B 8.52182e-05
4 *2530:Q 0.000472065
5 *175:14 0.000212404
6 *175:10 0.00067674
7 *2228:B *1966:A 7.23602e-05
8 *2228:B *2531:RESET_B 0
9 *2228:B *861:82 0.000226147
10 *2237:A1 *2531:RESET_B 4.49498e-05
11 *2237:A1 *176:14 1.83756e-05
12 *175:10 *2531:RESET_B 5.51158e-05
13 *175:10 *861:82 0
*RES
1 *2530:Q *175:10 9.48 
2 *175:10 *175:14 3.83 
3 *175:14 *2228:B 8.255 
4 *175:14 *1969:A 1.6 
5 *175:10 *2237:A1 5.43 
*END

*D_NET *176 0.00325331
*CONN
*I *2691:A I *D sky130_fd_sc_hd__dlygate4sd3_1
*I *2228:A I *D sky130_fd_sc_hd__and3_1
*I *1968:A I *D sky130_fd_sc_hd__inv_2
*I *2531:Q O *D sky130_fd_sc_hd__dfrtp_1
*CAP
1 *2691:A 0.000489367
2 *2228:A 2.78682e-05
3 *1968:A 0.00017467
4 *2531:Q 0.000164521
5 *176:14 0.000343056
6 *176:6 0.000794406
7 *1968:A *1966:A 0.000344454
8 *1968:A *2237:A2 1.61831e-05
9 *1968:A *2238:A 0.000145515
10 *1968:A *357:10 5.30673e-05
11 *1968:A *581:10 0.000124007
12 *2228:A *2237:A2 3.26889e-05
13 *2228:A *2693:A 0
14 *2691:A *2531:CLK 0.00011852
15 *176:6 *2230:A1 4.66742e-05
16 *176:14 *1966:A 0
17 *176:14 *2230:A1 2.03578e-05
18 *176:14 *2237:A2 1.61831e-05
19 *176:14 *2237:B1 0.000229897
20 *176:14 *2238:A 9.34967e-05
21 *2237:A1 *176:14 1.83756e-05
*RES
1 *2531:Q *176:6 3.43 
2 *176:6 *176:14 7.795 
3 *176:14 *1968:A 6.55 
4 *176:14 *2228:A 2.215 
5 *176:6 *2691:A 11.57 
*END

*D_NET *177 0.00219933
*CONN
*I *2229:A I *D sky130_fd_sc_hd__and2_1
*I *2239:A I *D sky130_fd_sc_hd__nor2_1
*I *2230:A2 I *D sky130_fd_sc_hd__a31o_1
*I *1967:A I *D sky130_fd_sc_hd__inv_2
*I *2532:Q O *D sky130_fd_sc_hd__dfrtp_1
*CAP
1 *2229:A 0
2 *2239:A 0.000201905
3 *2230:A2 5.83356e-05
4 *1967:A 7.14126e-05
5 *2532:Q 5.99973e-05
6 *177:14 0.000316695
7 *177:10 0.000388852
8 *177:8 5.99973e-05
9 *1967:A *2526:D 1.83756e-05
10 *2239:A *2239:B 0.000409518
11 *2239:A *581:19 9.50342e-06
12 *177:8 *2240:A 1.61831e-05
13 *177:8 *2241:B 4.65607e-05
14 *177:8 *724:68 0.000160635
15 *177:14 *581:19 0.000362972
16 gpio_out[15] *2239:A 1.83847e-05
17 *2118:A1 *177:14 0
18 *170:23 *2239:A 0
*RES
1 *2532:Q *177:8 3.445 
2 *177:8 *177:10 2 
3 *177:10 *177:14 6.185 
4 *177:14 *1967:A 2.74 
5 *177:14 *2230:A2 2.395 
6 *177:10 *2239:A 8.355 
7 *177:8 *2229:A 1.6 
*END

*D_NET *178 0.00177777
*CONN
*I *2689:A I *D sky130_fd_sc_hd__dlygate4sd3_1
*I *1966:A I *D sky130_fd_sc_hd__inv_2
*I *2533:Q O *D sky130_fd_sc_hd__dfrtp_1
*CAP
1 *2689:A 0.000191088
2 *1966:A 0.000281826
3 *2533:Q 0
4 *178:4 0.000472914
5 *1966:A *2230:A1 0.000116165
6 *1966:A *2237:A2 3.29376e-05
7 *1966:A *580:27 8.09332e-05
8 *1966:A *861:82 0.000134538
9 *2689:A *2237:B1 5.05521e-05
10 *1968:A *1966:A 0.000344454
11 *2228:B *1966:A 7.23602e-05
12 *176:14 *1966:A 0
*RES
1 *2533:Q *178:4 1.6 
2 *178:4 *1966:A 12.485 
3 *178:4 *2689:A 4.735 
*END

*D_NET *179 0.00180804
*CONN
*I *2526:D I *D sky130_fd_sc_hd__dfstp_1
*I *2230:X O *D sky130_fd_sc_hd__a31o_1
*CAP
1 *2526:D 0.000444213
2 *2230:X 0.000444213
3 *2526:D *2116:C1 0
4 *2526:D *2230:B1 0.000112447
5 *2526:D *2530:CLK 0.000162325
6 *2526:D *2595:A 3.09164e-05
7 *2526:D *357:10 0
8 *2526:D *580:12 1.26548e-05
9 *2526:D *580:27 0.000147967
10 *2526:D *581:10 9.5433e-05
11 *2526:D *717:200 4.43871e-06
12 *2526:D *724:10 4.82919e-05
13 *2526:D *724:25 0.000227543
14 *1967:A *2526:D 1.83756e-05
15 *1970:A *2526:D 5.92191e-05
*RES
1 *2230:X *2526:D 17.895 
*END

*D_NET *180 0.000600324
*CONN
*I *2527:D I *D sky130_fd_sc_hd__dfrtp_1
*I *2231:X O *D sky130_fd_sc_hd__xor2_1
*CAP
1 *2527:D 0.000158468
2 *2231:X 0.000158468
3 *2527:D *2527:RESET_B 9.08416e-05
4 *2527:D *2703:A 0
5 *2527:D *717:168 9.54399e-05
6 *173:10 *2527:D 9.71067e-05
*RES
1 *2231:X *2527:D 10.62 
*END

*D_NET *181 0.00141664
*CONN
*I *2528:D I *D sky130_fd_sc_hd__dfrtp_1
*I *2233:Y O *D sky130_fd_sc_hd__nor2_1
*CAP
1 *2528:D 0.000232185
2 *2233:Y 0.000232185
3 *2528:D *2233:A 2.16917e-05
4 *2528:D *2234:A 6.52265e-05
5 *2528:D *2234:B 1.61831e-05
6 *2528:D *364:16 4.82919e-05
7 *2528:D *862:59 0.000512717
8 *2232:A2 *2528:D 8.70844e-05
9 *171:54 *2528:D 8.49205e-05
10 *172:12 *2528:D 0.000116158
*RES
1 *2233:Y *2528:D 14.655 
*END

*D_NET *182 0.000402727
*CONN
*I *2529:D I *D sky130_fd_sc_hd__dfrtp_1
*I *2235:Y O *D sky130_fd_sc_hd__nor2_1
*CAP
1 *2529:D 0.000175992
2 *2235:Y 0.000175992
3 *2529:D *2235:A 0
4 *2529:D *2235:B 5.07419e-05
5 gpio_oeb[21] *2529:D 0
*RES
1 *2235:Y *2529:D 9.72 
*END

*D_NET *183 0.000330992
*CONN
*I *2530:D I *D sky130_fd_sc_hd__dfrtp_1
*I *2236:Y O *D sky130_fd_sc_hd__xnor2_1
*CAP
1 *2530:D 0.000158297
2 *2236:Y 0.000158297
3 *2530:D *2530:CLK 1.4399e-05
*RES
1 *2236:Y *2530:D 5.045 
*END

*D_NET *184 0.000267102
*CONN
*I *2531:D I *D sky130_fd_sc_hd__dfrtp_1
*I *2238:Y O *D sky130_fd_sc_hd__nor2_1
*CAP
1 *2531:D 0.000124858
2 *2238:Y 0.000124858
3 *2531:D *2238:B 1.7386e-05
4 *2531:D *2531:RESET_B 0
5 gpio_oeb[5] *2531:D 0
*RES
1 *2238:Y *2531:D 9.03 
*END

*D_NET *185 0.000681323
*CONN
*I *2532:D I *D sky130_fd_sc_hd__dfrtp_1
*I *2240:Y O *D sky130_fd_sc_hd__nor2_1
*CAP
1 *2532:D 0.000330107
2 *2240:Y 0.000330107
3 *2532:D *2240:A 0
4 *2532:D *2240:B 2.11084e-05
5 gpio_out[10] *2532:D 0
*RES
1 *2240:Y *2532:D 11.19 
*END

*D_NET *186 0.000246549
*CONN
*I *2533:D I *D sky130_fd_sc_hd__dfrtp_1
*I *2241:Y O *D sky130_fd_sc_hd__xnor2_1
*CAP
1 *2533:D 8.34353e-05
2 *2241:Y 8.34353e-05
3 *2533:D *2119:A2 7.31789e-06
4 *2533:D *2241:A 7.23602e-05
5 *2533:D *724:53 0
*RES
1 *2241:Y *2533:D 8.56875 
*END

*D_NET *187 0.00665595
*CONN
*I *2525:D I *D sky130_fd_sc_hd__dfrtp_1
*I *2119:X O *D sky130_fd_sc_hd__a22o_1
*CAP
1 *2525:D 0.0030763
2 *2119:X 0.0030763
3 *2525:D *2119:B2 0
4 *2525:D *220:35 0.000397058
5 *2525:D *489:65 5.78448e-05
6 *2525:D *731:111 6.63219e-06
7 *2525:D *851:74 0
8 *2525:D *851:81 0
9 *168:8 *2525:D 4.18203e-05
*RES
1 *2119:X *2525:D 16.4075 
*END

*D_NET *188 0.00285616
*CONN
*I *2650:A I *D sky130_fd_sc_hd__dlygate4sd3_1
*I *2439:Q O *D sky130_fd_sc_hd__dfrtp_1
*CAP
1 *2650:A 0.00108393
2 *2439:Q 0.00108393
3 *2650:A *2113:B2 9.78082e-05
4 *2650:A *2114:C1 0.000227529
5 *2650:A *2563:D 8.40269e-05
6 *2650:A *2564:CLK 5.83121e-06
7 *2650:A *2565:CLK 7.07801e-05
8 *2650:A *2703:A 8.23457e-05
9 *2112:A1 *2650:A 8.23457e-05
10 *164:12 *2650:A 3.7634e-05
*RES
1 *2439:Q *2650:A 22.965 
*END

*D_NET *189 0.00118356
*CONN
*I *2692:A I *D sky130_fd_sc_hd__dlygate4sd3_1
*I *2440:Q O *D sky130_fd_sc_hd__dfrtp_1
*CAP
1 *2692:A 0.000357713
2 *2440:Q 0.000357713
3 *2692:A *2431:A1 8.8266e-05
4 *2692:A *2433:A1 0.000116165
5 *2692:A *2433:S 0
6 *2692:A *489:29 8.09157e-05
7 *2692:A *489:40 0.000159755
8 *2431:A0 *2692:A 2.30292e-05
*RES
1 *2440:Q *2692:A 13.485 
*END

*D_NET *190 0.000391604
*CONN
*I *2648:A I *D sky130_fd_sc_hd__dlygate4sd3_1
*I *2441:Q O *D sky130_fd_sc_hd__dfrtp_1
*CAP
1 *2648:A 0.000156708
2 *2441:Q 0.000156708
3 *2648:A *2433:A1 0
4 *2648:A *858:36 7.81876e-05
*RES
1 *2441:Q *2648:A 9.975 
*END

*D_NET *191 0.000170289
*CONN
*I *2656:A I *D sky130_fd_sc_hd__dlygate4sd3_1
*I *2442:Q O *D sky130_fd_sc_hd__dfrtp_1
*CAP
1 *2656:A 8.51447e-05
2 *2442:Q 8.51447e-05
3 *2656:A *489:40 0
4 *2656:A *489:53 0
5 *2656:A *858:36 0
*RES
1 *2442:Q *2656:A 8.58 
*END

*D_NET *192 0.000151255
*CONN
*I *2654:A I *D sky130_fd_sc_hd__dlygate4sd3_1
*I *2443:Q O *D sky130_fd_sc_hd__dfrtp_1
*CAP
1 *2654:A 7.56277e-05
2 *2443:Q 7.56277e-05
*RES
1 *2443:Q *2654:A 4.34 
*END

*D_NET *193 0.0016718
*CONN
*I *2652:A I *D sky130_fd_sc_hd__dlygate4sd3_1
*I *2444:Q O *D sky130_fd_sc_hd__dfrtp_1
*CAP
1 *2652:A 0.000713829
2 *2444:Q 0.000713829
3 *2652:A *2436:A1 8.73389e-06
4 *2652:A *359:8 0.000142669
5 *2436:A0 *2652:A 9.2741e-05
*RES
1 *2444:Q *2652:A 13.67 
*END

*D_NET *194 0.000275248
*CONN
*I *2670:A I *D sky130_fd_sc_hd__dlygate4sd3_1
*I *2445:Q O *D sky130_fd_sc_hd__dfrtp_1
*CAP
1 *2670:A 0.000130425
2 *2445:Q 0.000130425
3 *2670:A *2437:A1 0
4 *2670:A *2438:S 1.4399e-05
5 *2670:A *2570:CLK 0
6 *2670:A *858:62 0
*RES
1 *2445:Q *2670:A 9.03 
*END

*D_NET *195 0.000622169
*CONN
*I *2718:A I *D sky130_fd_sc_hd__dlygate4sd3_1
*I *2446:Q O *D sky130_fd_sc_hd__dfrtp_1
*CAP
1 *2718:A 0.00027119
2 *2446:Q 0.00027119
3 *2718:A *2438:A1 5.83121e-06
4 *2718:A *2438:S 0
5 *2718:A *858:71 2.45182e-05
6 *170:12 *2718:A 4.94404e-05
*RES
1 *2446:Q *2718:A 11.52 
*END

*D_NET *196 0.00500523
*CONN
*I *2126:A2 I *D sky130_fd_sc_hd__a21o_1
*I *2125:A2 I *D sky130_fd_sc_hd__a21oi_1
*I *2123:A_N I *D sky130_fd_sc_hd__and2b_1
*I *2124:A2 I *D sky130_fd_sc_hd__o21ai_1
*I *2086:B I *D sky130_fd_sc_hd__and3_1
*I *2447:Q O *D sky130_fd_sc_hd__dfrtp_1
*CAP
1 *2126:A2 0
2 *2125:A2 0.000265706
3 *2123:A_N 5.64268e-05
4 *2124:A2 4.11883e-05
5 *2086:B 8.79073e-05
6 *2447:Q 0.000341521
7 *196:50 0.000387522
8 *196:39 0.000130142
9 *196:28 0.000608342
10 *196:12 0.000838391
11 *2086:B *2086:C 9.73506e-05
12 *2123:A_N *2447:CLK 7.40446e-05
13 *2123:A_N *723:51 4.82863e-05
14 *2124:A2 *2086:A 3.64998e-06
15 *2124:A2 *2124:B1 5.83121e-06
16 *2124:A2 *197:16 8.34281e-06
17 *2125:A2 *2123:B 5.16418e-05
18 *2125:A2 *2125:A1 4.99619e-05
19 *2125:A2 *2125:B1 0.000194472
20 *2125:A2 *2448:CLK 7.44453e-05
21 *2125:A2 *2449:CLK 1.07797e-05
22 *2125:A2 *2662:A 0
23 *2125:A2 *2663:A 0.00012657
24 *2125:A2 *2699:A 0
25 *2125:A2 *723:16 0
26 *196:12 *2447:RESET_B 2.20753e-05
27 *196:12 *2449:RESET_B 9.30717e-05
28 *196:12 *2642:A 0
29 *196:12 *2704:A 2.84137e-05
30 *196:12 *198:14 9.86611e-05
31 *196:28 *2086:A 7.47145e-05
32 *196:28 *2086:C 4.52407e-05
33 *196:28 *2126:A1 4.82919e-05
34 *196:28 *2127:C 0.000124007
35 *196:28 *2128:A2 2.66586e-05
36 *196:28 *2133:A 2.06853e-05
37 *196:28 *2133:B 0.000267369
38 *196:28 *198:14 4.82919e-05
39 *196:28 *476:34 2.5441e-05
40 *196:28 *508:10 3.09233e-05
41 *196:28 *508:21 4.21314e-05
42 *196:39 *2086:A 6.38291e-05
43 *196:39 *508:21 7.06865e-05
44 *196:50 *2086:A 6.75724e-05
45 *196:50 *2123:B 0.00017354
46 *196:50 *2449:CLK 7.71016e-05
47 *196:50 *2558:D 0
48 *196:50 *508:21 5.4003e-05
*RES
1 *2447:Q *196:12 11.105 
2 *196:12 *196:28 10.385 
3 *196:28 *2086:B 4.74 
4 *196:28 *196:39 0.87 
5 *196:39 *2124:A2 4.05 
6 *196:39 *196:50 2.655 
7 *196:50 *2123:A_N 4.74 
8 *196:50 *2125:A2 9.825 
9 *196:12 *2126:A2 1.6 
*END

*D_NET *197 0.00505017
*CONN
*I *2662:A I *D sky130_fd_sc_hd__dlygate4sd3_1
*I *2126:A1 I *D sky130_fd_sc_hd__a21o_1
*I *2124:A1 I *D sky130_fd_sc_hd__o21ai_1
*I *2086:A I *D sky130_fd_sc_hd__and3_1
*I *2448:Q O *D sky130_fd_sc_hd__dfrtp_1
*CAP
1 *2662:A 0.000419446
2 *2126:A1 0.000596126
3 *2124:A1 0
4 *2086:A 0.000165172
5 *2448:Q 1.83028e-05
6 *197:16 0.000218691
7 *197:10 0.000840576
8 *197:6 0.00062868
9 *2086:A *2449:CLK 4.66108e-05
10 *2086:A *2558:D 0
11 *2086:A *508:10 1.34361e-05
12 *2126:A1 *2087:A 0.00042018
13 *2126:A1 *2123:B 1.52184e-05
14 *2126:A1 *2127:B 0
15 *2126:A1 *2449:D 0
16 *2126:A1 *2704:A 7.23602e-05
17 *2126:A1 *476:25 8.08429e-05
18 *2126:A1 *508:10 6.99978e-05
19 *2126:A1 *508:21 8.5225e-05
20 *2662:A *2125:A1 0.000313857
21 *2662:A *2125:B1 0
22 *2662:A *2448:CLK 0.000152328
23 *2662:A *2448:D 6.26945e-05
24 *2662:A *2644:A 0
25 *2662:A *859:43 6.42013e-05
26 *2662:A *862:8 0
27 *197:6 *2448:CLK 4.66108e-05
28 *197:6 *859:43 1.56428e-05
29 *197:10 *2123:B 1.79098e-05
30 *197:10 *2125:B1 0.000287344
31 *197:16 *2124:B1 4.82919e-05
32 *197:16 *2449:CLK 8.40269e-05
33 *2124:A2 *2086:A 3.64998e-06
34 *2124:A2 *197:16 8.34281e-06
35 *2125:A2 *2662:A 0
36 *196:28 *2086:A 7.47145e-05
37 *196:28 *2126:A1 4.82919e-05
38 *196:39 *2086:A 6.38291e-05
39 *196:50 *2086:A 6.75724e-05
*RES
1 *2448:Q *197:6 2.05 
2 *197:6 *197:10 5.93 
3 *197:10 *197:16 3.245 
4 *197:16 *2086:A 8.705 
5 *197:16 *2124:A1 1.6 
6 *197:10 *2126:A1 17.05 
7 *197:6 *2662:A 14.165 
*END

*D_NET *198 0.00240249
*CONN
*I *2086:C I *D sky130_fd_sc_hd__and3_1
*I *2126:B1 I *D sky130_fd_sc_hd__a21o_1
*I *2449:Q O *D sky130_fd_sc_hd__dfrtp_1
*CAP
1 *2086:C 0.000380652
2 *2126:B1 0
3 *2449:Q 0.000156328
4 *198:14 0.000536979
5 *2086:C *2127:B 4.82863e-05
6 *2086:C *2128:A2 4.66108e-05
7 *2086:C *2133:A 0.000122337
8 *2086:C *2133:B 9.80032e-06
9 *2086:C *476:34 0.000312182
10 *198:14 *2128:A2 1.19928e-05
11 *198:14 *2128:B1 0.000182343
12 *198:14 *2704:A 0.000305435
13 *2086:B *2086:C 9.73506e-05
14 *196:12 *198:14 9.86611e-05
15 *196:28 *2086:C 4.52407e-05
16 *196:28 *198:14 4.82919e-05
*RES
1 *2449:Q *198:14 11.06 
2 *198:14 *2126:B1 1.6 
3 *198:14 *2086:C 9.22 
*END

*D_NET *199 0.00280856
*CONN
*I *2702:A I *D sky130_fd_sc_hd__dlygate4sd3_1
*I *2087:A I *D sky130_fd_sc_hd__and2_1
*I *2132:A1 I *D sky130_fd_sc_hd__a31o_1
*I *2450:Q O *D sky130_fd_sc_hd__dfrtp_1
*CAP
1 *2702:A 5.28397e-05
2 *2087:A 0.000344566
3 *2132:A1 2.23845e-05
4 *2450:Q 8.06456e-05
5 *199:23 0.000503459
6 *199:10 0.000209083
7 *2087:A *2704:A 4.66108e-05
8 *2087:A *476:25 0.000427094
9 *2087:A *480:27 7.40016e-05
10 *2087:A *508:10 8.8266e-05
11 *2132:A1 *2132:A2 8.40213e-05
12 *2132:A1 *2519:RESET_B 1.91597e-05
13 *2132:A1 *201:6 4.82863e-05
14 *199:10 *2088:A 0.000114492
15 *199:10 *855:8 4.19967e-05
16 *199:10 *855:19 4.99619e-05
17 *199:23 *2088:A 2.07184e-05
18 *199:23 *2132:A3 5.27353e-05
19 *199:23 *2704:A 1.52184e-05
20 *199:23 *855:8 9.28444e-05
21 *2126:A1 *2087:A 0.00042018
*RES
1 *2450:Q *199:10 5.43 
2 *199:10 *2132:A1 4.395 
3 *199:10 *199:23 4.655 
4 *199:23 *2087:A 10 
5 *199:23 *2702:A 2.41 
*END

*D_NET *200 0.00307579
*CONN
*I *2660:A I *D sky130_fd_sc_hd__dlygate4sd3_1
*I *2132:A2 I *D sky130_fd_sc_hd__a31o_1
*I *2130:A1 I *D sky130_fd_sc_hd__o21ai_1
*I *2088:B I *D sky130_fd_sc_hd__and3_1
*I *2451:Q O *D sky130_fd_sc_hd__dfrtp_1
*CAP
1 *2660:A 0
2 *2132:A2 0.000239239
3 *2130:A1 0
4 *2088:B 0.00014421
5 *2451:Q 0
6 *200:34 0.000342792
7 *200:10 0.000565343
8 *200:4 0.000524687
9 *2088:B *2130:B1 0.000123225
10 *2088:B *2661:A 0
11 *2088:B *855:33 2.67022e-05
12 *2132:A2 *2131:A1 0.000122325
13 *2132:A2 *2519:RESET_B 0.000116912
14 *2132:A2 *201:6 2.30292e-05
15 *200:10 *2088:A 0.000209179
16 *200:10 *2451:D 3.05373e-05
17 *200:10 *2661:A 0
18 *200:10 *855:33 6.7432e-05
19 *200:34 *2642:A 0.000293733
20 *200:34 *856:8 0.000162419
21 *2132:A1 *2132:A2 8.40213e-05
*RES
1 *2451:Q *200:4 1.6 
2 *200:4 *200:10 8.21 
3 *200:10 *2088:B 5.61 
4 *200:10 *2130:A1 3.6 
5 *200:4 *200:34 7.42 
6 *200:34 *2132:A2 6.22 
7 *200:34 *2660:A 1.6 
*END

*D_NET *201 0.0016326
*CONN
*I *2132:B1 I *D sky130_fd_sc_hd__a31o_1
*I *2088:A I *D sky130_fd_sc_hd__and3_1
*I *2452:Q O *D sky130_fd_sc_hd__dfrtp_1
*CAP
1 *2132:B1 0
2 *2088:A 0.000354358
3 *2452:Q 6.40097e-05
4 *201:6 0.000418367
5 *2088:A *2131:A1 0
6 *2088:A *2131:A2 1.16578e-05
7 *2088:A *2132:A3 1.22676e-05
8 *2088:A *2451:D 3.26822e-05
9 *2088:A *2451:RESET_B 0
10 *2088:A *2452:RESET_B 0
11 *2088:A *2661:A 0
12 *2088:A *477:31 4.21973e-05
13 *2088:A *480:23 0
14 *2088:A *855:33 0
15 *201:6 *2452:RESET_B 4.66742e-05
16 *201:6 *2519:RESET_B 0.00023468
17 *2132:A1 *201:6 4.82863e-05
18 *2132:A2 *201:6 2.30292e-05
19 *199:10 *2088:A 0.000114492
20 *199:23 *2088:A 2.07184e-05
21 *200:10 *2088:A 0.000209179
*RES
1 *2452:Q *201:6 3.775 
2 *201:6 *2088:A 12.365 
3 *201:6 *2132:B1 1.6 
*END

*D_NET *202 0.000432887
*CONN
*I *2090:B I *D sky130_fd_sc_hd__nor2_1
*I *2453:Q O *D sky130_fd_sc_hd__dfrtp_1
*CAP
1 *2090:B 0.000213981
2 *2453:Q 0.000213981
3 *2090:B *2453:RESET_B 0
4 *2090:B *480:10 4.9253e-06
5 gpio_oeb[26] *2090:B 0
*RES
1 *2453:Q *2090:B 10.485 
*END

*D_NET *203 0.000118074
*CONN
*I *2090:A I *D sky130_fd_sc_hd__nor2_1
*I *2455:Q O *D sky130_fd_sc_hd__dfrtp_1
*CAP
1 *2090:A 4.44068e-05
2 *2455:Q 4.44068e-05
3 *2090:A *480:10 1.83847e-05
4 *2090:A *855:48 1.08758e-05
*RES
1 *2455:Q *2090:A 4.01 
*END

*D_NET *204 0.000287903
*CONN
*I *2447:D I *D sky130_fd_sc_hd__dfrtp_1
*I *2123:X O *D sky130_fd_sc_hd__and2b_1
*CAP
1 *2447:D 0.000112256
2 *2123:X 0.000112256
3 *2447:D *2447:CLK 2.49909e-05
4 *2447:D *2644:A 3.83995e-05
*RES
1 *2123:X *2447:D 5.045 
*END

*D_NET *205 0.000314709
*CONN
*I *2663:A I *D sky130_fd_sc_hd__dlygate4sd3_1
*I *2125:Y O *D sky130_fd_sc_hd__a21oi_1
*CAP
1 *2663:A 8.25548e-05
2 *2125:Y 8.25548e-05
3 *2663:A *2125:A1 2.30292e-05
4 *2125:A2 *2663:A 0.00012657
*RES
1 *2125:Y *2663:A 5.045 
*END

*D_NET *206 0.000444662
*CONN
*I *2449:D I *D sky130_fd_sc_hd__dfrtp_1
*I *2127:X O *D sky130_fd_sc_hd__and3b_1
*CAP
1 *2449:D 0.000181889
2 *2127:X 0.000181889
3 *2449:D *2127:B 8.53113e-06
4 *2449:D *2128:B1 7.23533e-05
5 *2126:A1 *2449:D 0
*RES
1 *2127:X *2449:D 9.60375 
*END

*D_NET *207 0.000429959
*CONN
*I *2450:D I *D sky130_fd_sc_hd__dfrtp_1
*I *2129:Y O *D sky130_fd_sc_hd__nor2_1
*CAP
1 *2450:D 5.88484e-05
2 *2129:Y 5.88484e-05
3 *2450:D *2091:A 0.000238919
4 *2450:D *2450:CLK 7.3343e-05
*RES
1 *2129:Y *2450:D 5.375 
*END

*D_NET *208 0.00114402
*CONN
*I *2661:A I *D sky130_fd_sc_hd__dlygate4sd3_1
*I *2131:Y O *D sky130_fd_sc_hd__a21oi_1
*CAP
1 *2661:A 0.0002971
2 *2131:Y 0.0002971
3 *2661:A *2131:A1 0.000297747
4 *2661:A *2131:A2 7.35729e-05
5 *2661:A *2642:A 0.000178496
6 *2088:A *2661:A 0
7 *2088:B *2661:A 0
8 *200:10 *2661:A 0
*RES
1 *2131:Y *2661:A 13.92 
*END

*D_NET *209 0.00099818
*CONN
*I *2452:D I *D sky130_fd_sc_hd__dfrtp_1
*I *2133:X O *D sky130_fd_sc_hd__and2_1
*CAP
1 *2452:D 0.00023295
2 *2133:X 0.00023295
3 *2452:D *2091:C 0.000246729
4 *2452:D *2122:A_N 1.1561e-05
5 *2452:D *2129:B 4.19967e-05
6 *2452:D *2519:RESET_B 0.000157968
7 *2452:D *476:12 0
8 *2452:D *476:25 0
9 *2452:D *508:10 7.4027e-05
*RES
1 *2133:X *2452:D 13.14 
*END

*D_NET *210 0.00294693
*CONN
*I *2222:A I *D sky130_fd_sc_hd__and2_1
*I *2221:A I *D sky130_fd_sc_hd__or2_1
*I *2474:Q O *D sky130_fd_sc_hd__dfrtp_1
*CAP
1 *2222:A 0.000161822
2 *2221:A 0.000427317
3 *2474:Q 0.000350133
4 *210:12 0.000939271
5 *2221:A *2225:A0 1.04217e-05
6 *2221:A *2476:CLK 5.34747e-05
7 *2221:A *2476:RESET_B 0.00019568
8 *2221:A *577:12 5.60943e-05
9 *2222:A *2222:B 0.000404416
10 *2222:A *2223:B1 2.75538e-05
11 *2222:A *2225:A0 7.63204e-05
12 *2222:A *2225:S 2.63378e-05
13 *210:12 *2222:B 7.23533e-05
14 *210:12 *2223:B1 2.46089e-05
15 *210:12 *2474:D 1.83847e-05
16 *210:12 *2474:RESET_B 2.1971e-05
17 *210:12 *853:71 8.07672e-05
*RES
1 *2474:Q *210:12 8.13 
2 *210:12 *2221:A 9.24 
3 *210:12 *2222:A 8.295 
*END

*D_NET *211 0.00535908
*CONN
*I *2217:A_N I *D sky130_fd_sc_hd__nand2b_1
*I *2204:A I *D sky130_fd_sc_hd__nor2_2
*I *2225:A0 I *D sky130_fd_sc_hd__mux2_1
*I *2224:A0 I *D sky130_fd_sc_hd__mux2_1
*I *2202:A I *D sky130_fd_sc_hd__and2_2
*I *2218:A I *D sky130_fd_sc_hd__nor2_1
*I *2201:A I *D sky130_fd_sc_hd__and3_2
*I *2475:Q O *D sky130_fd_sc_hd__dfrtp_1
*CAP
1 *2217:A_N 1.83422e-05
2 *2204:A 0
3 *2225:A0 0.000421303
4 *2224:A0 0
5 *2202:A 0
6 *2218:A 0.00013683
7 *2201:A 0.000136287
8 *2475:Q 0
9 *211:95 0.000394684
10 *211:33 0.000250991
11 *211:27 0.000134972
12 *211:25 0.000510702
13 *211:10 0.000584605
14 *211:4 0.000756071
15 *2201:A *2219:B1 4.34477e-05
16 *2201:A *2224:A1 5.23093e-05
17 *2201:A *566:25 6.52265e-05
18 *2201:A *722:51 0
19 *2217:A_N *2445:CLK 4.99619e-05
20 *2217:A_N *574:6 7.66083e-05
21 *2218:A *2223:A2 0.000119756
22 *2218:A *2223:A3 4.47209e-05
23 *2218:A *2223:B1 0
24 *2218:A *2224:A1 1.43521e-05
25 *2218:A *722:36 0.000157619
26 *2225:A0 *2224:S 0.000188169
27 *2225:A0 *2225:S 0.000140912
28 *211:10 *2219:B1 2.97004e-06
29 *211:10 *2220:A1 0
30 *211:10 *2475:RESET_B 0.000120741
31 *211:10 *722:51 6.44715e-05
32 *211:25 *2224:S 3.23663e-05
33 *211:33 *2224:A1 4.9191e-05
34 *211:33 *722:36 2.17285e-05
35 *211:33 *722:51 0.000115046
36 *211:95 *2204:B 4.9253e-06
37 *211:95 *2220:B1 0
38 *211:95 *2445:CLK 2.46089e-05
39 *211:95 *2446:D 0.000116158
40 *211:95 *2475:RESET_B 0.000266453
41 *211:95 *574:6 5.92345e-05
42 *1975:A *2201:A 4.99619e-05
43 *2218:B *2218:A 4.66108e-05
44 *2221:A *2225:A0 1.04217e-05
45 *2222:A *2225:A0 7.63204e-05
46 *2225:A1 *211:10 0
*RES
1 *2475:Q *211:4 1.6 
2 *211:4 *211:10 7.685 
3 *211:10 *2201:A 6.465 
4 *211:10 *211:25 3.14 
5 *211:25 *211:27 0.36 
6 *211:27 *211:33 4.43 
7 *211:33 *2218:A 6.99 
8 *211:33 *2202:A 3.6 
9 *211:27 *2224:A0 1.6 
10 *211:25 *2225:A0 13.715 
11 *211:4 *211:95 10.435 
12 *211:95 *2204:A 1.6 
13 *211:95 *2217:A_N 2.395 
*END

*D_NET *212 0.000677174
*CONN
*I *2474:D I *D sky130_fd_sc_hd__dfrtp_1
*I *2223:X O *D sky130_fd_sc_hd__o31a_1
*CAP
1 *2474:D 0.000203333
2 *2223:X 0.000203333
3 *2474:D *2222:B 4.40812e-05
4 *2474:D *2223:B1 0.000117825
5 *2474:D *2474:RESET_B 9.02174e-05
6 *210:12 *2474:D 1.83847e-05
*RES
1 *2223:X *2474:D 11.445 
*END

*D_NET *213 0.000459267
*CONN
*I *2475:D I *D sky130_fd_sc_hd__dfrtp_1
*I *2224:X O *D sky130_fd_sc_hd__mux2_1
*CAP
1 *2475:D 9.38184e-05
2 *2224:X 9.38184e-05
3 *2475:D *2224:S 0.00015311
4 *2225:A1 *2475:D 0.00011852
*RES
1 *2224:X *2475:D 9.375 
*END

*D_NET *214 0.000475382
*CONN
*I *2476:D I *D sky130_fd_sc_hd__dfrtp_1
*I *2225:X O *D sky130_fd_sc_hd__mux2_1
*CAP
1 *2476:D 0.000143935
2 *2225:X 0.000143935
3 *2476:D *2475:CLK 8.65961e-05
4 *2476:D *2490:RESET_B 7.06865e-05
5 *2476:D *577:12 3.02303e-05
*RES
1 *2225:X *2476:D 9.36375 
*END

*D_NET *215 0.00237851
*CONN
*I *2205:A I *D sky130_fd_sc_hd__xor2_1
*I *2705:A I *D sky130_fd_sc_hd__dlygate4sd3_1
*I *2280:B I *D sky130_fd_sc_hd__and3_1
*I *2515:Q O *D sky130_fd_sc_hd__dfrtp_1
*CAP
1 *2205:A 0
2 *2705:A 0.000825849
3 *2280:B 0
4 *2515:Q 4.09541e-05
5 *215:21 0.000965767
6 *215:10 0.000180872
7 *2705:A *2205:B 2.10433e-05
8 *2705:A *2616:A 0
9 *2705:A *717:142 7.00419e-05
10 *2705:A *857:85 1.00941e-05
11 *2705:A *857:110 1.92979e-05
12 *215:10 *2271:A2 7.4027e-05
13 *215:10 *814:47 0
14 *215:21 *2281:B1 0.000124007
15 *215:21 *845:55 4.65607e-05
*RES
1 *2515:Q *215:10 6.47 
2 *215:10 *2280:B 1.6 
3 *215:10 *215:21 2.805 
4 *215:21 *2705:A 8.61793 
5 *215:21 *2205:A 1.6 
*END

*D_NET *216 0.00366964
*CONN
*I *2206:A1 I *D sky130_fd_sc_hd__a221o_1
*I *2709:A I *D sky130_fd_sc_hd__dlygate4sd3_1
*I *2207:B I *D sky130_fd_sc_hd__xor2_1
*I *2282:B I *D sky130_fd_sc_hd__and3_1
*I *2508:Q O *D sky130_fd_sc_hd__dfrtp_1
*CAP
1 *2206:A1 0.000159368
2 *2709:A 0.000126894
3 *2207:B 0.000171941
4 *2282:B 0.000129967
5 *2508:Q 0
6 *216:28 0.000467324
7 *216:13 0.000505251
8 *216:4 0.000282214
9 *2206:A1 *2205:B 0
10 *2206:A1 *2206:B1 2.30292e-05
11 *2206:A1 *2206:B2 1.12643e-05
12 *2206:A1 *2208:A2 0.000285917
13 *2206:A1 *2208:B1 6.49856e-05
14 *2206:A1 *2208:C1 3.96737e-05
15 *2206:A1 *717:142 9.30787e-05
16 *2207:B *2509:RESET_B 9.05299e-05
17 *2207:B *217:14 0.000116158
18 *2207:B *814:47 0
19 *2207:B *814:56 0
20 *2207:B *845:98 0.000471294
21 *2282:B *2282:A 2.77283e-05
22 *2282:B *820:23 5.83121e-06
23 *2709:A *2203:B1 6.01999e-05
24 *2709:A *2205:B 0
25 *2709:A *2206:B2 4.99619e-05
26 *2709:A *2281:B1 2.30292e-05
27 *2709:A *2509:RESET_B 5.07362e-05
28 *2709:A *717:142 8.6313e-05
29 *2709:A *857:85 0.000161172
30 *216:13 *2282:A 1.03323e-05
31 *216:13 *2509:RESET_B 5.05521e-05
32 *216:28 *2509:RESET_B 0.000104892
*RES
1 *2508:Q *216:4 1.6 
2 *216:4 *2282:B 3.085 
3 *216:4 *216:13 1.83 
4 *216:13 *2207:B 11.06 
5 *216:13 *216:28 4.175 
6 *216:28 *2709:A 7.305 
7 *216:28 *2206:A1 7.965 
*END

*D_NET *217 0.00233187
*CONN
*I *2701:A I *D sky130_fd_sc_hd__dlygate4sd3_1
*I *2209:B I *D sky130_fd_sc_hd__xor2_1
*I *2284:B I *D sky130_fd_sc_hd__and3_1
*I *2208:A1 I *D sky130_fd_sc_hd__a221o_1
*I *2509:Q O *D sky130_fd_sc_hd__dfrtp_1
*CAP
1 *2701:A 3.02564e-05
2 *2209:B 0.000165057
3 *2284:B 0.0001125
4 *2208:A1 0.000108528
5 *2509:Q 0.000204176
6 *217:29 0.000316782
7 *217:16 0.000147753
8 *217:14 0.000234433
9 *2208:A1 *2208:B2 0.000163992
10 *2208:A1 *717:142 3.59997e-05
11 *2208:A1 *717:160 2.54606e-05
12 *2209:B *2209:A 5.83121e-06
13 *2209:B *2286:A 0.000100528
14 *2209:B *222:34 3.31204e-05
15 *2209:B *222:45 7.17811e-05
16 *2209:B *222:62 2.86623e-05
17 *2209:B *717:218 2.25161e-05
18 *2284:B *2284:A 4.21973e-05
19 *2284:B *2285:B1 8.65961e-05
20 *217:14 *2283:A1 5.83121e-06
21 *217:14 *222:23 0.000118081
22 *217:14 *814:47 0
23 *217:14 *814:56 0
24 *217:29 *2208:B2 0.000110683
25 *217:29 *717:160 2.24423e-05
26 *217:29 *717:218 2.25075e-05
27 *2207:B *217:14 0.000116158
*RES
1 *2509:Q *217:14 9.17 
2 *217:14 *217:16 2 
3 *217:16 *2208:A1 5.94 
4 *217:16 *217:29 1.38 
5 *217:29 *2284:B 5.085 
6 *217:29 *2209:B 7.305 
7 *217:14 *2701:A 2.05 
*END

*D_NET *218 0.00271858
*CONN
*I *2706:A I *D sky130_fd_sc_hd__dlygate4sd3_1
*I *2210:A1 I *D sky130_fd_sc_hd__a221o_1
*I *2211:B I *D sky130_fd_sc_hd__xor2_1
*I *2286:B I *D sky130_fd_sc_hd__and3_1
*I *2510:Q O *D sky130_fd_sc_hd__dfrtp_1
*CAP
1 *2706:A 4.19954e-05
2 *2210:A1 4.12451e-05
3 *2211:B 0
4 *2286:B 0.000258671
5 *2510:Q 2.44162e-05
6 *218:30 0.000161203
7 *218:14 0.000473511
8 *218:6 0.000317218
9 *2210:A1 *566:35 0.000187759
10 *2210:A1 *567:24 0.000187759
11 *2210:A1 *567:28 9.50342e-06
12 *2286:B *2286:A 0.000256469
13 *2286:B *2286:C 1.56428e-05
14 *2706:A *2510:RESET_B 4.66826e-05
15 *218:6 *2285:A1 7.00889e-06
16 *218:6 *2510:RESET_B 2.49909e-05
17 *218:14 *2212:B2 9.66021e-05
18 *218:14 *2286:A 0.000115837
19 *218:14 *2577:A 1.56428e-05
20 *218:14 *222:62 8.49205e-05
21 *218:14 *565:32 0.000109441
22 *218:14 *717:218 0.00013521
23 *218:30 *2285:A1 2.05056e-05
24 *218:30 *2510:RESET_B 8.63479e-05
*RES
1 *2510:Q *218:6 2.05 
2 *218:6 *218:14 9.61 
3 *218:14 *2286:B 6.805 
4 *218:14 *2211:B 1.6 
5 *218:6 *218:30 1.485 
6 *218:30 *2210:A1 7.745 
7 *218:30 *2706:A 2.395 
*END

*D_NET *219 0.00389549
*CONN
*I *2288:B I *D sky130_fd_sc_hd__and3_1
*I *2212:A1 I *D sky130_fd_sc_hd__a221o_1
*I *2213:B I *D sky130_fd_sc_hd__xor2_1
*I *2711:A I *D sky130_fd_sc_hd__dlygate4sd3_1
*I *2511:Q O *D sky130_fd_sc_hd__dfrtp_1
*CAP
1 *2288:B 0
2 *2212:A1 0.000185741
3 *2213:B 0
4 *2711:A 0.000335828
5 *2511:Q 0.000252378
6 *219:35 0.000333048
7 *219:22 0.000707301
8 *219:14 0.000476543
9 *2212:A1 *2212:B1 2.75145e-05
10 *2212:A1 *2212:B2 1.12643e-05
11 *2212:A1 *2214:B2 0.000105853
12 *2212:A1 *221:48 0.000226735
13 *2212:A1 *565:32 9.80032e-06
14 *2711:A *2286:C 0
15 *2711:A *2510:D 0.000166346
16 *2711:A *222:62 0
17 *2711:A *222:66 0
18 *2711:A *722:36 0
19 *219:14 *871:DIODE 3.76596e-05
20 *219:14 *722:36 0.000211083
21 *219:14 *814:84 0.00016271
22 *219:22 *871:DIODE 6.61752e-05
23 *219:22 *2289:A2 0.000120186
24 *219:22 *221:48 0.00025143
25 *219:22 *722:36 0
26 *219:35 *221:48 0.000207896
*RES
1 *2511:Q *219:14 10.025 
2 *219:14 *219:22 9.28 
3 *219:22 *2711:A 11.57 
4 *219:22 *219:35 3.21 
5 *219:35 *2213:B 1.6 
6 *219:35 *2212:A1 5.875 
7 *219:14 *2288:B 1.6 
*END

*D_NET *220 0.00468104
*CONN
*I *2712:A I *D sky130_fd_sc_hd__dlygate4sd3_1
*I *2214:A1 I *D sky130_fd_sc_hd__a221o_1
*I *2215:B I *D sky130_fd_sc_hd__xor2_1
*I *2290:B I *D sky130_fd_sc_hd__and3_1
*I *2512:Q O *D sky130_fd_sc_hd__dfrtp_1
*CAP
1 *2712:A 0
2 *2214:A1 0.000286783
3 *2215:B 0
4 *2290:B 7.91278e-05
5 *2512:Q 0
6 *220:35 0.00116514
7 *220:21 0.00145478
8 *220:4 0.000655549
9 *2214:A1 *2214:B1 1.83756e-05
10 *2214:A1 *2214:B2 2.49708e-05
11 *2214:A1 *2214:C1 4.66108e-05
12 *2214:A1 *2215:A 4.82863e-05
13 *2214:A1 *2216:B2 7.35729e-05
14 *2290:B *842:118 0.00012657
15 *220:21 *2586:A 0.000141599
16 *220:21 *368:10 5.34747e-05
17 *220:21 *731:98 7.06865e-05
18 *220:21 *851:53 0
19 *220:21 *851:60 0
20 *220:35 *222:88 8.41703e-06
21 *1977:A *220:21 3.00381e-05
22 *2525:D *220:35 0.000397058
*RES
1 *2512:Q *220:4 1.6 
2 *220:4 *2290:B 2.74 
3 *220:4 *220:21 12.115 
4 *220:21 *220:35 7.62253 
5 *220:35 *2215:B 1.6 
6 *220:35 *2214:A1 6.55 
7 *220:21 *2712:A 1.6 
*END

*D_NET *221 0.00637661
*CONN
*I *2217:B I *D sky130_fd_sc_hd__nand2b_1
*I *2216:A1 I *D sky130_fd_sc_hd__a221o_1
*I *2708:A I *D sky130_fd_sc_hd__dlygate4sd3_1
*I *2292:B I *D sky130_fd_sc_hd__and3_1
*I *2513:Q O *D sky130_fd_sc_hd__dfrtp_1
*CAP
1 *2217:B 0.000164321
2 *2216:A1 0
3 *2708:A 0
4 *2292:B 0.000215741
5 *2513:Q 0
6 *221:48 0.00125341
7 *221:27 0.00181288
8 *221:4 0.000939525
9 *2217:B *2204:B 0
10 *2217:B *2216:A2 1.85235e-05
11 *2217:B *2445:CLK 1.12643e-05
12 *2217:B *2445:D 0
13 *2217:B *567:10 2.87867e-05
14 *2217:B *567:20 1.93494e-05
15 *2217:B *574:6 1.12643e-05
16 *2292:B *2292:A 2.75229e-05
17 *2292:B *2522:RESET_B 0
18 *2292:B *2586:A 3.09233e-05
19 *2292:B *717:251 0.000206817
20 *2292:B *730:8 0
21 *2292:B *730:104 0
22 *2292:B *851:35 0
23 *221:27 *919:DIODE 0
24 *221:27 *2512:CLK 0
25 *221:27 *2512:RESET_B 4.11281e-05
26 *221:27 *2513:CLK 2.75229e-05
27 *221:27 *2513:D 0
28 *221:27 *2586:A 0
29 *221:27 *2599:A 0.000137571
30 *221:27 *851:23 6.97943e-06
31 *221:27 *851:35 8.08153e-06
32 *221:48 *2214:B2 6.36578e-05
33 *221:48 *2216:A2 0
34 *221:48 *2216:B2 0.000134245
35 *221:48 *2289:A1 8.57024e-05
36 *221:48 *2289:B1 8.40213e-05
37 *221:48 *565:14 5.39422e-05
38 *221:48 *565:20 0.000116853
39 *221:48 *566:25 1.03423e-05
40 *221:48 *567:10 2.8531e-05
41 *221:48 *567:20 3.00381e-05
42 *221:48 *731:8 0
43 *2212:A1 *221:48 0.000226735
44 *126:33 *2292:B 0.000121601
45 *219:22 *221:48 0.00025143
46 *219:35 *221:48 0.000207896
*RES
1 *2513:Q *221:4 1.6 
2 *221:4 *2292:B 10.235 
3 *221:4 *221:27 14.41 
4 *221:27 *2708:A 1.6 
5 *221:27 *221:48 23.11 
6 *221:48 *2216:A1 1.6 
7 *221:48 *2217:B 8.24375 
*END

*D_NET *222 0.00640802
*CONN
*I *2211:A I *D sky130_fd_sc_hd__xor2_1
*I *1976:A I *D sky130_fd_sc_hd__inv_2
*I *2201:C I *D sky130_fd_sc_hd__and3_2
*I *2215:A I *D sky130_fd_sc_hd__xor2_1
*I *2213:A I *D sky130_fd_sc_hd__xor2_1
*I *2209:A I *D sky130_fd_sc_hd__xor2_1
*I *2207:A I *D sky130_fd_sc_hd__xor2_1
*I *2205:B I *D sky130_fd_sc_hd__xor2_1
*I *2293:A1 I *D sky130_fd_sc_hd__a21o_1
*I *2514:Q O *D sky130_fd_sc_hd__dfrtp_4
*CAP
1 *2211:A 0
2 *1976:A 1.55137e-05
3 *2201:C 4.79859e-05
4 *2215:A 2.22788e-05
5 *2213:A 0
6 *2209:A 5.51102e-05
7 *2207:A 2.81955e-05
8 *2205:B 0.000207814
9 *2293:A1 0.000320293
10 *2514:Q 0
11 *222:88 0.000223931
12 *222:75 0.000308222
13 *222:66 0.00027483
14 *222:62 0.000430124
15 *222:45 0.000418164
16 *222:34 0.000171321
17 *222:23 0.00058141
18 *222:4 0.000633014
19 *1976:A *367:10 5.05521e-05
20 *1976:A *566:25 7.57202e-05
21 *2201:C *367:10 2.75145e-05
22 *2201:C *566:25 8.65905e-05
23 *2205:B *2208:B2 0.000185398
24 *2205:B *2509:RESET_B 1.45134e-05
25 *2205:B *717:142 0
26 *2205:B *845:51 5.39961e-05
27 *2205:B *845:98 0.000509603
28 *2205:B *857:85 5.81405e-05
29 *2207:A *2284:C 0.000124895
30 *2207:A *2285:B1 4.0843e-05
31 *2207:A *845:98 4.66108e-05
32 *2293:A1 *2286:C 9.05377e-05
33 *2293:A1 *2293:A2 0.000248275
34 *2293:A1 *717:247 0
35 *222:23 *2283:A1 0.000107643
36 *222:23 *2283:B1 4.82919e-05
37 *222:23 *820:72 0.000107415
38 *222:34 *2208:B2 0.000118527
39 *222:34 *814:56 0
40 *222:34 *814:69 0
41 *222:34 *845:98 0.000152127
42 *222:45 *814:69 0
43 *222:62 *2286:A 8.65905e-05
44 *222:62 *814:69 0
45 *222:66 *2212:B2 0
46 *222:66 *565:32 0
47 *222:75 *565:20 0
48 *222:75 *565:32 0
49 *222:88 *2204:B 1.58876e-05
50 *222:88 *2219:B1 0
51 *222:88 *2223:A2 0
52 *222:88 *565:14 0
53 *2206:A1 *2205:B 0
54 *2209:B *2209:A 5.83121e-06
55 *2209:B *222:34 3.31204e-05
56 *2209:B *222:45 7.17811e-05
57 *2209:B *222:62 2.86623e-05
58 *2214:A1 *2215:A 4.82863e-05
59 *2705:A *2205:B 2.10433e-05
60 *2709:A *2205:B 0
61 *2711:A *222:62 0
62 *2711:A *222:66 0
63 *217:14 *222:23 0.000118081
64 *218:14 *222:62 8.49205e-05
65 *220:35 *222:88 8.41703e-06
*RES
1 *2514:Q *222:4 1.6 
2 *222:4 *2293:A1 11.75 
3 *222:4 *222:23 7.97 
4 *222:23 *2205:B 10.08 
5 *222:23 *222:34 2.145 
6 *222:34 *2207:A 4.74 
7 *222:34 *222:45 1.635 
8 *222:45 *2209:A 4.41 
9 *222:45 *222:62 7.235 
10 *222:62 *222:66 4.4 
11 *222:66 *2213:A 3.6 
12 *222:66 *222:75 1.89 
13 *222:75 *2215:A 4.05 
14 *222:75 *222:88 4.4 
15 *222:88 *2201:C 2.755 
16 *222:88 *1976:A 2.395 
17 *222:62 *2211:A 1.6 
*END

*D_NET *223 0.000853773
*CONN
*I *2673:A I *D sky130_fd_sc_hd__dlygate4sd3_1
*I *2254:A2 I *D sky130_fd_sc_hd__a221o_1
*I *2494:Q O *D sky130_fd_sc_hd__dfrtp_1
*CAP
1 *2673:A 3.61477e-05
2 *2254:A2 3.86195e-05
3 *2494:Q 9.2331e-05
4 *223:10 0.000167098
5 *2254:A2 *2254:A1 5.09682e-05
6 *2254:A2 *2254:B1 1.08758e-05
7 *2673:A *2254:B1 1.91597e-05
8 *2673:A *819:68 4.77719e-05
9 *223:10 *2252:A1 3.23981e-05
10 *223:10 *819:80 0
11 *223:10 *828:62 9.67081e-06
12 *223:10 *828:68 8.97264e-05
13 *223:10 *841:65 0
14 *2170:B1 *2254:A2 4.42124e-05
15 *2170:B1 *2673:A 0.000159156
16 *2254:B2 *2254:A2 4.87465e-06
17 *2254:B2 *2673:A 1.18246e-05
18 *117:23 *2254:A2 1.43191e-05
19 *117:23 *2673:A 9.31412e-06
20 *117:44 *2673:A 1.53053e-05
*RES
1 *2494:Q *223:10 7.235 
2 *223:10 *2254:A2 2.77375 
3 *223:10 *2673:A 3.085 
*END

*D_NET *224 0.00140653
*CONN
*I *2675:A I *D sky130_fd_sc_hd__dlygate4sd3_1
*I *2256:A2 I *D sky130_fd_sc_hd__a221o_1
*I *2495:Q O *D sky130_fd_sc_hd__dfrtp_1
*CAP
1 *2675:A 0
2 *2256:A2 0.00010865
3 *2495:Q 0.000166458
4 *224:12 0.000275108
5 *2256:A2 *2256:C1 6.65282e-05
6 *2256:A2 *819:95 0.000149249
7 *2256:A2 *828:40 4.77757e-05
8 *2256:A2 *828:42 0.000289644
9 *224:12 *2257:A2 1.94182e-05
10 *224:12 *2258:B1 0.00011432
11 *224:12 *2260:C1 0.000119866
12 *224:12 *822:50 3.03586e-05
13 *2258:B2 *224:12 1.91597e-05
*RES
1 *2495:Q *224:12 8.465 
2 *224:12 *2256:A2 4.9975 
3 *224:12 *2675:A 1.6 
*END

*D_NET *225 0.00109399
*CONN
*I *2672:A I *D sky130_fd_sc_hd__dlygate4sd3_1
*I *2258:A2 I *D sky130_fd_sc_hd__a221o_1
*I *2496:Q O *D sky130_fd_sc_hd__dfrtp_1
*CAP
1 *2672:A 0.000162614
2 *2258:A2 0.000224436
3 *2496:Q 0
4 *225:4 0.000387051
5 *2258:A2 *2257:A2 0.000112147
6 *2258:A2 *2257:B1 0
7 *2258:A2 *2258:B1 2.0851e-06
8 *2258:A2 *2260:C1 8.26048e-06
9 *2258:A2 *2463:CLK 3.76596e-05
10 *2258:A2 *2496:RESET_B 0
11 *2258:A2 *2524:CLK 2.15594e-05
12 *2258:A2 *728:75 5.65627e-05
13 *2258:A2 *841:40 1.2818e-05
14 *2672:A *2257:A1 4.82919e-05
15 *2672:A *728:73 2.05056e-05
*RES
1 *2496:Q *225:4 1.6 
2 *225:4 *2258:A2 9.65375 
3 *225:4 *2672:A 4.12 
*END

*D_NET *226 0.00098639
*CONN
*I *2667:A I *D sky130_fd_sc_hd__dlygate4sd3_1
*I *2260:A2 I *D sky130_fd_sc_hd__a221o_1
*I *2497:Q O *D sky130_fd_sc_hd__dfrtp_1
*CAP
1 *2667:A 0.000185778
2 *2260:A2 0.000116591
3 *2497:Q 9.90189e-05
4 *226:8 0.000401388
5 *2260:A2 *2259:A1 0
6 *2260:A2 *2498:D 7.23533e-05
7 *2260:A2 *828:32 1.2818e-05
8 *2260:A2 *828:40 2.60945e-05
9 *2260:A2 *836:24 6.57653e-06
10 *2260:A2 *841:34 1.37395e-05
11 *2667:A *2259:A1 0
12 *2667:A *2498:D 3.09233e-05
13 *2667:A *836:24 0
14 *226:8 *2498:CLK 2.11084e-05
*RES
1 *2497:Q *226:8 4.74 
2 *226:8 *2260:A2 5.65875 
3 *226:8 *2667:A 6.705 
*END

*D_NET *227 0.0011084
*CONN
*I *2664:A I *D sky130_fd_sc_hd__dlygate4sd3_1
*I *2262:A2 I *D sky130_fd_sc_hd__a221o_1
*I *2498:Q O *D sky130_fd_sc_hd__dfrtp_1
*CAP
1 *2664:A 0.000200016
2 *2262:A2 0.000134685
3 *2498:Q 0
4 *227:4 0.000334701
5 *2262:A2 *2261:A1 0
6 *2262:A2 *2498:RESET_B 5.05521e-05
7 *2262:A2 *2499:D 5.85071e-05
8 *2262:A2 *730:52 6.11198e-05
9 *2262:A2 *822:32 5.80482e-06
10 *2262:A2 *828:30 1.07797e-05
11 *2262:A2 *834:29 0
12 *2262:A2 *841:28 8.53113e-06
13 *2664:A *2498:RESET_B 0.000216177
14 *2664:A *852:117 2.75229e-05
*RES
1 *2498:Q *227:4 1.6 
2 *227:4 *2262:A2 8.66375 
3 *227:4 *2664:A 5.5 
*END

*D_NET *228 0.00178282
*CONN
*I *2678:A I *D sky130_fd_sc_hd__dlygate4sd3_1
*I *2264:A2 I *D sky130_fd_sc_hd__a221o_1
*I *2499:Q O *D sky130_fd_sc_hd__dfrtp_1
*CAP
1 *2678:A 0.000134754
2 *2264:A2 0.000235467
3 *2499:Q 3.15136e-05
4 *228:6 0.000401734
5 *2264:A2 *2263:A1 0.000309436
6 *2264:A2 *2265:B1 0.000285661
7 *2264:A2 *2499:RESET_B 0
8 *2264:A2 *2616:A 0.000118446
9 *2264:A2 *2636:A 0
10 *2264:A2 *828:22 0.000105743
11 *2264:A2 *841:20 6.92308e-05
12 *2678:A *2263:A1 1.91597e-05
13 *2678:A *2265:A1 6.58423e-05
14 *228:6 *2263:A1 5.83121e-06
*RES
1 *2499:Q *228:6 2.05 
2 *228:6 *2264:A2 12.7925 
3 *228:6 *2678:A 3.775 
*END

*D_NET *229 0.00162402
*CONN
*I *2669:A I *D sky130_fd_sc_hd__dlygate4sd3_1
*I *2266:A2 I *D sky130_fd_sc_hd__a221o_1
*I *2500:Q O *D sky130_fd_sc_hd__dfrtp_1
*CAP
1 *2669:A 0.000165317
2 *2266:A2 0.000148618
3 *2500:Q 6.05552e-05
4 *229:8 0.00037449
5 *2266:A2 *2266:C1 0.000177224
6 *2266:A2 *2268:A1 0.000178899
7 *2266:A2 *2268:A2 0
8 *2266:A2 *2468:CLK 0.000112097
9 *2266:A2 *730:14 2.59981e-05
10 *2266:A2 *822:30 0.000137571
11 *2669:A *2268:A2 0
12 *2669:A *717:234 0
13 *2669:A *730:12 9.24127e-05
14 *2669:A *730:14 6.59161e-05
15 *229:8 *2500:RESET_B 8.49205e-05
*RES
1 *2500:Q *229:8 4.395 
2 *229:8 *2266:A2 8.1675 
3 *229:8 *2669:A 7.02 
*END

*D_NET *230 0.00141786
*CONN
*I *2676:A I *D sky130_fd_sc_hd__dlygate4sd3_1
*I *2268:A2 I *D sky130_fd_sc_hd__a221o_1
*I *2501:Q O *D sky130_fd_sc_hd__dfrtp_1
*CAP
1 *2676:A 0.000137336
2 *2268:A2 0.000311392
3 *2501:Q 0
4 *230:4 0.000448727
5 *2268:A2 *2268:B1 5.53249e-06
6 *2268:A2 *2500:RESET_B 0.000111756
7 *2268:A2 *2501:RESET_B 1.1392e-05
8 *2268:A2 *2502:D 0.000120186
9 *2268:A2 *717:134 4.497e-05
10 *2268:A2 *717:234 3.34967e-05
11 *2268:A2 *814:25 1.2818e-05
12 *2268:A2 *822:30 0
13 *2268:A2 *852:84 1.4399e-05
14 *2676:A *717:234 6.55328e-05
15 *2676:A *842:62 1.83847e-05
16 *2676:A *842:75 3.86607e-05
17 *2676:A *842:84 2.68721e-05
18 *2676:A *852:84 1.6408e-05
19 *2266:A2 *2268:A2 0
20 *2669:A *2268:A2 0
*RES
1 *2501:Q *230:4 1.6 
2 *230:4 *2268:A2 11.4688 
3 *230:4 *2676:A 8.12 
*END

*D_NET *231 0.00150036
*CONN
*I *2668:A I *D sky130_fd_sc_hd__dlygate4sd3_1
*I *2270:A2 I *D sky130_fd_sc_hd__a221o_1
*I *2502:Q O *D sky130_fd_sc_hd__dfrtp_1
*CAP
1 *2668:A 0.000171107
2 *2270:A2 0.000208606
3 *2502:Q 0
4 *231:4 0.000379714
5 *2270:A2 *2270:A1 0.00029515
6 *2270:A2 *2271:B1 4.9253e-06
7 *2270:A2 *852:26 0
8 *2668:A *2270:A1 0.000154106
9 *2634:A *2270:A2 0.000223904
10 *2639:A *2270:A2 6.28498e-05
*RES
1 *2502:Q *231:4 1.6 
2 *231:4 *2270:A2 10.4375 
3 *231:4 *2668:A 4.735 
*END

*D_NET *232 0.00127417
*CONN
*I *2666:A I *D sky130_fd_sc_hd__dlygate4sd3_1
*I *2272:A2 I *D sky130_fd_sc_hd__a221o_1
*I *2503:Q O *D sky130_fd_sc_hd__dfrtp_1
*CAP
1 *2666:A 0.000102487
2 *2272:A2 0.000221802
3 *2503:Q 0
4 *232:4 0.00032429
5 *2272:A2 *2271:A1 4.7043e-05
6 *2272:A2 *2503:RESET_B 2.0514e-05
7 *2272:A2 *814:112 4.99619e-05
8 *2272:A2 *829:86 3.08098e-05
9 *2272:A2 *845:42 5.53249e-06
10 *2272:A2 *845:51 0.00019194
11 *2666:A *814:112 0.000279787
*RES
1 *2503:Q *232:4 1.6 
2 *232:4 *2272:A2 10.6025 
3 *232:4 *2666:A 4.12 
*END

*D_NET *233 0.000932389
*CONN
*I *2665:A I *D sky130_fd_sc_hd__dlygate4sd3_1
*I *2274:A2 I *D sky130_fd_sc_hd__a221o_1
*I *2504:Q O *D sky130_fd_sc_hd__dfrtp_1
*CAP
1 *2665:A 0.000154761
2 *2274:A2 0.000284587
3 *2504:Q 0
4 *233:6 0.000439349
5 *2274:A2 *2275:B1 3.76916e-05
6 *2274:A2 *824:202 0
7 *2274:A2 *829:76 1.59999e-05
8 *2665:A *2504:RESET_B 0
9 *2665:A *824:202 0
*RES
1 *2504:Q *233:6 3.6 
2 *233:6 *2274:A2 8.0175 
3 *233:6 *2665:A 6.255 
*END

*D_NET *234 0.000867836
*CONN
*I *2276:A2 I *D sky130_fd_sc_hd__a221o_1
*I *2674:A I *D sky130_fd_sc_hd__dlygate4sd3_1
*I *2505:Q O *D sky130_fd_sc_hd__dfrtp_1
*CAP
1 *2276:A2 0.000204533
2 *2674:A 5.41934e-05
3 *2505:Q 0
4 *234:4 0.000258726
5 *2276:A2 *2276:B1 2.91343e-05
6 *2276:A2 *2278:B1 2.92496e-05
7 *2276:A2 *829:76 8.28738e-05
8 *2276:A2 *845:30 3.08098e-05
9 *2276:A2 *845:34 6.02123e-05
10 *2276:A2 *854:106 6.98113e-05
11 *2674:A *854:106 4.82919e-05
*RES
1 *2505:Q *234:4 1.6 
2 *234:4 *2674:A 2.665 
3 *234:4 *2276:A2 9.0875 
*END

*D_NET *235 0.00314845
*CONN
*I *2680:A I *D sky130_fd_sc_hd__dlygate4sd3_1
*I *2278:A2 I *D sky130_fd_sc_hd__a221o_1
*I *2506:Q O *D sky130_fd_sc_hd__dfrtp_1
*CAP
1 *2680:A 0.000415637
2 *2278:A2 0.000294164
3 *2506:Q 0
4 *235:4 0.000709801
5 *2278:A2 *2249:A2 0.000717738
6 *2278:A2 *2278:B1 3.04245e-05
7 *2278:A2 *2278:C1 2.87433e-05
8 *2278:A2 *372:16 9.77349e-05
9 *2278:A2 *372:33 0.000189684
10 *2278:A2 *380:14 5.92147e-05
11 *2278:A2 *443:52 5.63183e-05
12 *2278:A2 *854:112 1.88602e-05
13 *2680:A *2278:B1 0.00017002
14 *2680:A *2506:RESET_B 0.000116899
15 *2680:A *2548:RESET_B 9.37731e-05
16 *2680:A *372:33 2.30797e-05
17 *2680:A *372:35 9.54399e-05
18 *2680:A *856:69 3.09233e-05
*RES
1 *2506:Q *235:4 1.6 
2 *235:4 *2278:A2 8.9393 
3 *235:4 *2680:A 11.915 
*END

*D_NET *236 0.00144408
*CONN
*I *2671:A I *D sky130_fd_sc_hd__dlygate4sd3_1
*I *2326:A2_N I *D sky130_fd_sc_hd__o2bb2ai_1
*I *2507:Q O *D sky130_fd_sc_hd__dfrtp_1
*CAP
1 *2671:A 0
2 *2326:A2_N 0.000332917
3 *2507:Q 0.000187872
4 *236:10 0.000520789
5 *2326:A2_N *2326:B1 0.00012657
6 *2326:A2_N *2326:B2 3.1835e-05
7 *2326:A2_N *2328:A2 7.67415e-06
8 *2326:A2_N *2629:A 9.50342e-06
9 *2326:A2_N *354:74 3.1835e-05
10 *2326:A2_N *842:10 0
11 *2326:A2_N *842:36 0
12 *2326:A2_N *847:90 0
13 *236:10 *2629:A 9.46424e-05
14 *236:10 *372:10 8.88715e-05
15 *236:10 *448:28 3.60648e-06
16 *236:10 *847:86 7.9642e-06
17 *236:10 *847:90 0
*RES
1 *2507:Q *236:10 6.465 
2 *236:10 *2326:A2_N 8.1 
3 *236:10 *2671:A 3.6 
*END

*D_NET *237 0.00340089
*CONN
*I *2685:A I *D sky130_fd_sc_hd__dlygate4sd3_1
*I *2023:B1 I *D sky130_fd_sc_hd__a21o_1
*I *2330:A2 I *D sky130_fd_sc_hd__a22o_1
*I *2534:Q O *D sky130_fd_sc_hd__dfrtp_1
*CAP
1 *2685:A 6.99966e-05
2 *2023:B1 0.000147285
3 *2330:A2 0.000155692
4 *2534:Q 0.000143694
5 *237:10 0.000876332
6 *237:6 0.000787046
7 *2023:B1 *2022:A2 0.000122337
8 *2023:B1 *2326:B1 0.0001049
9 *2023:B1 *2327:A1 3.69338e-05
10 *2023:B1 *2327:A2 1.70935e-05
11 *2023:B1 *2327:A3 0.000106078
12 *2023:B1 *2327:B1 8.49205e-05
13 *2023:B1 *457:70 0.000139933
14 *2330:A2 *2327:A1 4.78859e-05
15 *2330:A2 *2330:B1 3.293e-05
16 *2330:A2 *457:70 0.000206817
17 *2330:A2 *839:42 2.39856e-05
18 *2330:A2 *839:195 9.5433e-05
19 *2685:A *842:10 0
20 *2685:A *847:90 6.28843e-05
21 *237:6 *899:DIODE 0.000122337
22 *237:6 *2534:RESET_B 1.2263e-05
23 *237:10 *874:DIODE 4.11678e-06
*RES
1 *2534:Q *237:6 3.43 
2 *237:6 *237:10 7.97 
3 *237:10 *2330:A2 7.5 
4 *237:10 *2023:B1 8.1 
5 *237:6 *2685:A 6.98 
*END

*D_NET *238 0.00536658
*CONN
*I *2331:A0 I *D sky130_fd_sc_hd__mux2_1
*I *2024:A I *D sky130_fd_sc_hd__xor2_1
*I *2019:A I *D sky130_fd_sc_hd__and2_1
*I *2334:A1 I *D sky130_fd_sc_hd__a211o_1
*I *2535:Q O *D sky130_fd_sc_hd__dfrtp_1
*CAP
1 *2331:A0 0.000457382
2 *2024:A 0
3 *2019:A 8.54829e-06
4 *2334:A1 0.00136806
5 *2535:Q 8.42235e-05
6 *238:16 0.00156345
7 *238:10 0.000274875
8 *238:8 0.000629637
9 *2019:A *2024:B 1.00941e-05
10 *2331:A0 *2535:D 5.27885e-05
11 *2331:A0 *438:12 6.01238e-05
12 *2331:A0 *452:60 0.00011852
13 *2331:A0 *840:36 0.000111884
14 *2334:A1 *2029:A1 3.64998e-06
15 *2334:A1 *2333:A_N 1.96913e-05
16 *2334:A1 *2334:A2 6.63619e-05
17 *2334:A1 *395:32 1.7635e-05
18 *2334:A1 *416:26 8.34281e-06
19 *2334:A1 *452:24 0
20 *2334:A1 *840:99 8.40213e-05
21 *238:8 *839:52 2.75229e-05
22 *238:8 *840:26 1.83847e-05
23 *238:10 *839:52 0.000115762
24 *238:16 *2024:B 0.000150578
25 *238:16 *425:16 0
26 *238:16 *839:52 3.7712e-05
27 *238:16 *839:58 2.49909e-05
28 *238:16 *839:108 5.23362e-05
*RES
1 *2535:Q *238:8 3.1 
2 *238:8 *238:10 1.83 
3 *238:10 *238:16 5.8475 
4 *238:16 *2334:A1 8.1231 
5 *238:16 *2019:A 3.8325 
6 *238:10 *2024:A 1.6 
7 *238:8 *2331:A0 11.915 
*END

*D_NET *239 0.00232192
*CONN
*I *2015:A I *D sky130_fd_sc_hd__and3_1
*I *2026:A I *D sky130_fd_sc_hd__xor2_1
*I *2715:A I *D sky130_fd_sc_hd__dlygate4sd3_1
*I *2338:A1 I *D sky130_fd_sc_hd__a22o_1
*I *2536:Q O *D sky130_fd_sc_hd__dfrtp_1
*CAP
1 *2015:A 0.000200357
2 *2026:A 0
3 *2715:A 0.000102975
4 *2338:A1 0
5 *2536:Q 0.000122462
6 *239:30 0.000319437
7 *239:21 0.000339254
8 *239:8 0.000239662
9 *2015:A *2027:A 0.000100881
10 *2015:A *2027:B 0
11 *2015:A *2029:A2 0
12 *2015:A *2332:B 4.77719e-05
13 *2015:A *395:32 3.20618e-05
14 *2015:A *417:8 5.88353e-05
15 *2015:A *418:12 0.00018695
16 *239:8 *880:DIODE 0.000164358
17 *239:8 *2536:D 0.000184849
18 *239:21 *880:DIODE 8.52845e-05
19 *239:21 *2335:A1 4.63425e-05
20 *239:21 *2536:D 4.01811e-05
21 *239:30 *417:8 3.64998e-06
22 *239:30 *418:12 4.66108e-05
*RES
1 *2536:Q *239:8 4.825 
2 *239:8 *2338:A1 1.6 
3 *239:8 *239:21 6.43 
4 *239:21 *2715:A 3.085 
5 *239:21 *239:30 1.83 
6 *239:30 *2026:A 1.6 
7 *239:30 *2015:A 10.085 
*END

*D_NET *240 0.00280283
*CONN
*I *2005:A I *D sky130_fd_sc_hd__nor2_1
*I *2695:A I *D sky130_fd_sc_hd__dlygate4sd3_1
*I *2006:A I *D sky130_fd_sc_hd__and2_1
*I *2342:B2 I *D sky130_fd_sc_hd__a32o_1
*I *2537:Q O *D sky130_fd_sc_hd__dfrtp_1
*CAP
1 *2005:A 5.51212e-05
2 *2695:A 0.000147627
3 *2006:A 0
4 *2342:B2 0.000106067
5 *2537:Q 0.000160469
6 *240:18 0.000247019
7 *240:10 0.000288579
8 *240:8 0.00021559
9 *2005:A *2030:A_N 4.77719e-05
10 *2005:A *2030:B 1.53053e-05
11 *2005:A *2047:C_N 4.94474e-05
12 *2005:A *2337:B 0.000127333
13 *2005:A *824:136 0.000185793
14 *2342:B2 *881:DIODE 1.56428e-05
15 *2342:B2 *2346:B 3.09164e-05
16 *2342:B2 *824:106 3.64998e-06
17 *2342:B2 *824:119 7.5416e-05
18 *2342:B2 *840:105 0.000162325
19 *2695:A *2337:A 0.000158536
20 *2695:A *2337:B 0.000109522
21 *2695:A *2338:B1 7.58604e-05
22 *2695:A *2339:A1 9.29751e-06
23 *2695:A *824:136 0
24 *2695:A *840:105 0
25 *240:8 *2337:B 2.75145e-05
26 *240:8 *2339:A0 5.05521e-05
27 *240:8 *2537:D 3.00381e-05
28 *240:8 *824:136 8.49205e-05
29 *240:8 *846:64 0.000124895
30 *240:18 *2030:B 0
31 *240:18 *2340:A2 0
32 *240:18 *2341:B 0
33 *240:18 *421:12 9.54469e-05
34 *240:18 *824:106 2.50702e-05
35 *240:18 *824:119 7.71016e-05
36 *240:18 *840:105 0
*RES
1 *2537:Q *240:8 5.17 
2 *240:8 *240:10 2 
3 *240:10 *240:18 5.045 
4 *240:18 *2342:B2 8.195 
5 *240:18 *2006:A 1.6 
6 *240:10 *2695:A 6.975 
7 *240:8 *2005:A 4.12 
*END

*D_NET *241 0.00332608
*CONN
*I *2044:A I *D sky130_fd_sc_hd__nand2_1
*I *2048:A1 I *D sky130_fd_sc_hd__a21oi_1
*I *2045:A I *D sky130_fd_sc_hd__xor2_1
*I *2343:A0 I *D sky130_fd_sc_hd__mux2_1
*I *2346:A I *D sky130_fd_sc_hd__and2_1
*I *2538:Q O *D sky130_fd_sc_hd__dfrtp_1
*CAP
1 *2044:A 0.000133199
2 *2048:A1 3.61218e-05
3 *2045:A 0
4 *2343:A0 0
5 *2346:A 0.000130253
6 *2538:Q 0.000105456
7 *241:43 0.000540708
8 *241:32 0.000561396
9 *241:23 0.000266302
10 *241:8 0.000312002
11 *2044:A *2351:A2 4.71168e-05
12 *2044:A *2351:B1 0
13 *2044:A *433:16 9.37731e-05
14 *2044:A *433:22 6.21553e-05
15 *2044:A *434:45 1.70935e-05
16 *2044:A *434:55 5.4155e-06
17 *2044:A *435:6 2.49909e-05
18 *2048:A1 *2351:A2 2.97004e-06
19 *2048:A1 *432:34 0
20 *2048:A1 *433:22 7.33689e-05
21 *2346:A *2538:D 9.3062e-06
22 *2346:A *2540:RESET_B 0.000210839
23 *241:8 *2540:RESET_B 4.82863e-05
24 *241:23 *2346:B 0
25 *241:23 *2538:D 0
26 *241:32 *2343:A1 4.89295e-05
27 *241:32 *2343:S 8.52845e-05
28 *241:32 *2347:A2 4.78613e-05
29 *241:32 *436:12 2.61093e-05
30 *241:43 *2045:B 0.000374483
31 *241:43 *2048:A2 4.66108e-05
32 *241:43 *2048:B1 1.33293e-05
33 *241:43 *2347:A2 2.71912e-06
*RES
1 *2538:Q *241:8 4.74 
2 *241:8 *2346:A 6.705 
3 *241:8 *241:23 3.125 
4 *241:23 *2343:A0 1.6 
5 *241:23 *241:32 3.57 
6 *241:32 *2045:A 1.6 
7 *241:32 *241:43 7.115 
8 *241:43 *2048:A1 4.47 
9 *241:43 *2044:A 6.3 
*END

*D_NET *242 0.00466407
*CONN
*I *2352:B1 I *D sky130_fd_sc_hd__a2bb2o_1
*I *2042:C1 I *D sky130_fd_sc_hd__o211a_1
*I *2041:A_N I *D sky130_fd_sc_hd__and2b_1
*I *2710:A I *D sky130_fd_sc_hd__dlygate4sd3_1
*I *2539:Q O *D sky130_fd_sc_hd__dfrtp_1
*CAP
1 *2352:B1 6.2107e-05
2 *2042:C1 0.000296128
3 *2041:A_N 3.83895e-05
4 *2710:A 0
5 *2539:Q 0.000227709
6 *242:23 0.000890782
7 *242:19 0.000685944
8 *242:12 0.000295282
9 *2041:A_N *839:58 8.49205e-05
10 *2042:C1 *2042:A1 5.16348e-05
11 *2042:C1 *2042:A2 0.000128683
12 *2042:C1 *2042:B1 2.75145e-05
13 *2042:C1 *379:14 0
14 *2042:C1 *433:12 9.69126e-05
15 *2042:C1 *826:120 2.26018e-05
16 *2042:C1 *840:93 0
17 *2352:B1 *2352:A2_N 4.99619e-05
18 *2352:B1 *2353:A1 0.000136724
19 *2352:B1 *839:129 0.000139583
20 *242:12 *2539:RESET_B 7.21296e-06
21 *242:12 *2540:CLK 7.17811e-05
22 *242:12 *2540:D 0
23 *242:12 *2541:CLK 4.43871e-06
24 *242:12 *824:70 3.86529e-05
25 *242:12 *826:70 0.000163204
26 *242:12 *839:131 0.000163204
27 *242:19 *826:70 0.000189845
28 *242:19 *839:129 0.000228149
29 *242:19 *839:131 8.8266e-05
30 *242:23 *2049:A2 2.10433e-05
31 *242:23 *2050:A3 0
32 *242:23 *2351:A2 0
33 *242:23 *2352:A2_N 0
34 *242:23 *2353:A0 3.86607e-05
35 *242:23 *243:25 0
36 *242:23 *379:14 0
37 *242:23 *426:10 3.27107e-05
38 *242:23 *426:16 1.94723e-05
39 *242:23 *429:12 0.000100528
40 *242:23 *432:34 3.96467e-05
41 *242:23 *433:12 0.000203509
42 *242:23 *434:45 0
43 *242:23 *651:46 1.88656e-05
*RES
1 *2539:Q *242:12 10.76 
2 *242:12 *2710:A 1.6 
3 *242:12 *242:19 2.865 
4 *242:19 *242:23 12.305 
5 *242:23 *2041:A_N 4.395 
6 *242:23 *2042:C1 8.7 
7 *242:19 *2352:B1 3.895 
*END

*D_NET *243 0.0035817
*CONN
*I *2357:A1 I *D sky130_fd_sc_hd__a21o_1
*I *2036:B1 I *D sky130_fd_sc_hd__a21oi_1
*I *2035:A I *D sky130_fd_sc_hd__and3_1
*I *2707:A I *D sky130_fd_sc_hd__dlygate4sd3_1
*I *2540:Q O *D sky130_fd_sc_hd__dfrtp_1
*CAP
1 *2357:A1 0.000100633
2 *2036:B1 6.74753e-05
3 *2035:A 2.55105e-05
4 *2707:A 0
5 *2540:Q 6.07199e-05
6 *243:25 0.000476088
7 *243:10 0.000581842
8 *243:6 0.000360092
9 *2035:A *2035:C 4.82863e-05
10 *2036:B1 *425:16 6.38806e-05
11 *2357:A1 *2357:B1 3.80008e-06
12 *2357:A1 *2358:A1 0.000163199
13 *2357:A1 *2358:B2 4.85494e-05
14 *2357:A1 *824:44 0.000227261
15 *2357:A1 *824:46 0.000160635
16 *2357:A1 *826:58 1.47347e-05
17 *2357:A1 *826:70 2.26018e-05
18 *243:6 *2541:D 8.16598e-05
19 *243:6 *824:46 7.49327e-05
20 *243:6 *824:50 0.0001249
21 *243:6 *826:70 1.33293e-05
22 *243:10 *2352:A1_N 6.28843e-05
23 *243:10 *2352:A2_N 0
24 *243:10 *2353:S 0
25 *243:10 *2356:B 0
26 *243:10 *2358:B1 9.30787e-05
27 *243:10 *244:38 0
28 *243:10 *439:12 3.09233e-05
29 *243:25 *2035:B 7.06865e-05
30 *243:25 *2035:C 5.4155e-06
31 *243:25 *2050:A2 0.000289004
32 *243:25 *2050:A3 1.07797e-05
33 *243:25 *2350:C1 9.29751e-06
34 *243:25 *379:14 4.31106e-05
35 *243:25 *424:10 9.25451e-05
36 *243:25 *424:16 0.000100544
37 *243:25 *426:10 0
38 *243:25 *426:16 0
39 *243:25 *427:8 3.09572e-05
40 *243:25 *439:12 2.23407e-05
41 *242:23 *243:25 0
*RES
1 *2540:Q *243:6 3.775 
2 *243:6 *243:10 5.675 
3 *243:10 *2707:A 3.6 
4 *243:10 *243:25 9.8 
5 *243:25 *2035:A 2.05 
6 *243:25 *2036:B1 2.74 
7 *243:6 *2357:A1 5.77 
*END

*D_NET *244 0.00517948
*CONN
*I *2032:A I *D sky130_fd_sc_hd__nand2_1
*I *2049:A1 I *D sky130_fd_sc_hd__o21ai_1
*I *2033:A I *D sky130_fd_sc_hd__xor2_1
*I *2362:A1 I *D sky130_fd_sc_hd__a22o_1
*I *2358:A1 I *D sky130_fd_sc_hd__o22a_1
*I *2541:Q O *D sky130_fd_sc_hd__dfrtp_1
*CAP
1 *2032:A 0.000158316
2 *2049:A1 0.000504737
3 *2033:A 9.73191e-06
4 *2362:A1 0.000210068
5 *2358:A1 4.39792e-05
6 *2541:Q 0.000111436
7 *244:51 0.000706662
8 *244:38 0.000314078
9 *244:21 0.000562586
10 *244:8 0.000247196
11 *2032:A *2032:B 1.85674e-05
12 *2032:A *2050:C1 0.000108886
13 *2032:A *441:6 1.33293e-05
14 *2033:A *2032:B 4.82863e-05
15 *2033:A *441:6 4.82863e-05
16 *2049:A1 *2046:A 2.47313e-05
17 *2049:A1 *2050:A1 2.19562e-06
18 *2049:A1 *2050:B1 1.03423e-05
19 *2049:A1 *2050:C1 0.000478219
20 *2358:A1 *2357:B1 6.25566e-05
21 *2358:A1 *2358:B2 3.40435e-05
22 *2358:A1 *826:58 2.05056e-05
23 *2358:A1 *826:70 8.44338e-06
24 *2362:A1 *887:DIODE 0.000239807
25 *2362:A1 *2352:B2 8.49205e-05
26 *2362:A1 *2356:C 8.09157e-05
27 *2362:A1 *2359:A 0
28 *2362:A1 *2362:B1 7.14091e-05
29 *2362:A1 *2366:A1 2.06853e-05
30 *2362:A1 *839:127 4.47209e-05
31 *2362:A1 *839:129 5.83121e-06
32 *244:8 *2352:B2 1.70935e-05
33 *244:8 *2358:B1 0
34 *244:21 *2352:B2 7.17811e-05
35 *244:21 *2356:B 4.9968e-05
36 *244:21 *2358:B1 0
37 *244:38 *2350:B1 0
38 *244:38 *2350:C1 0
39 *244:38 *2356:B 0.000128353
40 *244:38 *2362:B2 0
41 *244:38 *354:10 0.000137578
42 *244:38 *426:33 5.4256e-05
43 *244:38 *427:8 0
44 *244:38 *839:125 0.000191093
45 *244:51 *354:10 7.06865e-05
46 *244:51 *422:10 0
47 *244:51 *427:8 0
48 *2357:A1 *2358:A1 0.000163199
49 *243:10 *244:38 0
*RES
1 *2541:Q *244:8 5.235 
2 *244:8 *2358:A1 5.445 
3 *244:8 *244:21 1.89 
4 *244:21 *2362:A1 9.27 
5 *244:21 *244:38 6.225 
6 *244:38 *2033:A 4.05 
7 *244:38 *244:51 2.87 
8 *244:51 *2049:A1 8.44 
9 *244:51 *2032:A 3.955 
*END

*D_NET *245 0.00474912
*CONN
*I *2700:A I *D sky130_fd_sc_hd__dlygate4sd3_1
*I *2063:A I *D sky130_fd_sc_hd__nor2_1
*I *2062:A I *D sky130_fd_sc_hd__and2_1
*I *2366:A1 I *D sky130_fd_sc_hd__a221o_1
*I *2542:Q O *D sky130_fd_sc_hd__dfrtp_1
*CAP
1 *2700:A 0.000255868
2 *2063:A 0.000170373
3 *2062:A 3.57729e-05
4 *2366:A1 0.000270817
5 *2542:Q 0.000234377
6 *245:23 0.000314846
7 *245:10 0.000551916
8 *245:6 0.000662643
9 *2063:A *2062:B 0.000183738
10 *2063:A *2063:B 0.000122331
11 *2063:A *2361:B 0.000232999
12 *2063:A *2362:B2 7.07722e-05
13 *2063:A *354:40 6.26945e-05
14 *2063:A *839:125 0
15 *2366:A1 *2359:A 2.96334e-05
16 *2366:A1 *2362:B1 0.000238919
17 *2366:A1 *2363:A1 0.000160641
18 *2366:A1 *2366:A2 0
19 *2366:A1 *2366:B2 1.58605e-05
20 *2700:A *2363:A0 0.000113282
21 *2700:A *2364:B1 8.49205e-05
22 *2700:A *2542:CLK 4.99619e-05
23 *2700:A *2544:CLK 0.000223016
24 *245:6 *2541:RESET_B 2.75145e-05
25 *245:10 *2352:B2 0
26 *245:10 *2363:A0 4.05358e-05
27 *245:10 *2363:A1 0.000120186
28 *245:10 *2541:RESET_B 0
29 *245:10 *2542:D 0
30 *245:10 *2542:RESET_B 5.4003e-05
31 *245:10 *726:35 0
32 *245:10 *824:24 9.28013e-05
33 *245:10 *824:28 5.23362e-05
34 *245:10 *826:56 0
35 *245:10 *840:46 6.56448e-06
36 *245:23 *2362:B2 0.000166346
37 *245:23 *824:24 9.67081e-06
38 *245:23 *840:36 5.7266e-05
39 *245:23 *840:46 1.58293e-05
40 *2362:A1 *2366:A1 2.06853e-05
*RES
1 *2542:Q *245:6 5.155 
2 *245:6 *245:10 5.93 
3 *245:10 *2366:A1 8.805 
4 *245:10 *245:23 2.4 
5 *245:23 *2062:A 4.05 
6 *245:23 *2063:A 8.73 
7 *245:6 *2700:A 7.225 
*END

*D_NET *246 0.00259595
*CONN
*I *2068:A I *D sky130_fd_sc_hd__nand2_1
*I *2697:A I *D sky130_fd_sc_hd__dlygate4sd3_1
*I *2067:A I *D sky130_fd_sc_hd__or2_1
*I *2371:B2 I *D sky130_fd_sc_hd__a32o_1
*I *2543:Q O *D sky130_fd_sc_hd__dfrtp_1
*CAP
1 *2068:A 0.000133646
2 *2697:A 3.3254e-05
3 *2067:A 0.000172848
4 *2371:B2 0.000239228
5 *2543:Q 0
6 *246:21 0.000206102
7 *246:19 0.000257771
8 *246:6 0.000363353
9 *2067:A *2068:B 6.97118e-05
10 *2067:A *2366:A2 0.000190796
11 *2067:A *2370:B 5.05437e-05
12 *2068:A *2072:B 8.65961e-05
13 *2068:A *2369:C1 0.000180416
14 *2068:A *2370:B 5.21046e-05
15 *2068:A *458:21 8.40269e-05
16 *2068:A *847:108 3.3207e-05
17 *2371:B2 *2367:A1 0
18 *2371:B2 *2367:A2 0.000171938
19 *2371:B2 *823:60 7.24866e-05
20 *2697:A *2369:C1 2.75229e-05
21 *2697:A *2370:B 4.41506e-05
22 *246:19 *2367:A1 0
23 *246:19 *2369:C1 5.10477e-05
24 *246:19 *823:58 0
25 *246:19 *823:60 3.46842e-05
26 *246:19 *847:108 4.05193e-05
*RES
1 *2543:Q *246:6 3.6 
2 *246:6 *2371:B2 8.505 
3 *246:6 *246:19 2.655 
4 *246:19 *246:21 2 
5 *246:21 *2067:A 5.17 
6 *246:21 *2697:A 2.395 
7 *246:19 *2068:A 6.99 
*END

*D_NET *247 0.00392247
*CONN
*I *2376:B1 I *D sky130_fd_sc_hd__a2bb2o_1
*I *2059:A I *D sky130_fd_sc_hd__xor2_1
*I *2074:B2 I *D sky130_fd_sc_hd__a22o_1
*I *2058:A I *D sky130_fd_sc_hd__nand2_1
*I *2372:A0 I *D sky130_fd_sc_hd__mux2_1
*I *2544:Q O *D sky130_fd_sc_hd__dfrtp_1
*CAP
1 *2376:B1 0.000282609
2 *2059:A 0
3 *2074:B2 0.000147691
4 *2058:A 0
5 *2372:A0 0.00012969
6 *2544:Q 0
7 *247:38 0.000335243
8 *247:23 0.000355854
9 *247:12 0.00047719
10 *247:4 0.000461807
11 *2074:B2 *2058:B 1.71013e-05
12 *2074:B2 *2059:B 4.82919e-05
13 *2074:B2 *2375:B1 0.000205435
14 *2074:B2 *448:71 9.42302e-05
15 *2074:B2 *463:6 2.75229e-05
16 *2372:A0 *2372:S 5.30673e-05
17 *2372:A0 *674:27 4.57247e-05
18 *2376:B1 *2371:A1 8.71079e-05
19 *2376:B1 *2371:A3 8.5225e-05
20 *2376:B1 *2377:A2 1.67424e-05
21 *2376:B1 *2544:RESET_B 8.57321e-05
22 *2376:B1 *823:75 0.000162311
23 *247:12 *2372:A1 0
24 *247:12 *2377:A1 0
25 *247:12 *2377:B2 3.97211e-05
26 *247:12 *2544:RESET_B 0.000159045
27 *247:12 *2545:D 0
28 *247:12 *248:8 0
29 *247:12 *823:75 0.000115146
30 *247:23 *2058:B 0
31 *247:23 *2369:B1 2.97004e-06
32 *247:23 *2371:A2 0
33 *247:23 *2377:A1 0
34 *247:23 *2377:B1 0.000158281
35 *247:23 *2377:B2 2.23922e-05
36 *247:23 *248:29 0
37 *247:23 *674:10 0
38 *247:38 *2072:B 0
39 *247:38 *2369:B1 0.000132836
40 *247:38 *2377:B1 0.000136877
41 *247:38 *450:6 0
42 *247:38 *450:23 3.66286e-05
*RES
1 *2544:Q *247:4 1.6 
2 *247:4 *247:12 6.17 
3 *247:12 *2372:A0 5.775 
4 *247:12 *247:23 2.655 
5 *247:23 *2058:A 3.6 
6 *247:23 *247:38 5.825 
7 *247:38 *2074:B2 9.485 
8 *247:38 *2059:A 1.6 
9 *247:4 *2376:B1 11.18 
*END

*D_NET *248 0.00474003
*CONN
*I *2380:B2 I *D sky130_fd_sc_hd__a32o_1
*I *2053:A I *D sky130_fd_sc_hd__or2_1
*I *2074:A1 I *D sky130_fd_sc_hd__a22o_1
*I *2054:A I *D sky130_fd_sc_hd__xnor2_1
*I *2377:A1 I *D sky130_fd_sc_hd__a22o_1
*I *2545:Q O *D sky130_fd_sc_hd__dfrtp_1
*CAP
1 *2380:B2 5.75479e-05
2 *2053:A 0
3 *2074:A1 0.000192643
4 *2054:A 0
5 *2377:A1 0.000201157
6 *2545:Q 7.04249e-05
7 *248:44 0.000418291
8 *248:40 0.000407387
9 *248:29 0.000367739
10 *248:8 0.00051513
11 *2074:A1 *443:60 0
12 *2074:A1 *448:58 6.11019e-05
13 *2074:A1 *448:71 8.53113e-06
14 *2074:A1 *462:12 9.51192e-05
15 *2377:A1 *2377:A2 1.75915e-05
16 *2377:A1 *2545:D 7.9642e-06
17 *2377:A1 *674:27 5.00698e-06
18 *2380:B2 *2371:A1 0
19 *2380:B2 *2382:B1 7.30547e-05
20 *2380:B2 *2383:A2 0.00011852
21 *2380:B2 *844:51 0.000206123
22 *248:8 *2371:A1 0.000170809
23 *248:8 *2377:B2 1.7635e-05
24 *248:8 *2545:D 2.53305e-05
25 *248:29 *2054:B 8.40269e-05
26 *248:29 *2371:A1 0.000559517
27 *248:29 *2375:A1 0.000196782
28 *248:29 *2377:B1 0
29 *248:29 *445:8 0.000162325
30 *248:29 *466:10 6.97118e-05
31 *248:29 *674:27 4.51806e-05
32 *248:40 *2371:A1 0
33 *248:40 *466:10 7.35729e-05
34 *248:40 *844:51 0.000137578
35 *248:44 *2382:A1 0.000123225
36 *248:44 *2382:B1 8.8266e-05
37 *248:44 *462:12 0.000162738
38 *247:12 *2377:A1 0
39 *247:12 *248:8 0
40 *247:23 *2377:A1 0
41 *247:23 *248:29 0
*RES
1 *2545:Q *248:8 5.6175 
2 *248:8 *2377:A1 6.3825 
3 *248:8 *248:29 9.7475 
4 *248:29 *2054:A 1.6 
5 *248:29 *248:40 4.775 
6 *248:40 *248:44 6.59 
7 *248:44 *2074:A1 9.155 
8 *248:44 *2053:A 1.6 
9 *248:40 *2380:B2 6 
*END

*D_NET *249 0.00201565
*CONN
*I *2687:A I *D sky130_fd_sc_hd__dlygate4sd3_1
*I *2384:B1 I *D sky130_fd_sc_hd__a2bb2o_1
*I *1996:A I *D sky130_fd_sc_hd__or2_1
*I *1990:A I *D sky130_fd_sc_hd__nand2_1
*I *2546:Q O *D sky130_fd_sc_hd__dfrtp_1
*CAP
1 *2687:A 0
2 *2384:B1 0.00010166
3 *1996:A 0
4 *1990:A 5.14908e-05
5 *2546:Q 0
6 *249:26 0.000314871
7 *249:12 0.000147555
8 *249:4 0.000309276
9 *1990:A *1996:B 4.82863e-05
10 *1990:A *381:6 6.83659e-05
11 *2384:B1 *1999:A 2.97872e-06
12 *2384:B1 *2383:B1 0.000161364
13 *2384:B1 *681:38 7.29995e-05
14 *2384:B1 *844:41 9.50342e-06
15 *2384:B1 *844:47 0.000311109
16 *249:12 *2382:A1 0.000138968
17 *249:12 *2384:A1_N 0
18 *249:12 *381:6 2.05056e-05
19 *249:12 *823:24 9.87526e-05
20 *249:26 *2546:RESET_B 0.000157968
*RES
1 *2546:Q *249:4 1.6 
2 *249:4 *249:12 6.595 
3 *249:12 *1990:A 2.74 
4 *249:12 *1996:A 1.6 
5 *249:4 *249:26 3.555 
6 *249:26 *2384:B1 9.275 
7 *249:26 *2687:A 1.6 
*END

*D_NET *250 0.00741893
*CONN
*I *1986:A I *D sky130_fd_sc_hd__nand2_1
*I *1991:A I *D sky130_fd_sc_hd__nor2_1
*I *2388:B2 I *D sky130_fd_sc_hd__a32o_1
*I *1992:A I *D sky130_fd_sc_hd__or2_1
*I *2385:A1 I *D sky130_fd_sc_hd__a22o_1
*I *2547:Q O *D sky130_fd_sc_hd__dfrtp_1
*CAP
1 *1986:A 0.000156609
2 *1991:A 0.000198309
3 *2388:B2 0
4 *1992:A 0.000378775
5 *2385:A1 0
6 *2547:Q 0.000423091
7 *250:63 0.000471343
8 *250:29 0.000405784
9 *250:27 0.000850513
10 *250:10 0.00113017
11 *1986:A *2393:A3 0.000164691
12 *1986:A *2393:B1 4.82863e-05
13 *1986:A *2549:CLK 4.76303e-05
14 *1986:A *377:16 4.76303e-05
15 *1986:A *732:58 7.9642e-06
16 *1986:A *732:62 1.46828e-05
17 *1991:A *1993:B1 5.05223e-05
18 *1991:A *2393:A3 2.95708e-05
19 *1991:A *2393:B1 1.87674e-05
20 *1991:A *2549:CLK 6.41825e-07
21 *1991:A *382:25 0.000104287
22 *1991:A *732:58 5.25963e-05
23 *1991:A *824:22 0.000166525
24 *1992:A *1992:B 3.67779e-05
25 *1992:A *1999:B 4.9968e-05
26 *1992:A *2000:A 4.82919e-05
27 *1992:A *2076:A2 0.000389094
28 *1992:A *2077:C 4.66108e-05
29 *1992:A *2388:B1 3.59531e-06
30 *1992:A *377:16 4.13092e-05
31 *1992:A *377:20 8.09744e-05
32 *1992:A *384:16 0.000158066
33 *1992:A *388:10 1.26626e-05
34 *1992:A *824:22 0.000273369
35 *1992:A *837:73 0.000138387
36 *250:10 *2385:B2 3.47837e-05
37 *250:10 *2547:RESET_B 0.000119462
38 *250:10 *354:74 0.000165829
39 *250:10 *854:112 9.54399e-05
40 *250:27 *1994:B 2.78732e-05
41 *250:27 *2248:A 0.0001947
42 *250:27 *2248:B 0
43 *250:27 *2385:B2 9.3062e-06
44 *250:27 *2388:B1 2.96342e-05
45 *250:27 *2389:A1 0.000117349
46 *250:27 *2548:D 6.83447e-05
47 *250:27 *2588:A 1.83847e-05
48 *250:27 *372:35 3.96326e-05
49 *250:27 *677:22 1.19928e-05
50 *250:27 *733:6 2.40822e-05
51 *250:27 *733:8 5.17287e-05
52 *250:27 *824:22 3.48563e-05
53 *250:27 *837:69 0
54 *250:27 *854:112 0.000159969
55 *250:29 *2388:B1 2.07977e-05
56 *250:29 *824:22 2.10036e-05
57 *250:63 *2547:CLK 8.65961e-05
58 *250:63 *732:62 3.96653e-05
*RES
1 *2547:Q *250:10 9.66 
2 *250:10 *2385:A1 3.6 
3 *250:10 *250:27 14.425 
4 *250:27 *250:29 0.615 
5 *250:29 *1992:A 17.275 
6 *250:29 *2388:B2 3.6 
7 *250:27 *250:63 3.485 
8 *250:63 *1991:A 10.295 
9 *250:63 *1986:A 8.15 
*END

*D_NET *251 0.00229978
*CONN
*I *2696:A I *D sky130_fd_sc_hd__dlygate4sd3_1
*I *2392:A1_N I *D sky130_fd_sc_hd__o2bb2a_1
*I *1982:A I *D sky130_fd_sc_hd__nor2_1
*I *1994:A I *D sky130_fd_sc_hd__nand2_1
*I *2548:Q O *D sky130_fd_sc_hd__dfrtp_1
*CAP
1 *2696:A 0
2 *2392:A1_N 0
3 *1982:A 0.000137776
4 *1994:A 0
5 *2548:Q 5.43578e-05
6 *251:22 0.000169999
7 *251:20 0.000228364
8 *251:10 0.000250498
9 *1982:A *1982:B 0.000337169
10 *1982:A *2385:A2 0.000111901
11 *1982:A *2389:A2 0
12 *1982:A *385:10 2.75229e-05
13 *1982:A *825:160 0.000107424
14 *251:10 *376:104 5.93963e-05
15 *251:10 *825:10 5.93963e-05
16 *251:20 *2389:A1 5.83121e-06
17 *251:20 *2392:A2_N 7.97547e-05
18 *251:20 *2549:CLK 6.53876e-05
19 *251:20 *376:104 4.01019e-05
20 *251:20 *385:10 1.38505e-05
21 *251:20 *677:22 0.000235573
22 *251:20 *824:6 9.14692e-05
23 *251:20 *825:160 6.16106e-05
24 *251:22 *385:10 4.12352e-05
25 *251:22 *825:160 0.00012116
*RES
1 *2548:Q *251:10 6.98 
2 *251:10 *251:20 9.38125 
3 *251:20 *251:22 1.12875 
4 *251:22 *1994:A 1.6 
5 *251:22 *1982:A 5.875 
6 *251:20 *2392:A1_N 1.6 
7 *251:10 *2696:A 1.6 
*END

*D_NET *252 0.00379131
*CONN
*I *1962:A I *D sky130_fd_sc_hd__inv_2
*I *2391:A1 I *D sky130_fd_sc_hd__a31o_1
*I *2390:B1 I *D sky130_fd_sc_hd__a21oi_1
*I *2396:A1 I *D sky130_fd_sc_hd__a221o_1
*I *2549:Q O *D sky130_fd_sc_hd__dfrtp_1
*CAP
1 *1962:A 8.0864e-05
2 *2391:A1 0
3 *2390:B1 0
4 *2396:A1 0.000279379
5 *2549:Q 0.000473194
6 *252:34 0.000130036
7 *252:12 0.000398679
8 *252:10 0.000641666
9 *1962:A *825:16 8.49205e-05
10 *1962:A *825:105 0.000111461
11 *2396:A1 *2077:A_N 0
12 *2396:A1 *2386:C1 4.33654e-05
13 *2396:A1 *2396:A2 6.9114e-05
14 *2396:A1 *2396:C1 3.64998e-06
15 *2396:A1 *384:16 3.67779e-05
16 *2396:A1 *385:22 0.000111547
17 *2396:A1 *825:24 2.1551e-05
18 *2396:A1 *826:172 0.000463236
19 *252:10 *2393:A1 9.84128e-05
20 *252:10 *2549:RESET_B 0.000119066
21 *252:10 *385:10 1.23391e-05
22 *252:10 *826:172 0.000104672
23 *252:12 *1995:C1 0
24 *252:12 *2386:C1 1.34361e-05
25 *252:12 *2393:A1 8.7152e-06
26 *252:12 *826:172 0.000222509
27 *252:34 *2393:A2 2.39856e-05
28 *252:34 *688:22 8.23457e-05
29 *252:34 *825:16 0.00015639
*RES
1 *2549:Q *252:10 9.57 
2 *252:10 *252:12 2.655 
3 *252:12 *2396:A1 10.2 
4 *252:12 *2390:B1 3.6 
5 *252:10 *252:34 3.485 
6 *252:34 *2391:A1 1.6 
7 *252:34 *1962:A 3.43 
*END

*D_NET *253 0.00536922
*CONN
*I *2397:A1 I *D sky130_fd_sc_hd__o21a_1
*I *2398:C1 I *D sky130_fd_sc_hd__a211o_1
*I *2395:A I *D sky130_fd_sc_hd__xnor2_1
*I *2394:B1 I *D sky130_fd_sc_hd__a21o_1
*I *2079:D I *D sky130_fd_sc_hd__or4_2
*I *2402:D1 I *D sky130_fd_sc_hd__a2111o_1
*I *2400:A1 I *D sky130_fd_sc_hd__a221o_1
*I *2550:Q O *D sky130_fd_sc_hd__dfrtp_2
*CAP
1 *2397:A1 0
2 *2398:C1 5.42211e-05
3 *2395:A 4.53309e-05
4 *2394:B1 5.81673e-05
5 *2079:D 0.000117932
6 *2402:D1 1.90984e-05
7 *2400:A1 0
8 *2550:Q 0.000273729
9 *253:33 0.000403968
10 *253:26 0.000462925
11 *253:20 0.000308656
12 *253:18 0.000402695
13 *253:14 0.000380841
14 *253:12 0.000297487
15 *2079:D *2079:C 0.000155684
16 *2079:D *255:32 1.33285e-05
17 *2394:B1 *2394:A1 5.83121e-06
18 *2394:B1 *2399:B 2.75229e-05
19 *2394:B1 *468:16 4.82863e-05
20 *2395:A *2395:B 0.00011852
21 *2395:A *467:18 0.000140905
22 *2395:A *468:8 7.90356e-06
23 *2395:A *468:16 1.71013e-05
24 *2395:A *824:22 3.47757e-05
25 *2398:C1 *2405:A2 0.000139238
26 *2398:C1 *825:41 0.000181376
27 *2398:C1 *826:172 1.73877e-05
28 *2402:D1 *2079:C 4.00541e-06
29 *253:12 *467:78 5.72091e-05
30 *253:12 *854:16 0.000141606
31 *253:14 *2405:A2 1.91597e-05
32 *253:18 *2395:B 3.64998e-06
33 *253:18 *2405:A2 5.83121e-06
34 *253:18 *2550:D 3.72916e-05
35 *253:18 *467:18 4.66742e-05
36 *253:18 *823:90 8.63479e-05
37 *253:20 *2394:A1 8.09021e-06
38 *253:20 *468:16 9.24049e-05
39 *253:20 *824:22 0.000102184
40 *253:26 *2394:A1 2.03578e-05
41 *253:26 *2399:A 0.000359574
42 *253:26 *2399:B 9.5433e-05
43 *253:26 *2400:A2 2.87433e-05
44 *253:26 *2400:B1 4.67146e-05
45 *253:26 *732:14 0
46 *253:26 *824:22 2.68721e-05
47 *253:33 *2399:A 0.000119756
48 *253:33 *2400:B1 1.34503e-05
49 *253:33 *2400:B2 2.48591e-05
50 *253:33 *2404:C1 1.74678e-05
51 *253:33 *2405:B1 0.000120655
52 *253:33 *255:25 2.75145e-05
53 *253:33 *255:32 0.000130453
*RES
1 *2550:Q *253:12 10.445 
2 *253:12 *253:14 0.45 
3 *253:14 *253:18 6.935 
4 *253:18 *253:20 2.145 
5 *253:20 *253:26 6.845 
6 *253:26 *2400:A1 1.6 
7 *253:26 *253:33 4.935 
8 *253:33 *2402:D1 1.96 
9 *253:33 *2079:D 3.775 
10 *253:20 *2394:B1 4.74 
11 *253:18 *2395:A 5.745 
12 *253:14 *2398:C1 7.745 
13 *253:12 *2397:A1 1.6 
*END

*D_NET *254 0.00532858
*CONN
*I *2079:C I *D sky130_fd_sc_hd__or4_2
*I *2402:C1 I *D sky130_fd_sc_hd__a2111o_1
*I *2404:A1 I *D sky130_fd_sc_hd__a221o_1
*I *2398:B1 I *D sky130_fd_sc_hd__a211o_1
*I *2399:A I *D sky130_fd_sc_hd__xnor2_1
*I *2401:A1 I *D sky130_fd_sc_hd__o21a_1
*I *2551:Q O *D sky130_fd_sc_hd__dfrtp_2
*CAP
1 *2079:C 7.67335e-05
2 *2402:C1 0
3 *2404:A1 0
4 *2398:B1 4.84376e-05
5 *2399:A 0.000319712
6 *2401:A1 0.000158759
7 *2551:Q 3.69573e-05
8 *254:68 0.000379823
9 *254:55 0.000481425
10 *254:23 0.000482765
11 *254:8 0.000273375
12 *254:6 0.000215293
13 *2079:C *2079:A 0
14 *2079:C *2079:B 9.27699e-05
15 *2079:C *2402:B1 4.82919e-05
16 *2079:C *255:32 1.08758e-05
17 *2398:B1 *467:52 4.66108e-05
18 *2398:B1 *468:27 4.66108e-05
19 *2398:B1 *825:41 0.000114492
20 *2398:B1 *837:124 0.000107634
21 *2399:A *2400:A2 4.43871e-06
22 *2399:A *2400:B1 7.22354e-05
23 *2399:A *2403:B 1.44259e-05
24 *2399:A *732:14 5.16418e-05
25 *2401:A1 *2401:B1 5.30673e-05
26 *2401:A1 *2403:A 6.97118e-05
27 *2401:A1 *2552:CLK 4.36241e-05
28 *2401:A1 *255:25 0.000114492
29 *2401:A1 *823:90 0.000326915
30 *2401:A1 *825:60 2.42236e-05
31 *254:6 *2404:C1 1.97779e-05
32 *254:23 *255:25 0.000192943
33 *254:23 *823:90 3.46611e-05
34 *254:23 *825:41 5.16348e-05
35 *254:23 *825:52 2.13396e-05
36 *254:23 *837:124 4.9968e-05
37 *254:23 *837:130 0.000167
38 *254:55 *895:DIODE 8.73389e-06
39 *254:55 *2377:A2 8.06935e-06
40 *254:55 *2400:A2 3.81908e-06
41 *254:55 *2404:B2 1.58605e-05
42 *254:55 *2404:C1 2.38893e-05
43 *254:68 *895:DIODE 8.71128e-05
44 *254:68 *2404:A2 1.37395e-05
45 *254:68 *2406:A 4.66108e-05
46 *254:68 *2407:B2 0
47 *254:68 *2552:RESET_B 1.7635e-05
48 *254:68 *854:16 0.000211423
49 *2079:D *2079:C 0.000155684
50 *2402:D1 *2079:C 4.00541e-06
51 *253:26 *2399:A 0.000359574
52 *253:33 *2399:A 0.000119756
*RES
1 *2551:Q *254:6 2.05 
2 *254:6 *254:8 2 
3 *254:8 *2401:A1 8.715 
4 *254:8 *254:23 3.42 
5 *254:23 *2399:A 13.255 
6 *254:23 *2398:B1 5.43 
7 *254:6 *254:55 2.19 
8 *254:55 *2404:A1 1.6 
9 *254:55 *254:68 9.175 
10 *254:68 *2402:C1 1.6 
11 *254:68 *2079:C 4.24 
*END

*D_NET *255 0.00384792
*CONN
*I *2407:A1 I *D sky130_fd_sc_hd__a22o_1
*I *2402:B1 I *D sky130_fd_sc_hd__a2111o_1
*I *2079:B I *D sky130_fd_sc_hd__or4_2
*I *2405:A1 I *D sky130_fd_sc_hd__o21a_1
*I *2403:A I *D sky130_fd_sc_hd__xnor2_1
*I *2552:Q O *D sky130_fd_sc_hd__dfrtp_1
*CAP
1 *2407:A1 8.30958e-05
2 *2402:B1 6.14157e-06
3 *2079:B 0.000165646
4 *2405:A1 0
5 *2403:A 4.26329e-05
6 *2552:Q 0
7 *255:32 0.00030366
8 *255:25 0.000292301
9 *255:8 0.00045443
10 *255:4 0.000334465
11 *2403:A *2552:CLK 0.000158066
12 *2407:A1 *2407:B1 4.65515e-05
13 *2407:A1 *825:60 6.26945e-05
14 *255:8 *2404:B1 3.09179e-05
15 *255:8 *2407:B1 0.000102024
16 *255:8 *2552:CLK 3.00399e-05
17 *255:8 *825:60 0.000442049
18 *255:25 *2400:B1 1.37328e-05
19 *255:25 *2404:C1 2.49909e-05
20 *255:25 *825:52 0.000104872
21 *255:25 *825:60 0.000191663
22 *255:32 *2404:C1 4.21973e-05
23 *255:32 *2405:B1 0.000120655
24 *255:32 *2406:B 4.80285e-05
25 *255:32 *2552:D 4.66826e-05
26 *2079:C *2079:B 9.27699e-05
27 *2079:C *2402:B1 4.82919e-05
28 *2079:C *255:32 1.08758e-05
29 *2079:D *255:32 1.33285e-05
30 *2401:A1 *2403:A 6.97118e-05
31 *2401:A1 *255:25 0.000114492
32 *253:33 *255:25 2.75145e-05
33 *253:33 *255:32 0.000130453
34 *254:23 *255:25 0.000192943
*RES
1 *2552:Q *255:4 1.6 
2 *255:4 *255:8 7.365 
3 *255:8 *2403:A 3.085 
4 *255:8 *255:25 8.485 
5 *255:25 *2405:A1 1.6 
6 *255:25 *255:32 3.555 
7 *255:32 *2079:B 4.045 
8 *255:32 *2402:B1 2.05 
9 *255:4 *2407:A1 3.445 
*END

*D_NET *256 0.00285669
*CONN
*I *2411:A1 I *D sky130_fd_sc_hd__a22o_1
*I *2079:A I *D sky130_fd_sc_hd__or4_2
*I *2406:A I *D sky130_fd_sc_hd__xnor2_1
*I *2408:A1 I *D sky130_fd_sc_hd__a22o_1
*I *2553:Q O *D sky130_fd_sc_hd__dfrtp_1
*CAP
1 *2411:A1 0.000120391
2 *2079:A 8.77963e-05
3 *2406:A 0.000238529
4 *2408:A1 0.0002071
5 *2553:Q 3.47472e-05
6 *256:34 0.000276322
7 *256:10 0.000471836
8 *256:8 0.000129089
9 *2079:A *470:10 4.82863e-05
10 *2406:A *895:DIODE 0.00011577
11 *2408:A1 *2407:B2 0.000162318
12 *2408:A1 *2408:A2 0.000139231
13 *2408:A1 *2412:A2 0.000219012
14 *2408:A1 *2553:D 2.77283e-05
15 *2411:A1 *2411:B2 4.82863e-05
16 *2411:A1 *470:10 0.000262108
17 *256:10 *2407:B2 3.16237e-05
18 *256:10 *2412:A2 7.5416e-05
19 *256:34 *2412:A2 0.000114492
20 *2079:C *2079:A 0
21 *254:68 *2406:A 4.66108e-05
*RES
1 *2553:Q *256:8 4.05 
2 *256:8 *256:10 0.87 
3 *256:10 *2408:A1 8.835 
4 *256:10 *2406:A 7.845 
5 *256:8 *256:34 3.38 
6 *256:34 *2079:A 3.1 
7 *256:34 *2411:A1 4.48 
*END

*D_NET *257 0.0029022
*CONN
*I *2414:A1 I *D sky130_fd_sc_hd__a22o_1
*I *2081:A I *D sky130_fd_sc_hd__or2_1
*I *2409:C1 I *D sky130_fd_sc_hd__a211o_1
*I *2412:A1 I *D sky130_fd_sc_hd__a22o_1
*I *2410:A I *D sky130_fd_sc_hd__xnor2_1
*I *2554:Q O *D sky130_fd_sc_hd__dfrtp_1
*CAP
1 *2414:A1 0.000109254
2 *2081:A 0
3 *2409:C1 0.000199376
4 *2412:A1 0
5 *2410:A 0.000260468
6 *2554:Q 0
7 *257:32 0.000290069
8 *257:28 0.000257097
9 *257:19 0.000116982
10 *257:4 0.0003203
11 *2409:C1 *2409:A2 0.000176219
12 *2409:C1 *2409:B1 4.58294e-05
13 *2409:C1 *472:18 2.8185e-05
14 *2410:A *2080:A2 1.34594e-05
15 *2410:A *2410:B 0.000343566
16 *2410:A *2411:B1 8.49205e-05
17 *2414:A1 *2414:B2 4.18603e-06
18 *2414:A1 *470:25 0
19 *2414:A1 *677:82 0
20 *2414:A1 *843:26 4.31106e-05
21 *2414:A1 *843:28 0.000183738
22 *257:19 *2412:B2 5.63405e-05
23 *257:19 *470:25 0
24 *257:19 *843:28 0.000163992
25 *257:28 *470:25 0
26 *257:28 *843:28 0.00011852
27 *257:32 *2081:B 8.65905e-05
*RES
1 *2554:Q *257:4 1.6 
2 *257:4 *2410:A 6.475 
3 *257:4 *257:19 3.89 
4 *257:19 *2412:A1 3.6 
5 *257:19 *257:28 1.38 
6 *257:28 *257:32 3.485 
7 *257:32 *2409:C1 5.17 
8 *257:32 *2081:A 1.6 
9 *257:28 *2414:A1 6.255 
*END

*D_NET *258 0.00230306
*CONN
*I *2417:A1 I *D sky130_fd_sc_hd__a22o_1
*I *2716:A I *D sky130_fd_sc_hd__dlygate4sd3_1
*I *2413:A I *D sky130_fd_sc_hd__xnor2_1
*I *2081:B I *D sky130_fd_sc_hd__or2_1
*I *2555:Q O *D sky130_fd_sc_hd__dfrtp_1
*CAP
1 *2417:A1 0.00012386
2 *2716:A 8.09926e-05
3 *2413:A 0.00014883
4 *2081:B 0.000138545
5 *2555:Q 0
6 *258:19 0.000229822
7 *258:17 0.00016781
8 *258:4 0.000182495
9 *2413:A *2083:A2 0.000122337
10 *2413:A *2414:B1 8.07454e-05
11 *2413:A *843:56 0.000280796
12 *2417:A1 *2415:A2 0.000122331
13 *2417:A1 *2415:B1 4.87419e-05
14 *2417:A1 *2415:B2 0.000115464
15 *2417:A1 *272:35 0
16 *2417:A1 *843:18 5.53249e-06
17 *2417:A1 *843:24 0.000117108
18 *2417:A1 *843:26 2.23922e-05
19 *2417:A1 *855:74 3.84409e-05
20 *258:17 *843:26 2.92496e-05
21 *258:17 *843:28 9.54399e-05
22 *258:17 *855:74 6.55328e-05
23 *257:32 *2081:B 8.65905e-05
*RES
1 *2555:Q *258:4 1.6 
2 *258:4 *2081:B 3.955 
3 *258:4 *258:17 3.38 
4 *258:17 *258:19 2 
5 *258:19 *2413:A 5.62 
6 *258:19 *2716:A 2.74 
7 *258:17 *2417:A1 7.245 
*END

*D_NET *259 0.00204106
*CONN
*I *2420:A1 I *D sky130_fd_sc_hd__a22o_1
*I *2418:A1 I *D sky130_fd_sc_hd__a22o_1
*I *2083:D1 I *D sky130_fd_sc_hd__a2111o_1
*I *2416:A I *D sky130_fd_sc_hd__xnor2_1
*I *2556:Q O *D sky130_fd_sc_hd__dfrtp_1
*CAP
1 *2420:A1 0.000194939
2 *2418:A1 0
3 *2083:D1 0
4 *2416:A 0.000146181
5 *2556:Q 0.000123298
6 *259:26 0.00022299
7 *259:12 0.000208659
8 *259:8 0.000213827
9 *2416:A *2083:C1 4.66108e-05
10 *2416:A *2416:B 4.82863e-05
11 *2416:A *2417:B1 0.000200615
12 *2416:A *2418:B2 1.47256e-05
13 *2420:A1 *2420:B1 4.99619e-05
14 *2420:A1 *2420:B2 4.66108e-05
15 *2420:A1 *2421:B2 4.05674e-06
16 *2420:A1 *272:12 4.5783e-05
17 *2420:A1 *474:8 5.12017e-06
18 *2420:A1 *677:69 0.000116158
19 *2420:A1 *825:119 5.16348e-05
20 *259:8 *2415:A2 2.8185e-05
21 *259:8 *2556:D 2.75145e-05
22 *259:8 *677:80 1.03423e-05
23 *259:12 *2083:C1 2.92496e-05
24 *259:12 *2411:B2 4.68199e-05
25 *259:12 *2418:B2 3.86607e-05
26 *259:12 *272:12 4.39001e-05
27 *259:26 *2418:B2 3.37099e-05
28 *259:26 *272:12 3.37177e-05
29 *259:26 *825:119 9.50342e-06
*RES
1 *2556:Q *259:8 5.085 
2 *259:8 *259:12 3.635 
3 *259:12 *2416:A 4.81 
4 *259:12 *2083:D1 1.6 
5 *259:8 *259:26 0.87 
6 *259:26 *2418:A1 3.6 
7 *259:26 *2420:A1 7.41 
*END

*D_NET *260 0.00194598
*CONN
*I *2421:A1 I *D sky130_fd_sc_hd__a22o_1
*I *2419:A I *D sky130_fd_sc_hd__xnor2_1
*I *2243:A1 I *D sky130_fd_sc_hd__o21a_1
*I *2084:A I *D sky130_fd_sc_hd__nor2_1
*I *2557:Q O *D sky130_fd_sc_hd__dfrtp_1
*CAP
1 *2421:A1 0
2 *2419:A 0
3 *2243:A1 4.77361e-05
4 *2084:A 0.000147591
5 *2557:Q 0
6 *260:25 0.000158421
7 *260:21 0.000190332
8 *260:4 0.000227239
9 *2084:A *2420:A2 6.6564e-05
10 *2084:A *2549:RESET_B 0.000194694
11 *2084:A *2557:RESET_B 0.000106145
12 *2084:A *745:8 2.75229e-05
13 *2243:A1 *2419:B 4.41506e-05
14 *2243:A1 *2421:A2 3.38425e-05
15 *2243:A1 *825:105 4.66108e-05
16 *260:21 *2420:A2 4.75576e-05
17 *260:21 *2557:RESET_B 1.35054e-05
18 *260:21 *843:18 9.14049e-05
19 *260:25 *2421:A2 0.000352438
20 *260:25 *2421:B1 0.000150229
*RES
1 *2557:Q *260:4 1.6 
2 *260:4 *2084:A 5.425 
3 *260:4 *260:21 5.575 
4 *260:21 *260:25 3.57 
5 *260:25 *2243:A1 2.74 
6 *260:25 *2419:A 1.6 
7 *260:21 *2421:A1 1.6 
*END

*D_NET *261 0.00072758
*CONN
*I *2658:A I *D sky130_fd_sc_hd__dlygate4sd3_1
*I *2250:A2 I *D sky130_fd_sc_hd__a221o_1
*I *2492:Q O *D sky130_fd_sc_hd__dfrtp_1
*CAP
1 *2658:A 7.05405e-05
2 *2250:A2 0
3 *2492:Q 5.93263e-05
4 *261:8 0.000129867
5 *2658:A *2141:A1 0.000151474
6 *2658:A *2250:A1 1.78675e-05
7 *2658:A *2250:B1 1.54111e-05
8 *2658:A *431:14 0.000151474
9 *261:8 *2250:A1 6.44782e-05
10 *261:8 *2250:B1 6.71427e-05
*RES
1 *2492:Q *261:8 2.9275 
2 *261:8 *2250:A2 1.6 
3 *261:8 *2658:A 7.7675 
*END

*D_NET *262 0.000972784
*CONN
*I *2677:A I *D sky130_fd_sc_hd__dlygate4sd3_1
*I *2252:A2 I *D sky130_fd_sc_hd__a221o_1
*I *2493:Q O *D sky130_fd_sc_hd__dfrtp_1
*CAP
1 *2677:A 0.00014598
2 *2252:A2 0
3 *2493:Q 0.000134408
4 *262:10 0.000280388
5 *2677:A *2145:A1 2.16309e-05
6 *2677:A *2252:C1 4.58243e-05
7 *2677:A *2253:B1 0.000161132
8 *262:10 *2141:B1 0
9 *262:10 *2252:A1 2.05568e-05
10 *262:10 *2252:C1 0.000107636
11 *262:10 *725:45 3.03684e-05
12 *2252:B2 *262:10 2.48591e-05
*RES
1 *2493:Q *262:10 4.4125 
2 *262:10 *2252:A2 1.6 
3 *262:10 *2677:A 8.8025 
*END

*D_NET *263 0.00516761
*CONN
*I *2422:A I *D sky130_fd_sc_hd__or2_1
*I *2425:A2 I *D sky130_fd_sc_hd__a31o_1
*I *2094:B I *D sky130_fd_sc_hd__and4_1
*I *2093:A I *D sky130_fd_sc_hd__nand2_1
*I *2097:C I *D sky130_fd_sc_hd__and4b_1
*I *2095:B I *D sky130_fd_sc_hd__nand4_1
*I *2558:Q O *D sky130_fd_sc_hd__dfrtp_1
*CAP
1 *2422:A 0
2 *2425:A2 0.000282953
3 *2094:B 0.000176266
4 *2093:A 0.000187034
5 *2097:C 0.000106934
6 *2095:B 0.000161677
7 *2558:Q 0
8 *263:60 0.000448585
9 *263:45 0.000473517
10 *263:23 0.000293968
11 *263:8 0.000326961
12 *263:6 0.000296903
13 *2093:A *2423:B 8.8266e-05
14 *2093:A *483:8 4.60584e-05
15 *2095:B *2095:A 4.99619e-05
16 *2095:B *2095:C 0.000160784
17 *2095:B *269:25 1.60203e-05
18 *2095:B *269:36 0.000163204
19 *2097:C *2426:B 7.00889e-06
20 *2425:A2 *2422:B 0
21 *2425:A2 *2423:B 0.000216098
22 *2425:A2 *2425:A1 1.65105e-05
23 *2425:A2 *2560:RESET_B 0.000116158
24 *2425:A2 *859:53 0.00011686
25 *2425:A2 *859:93 0.000240418
26 *263:8 *2094:C 0.0001471
27 *263:8 *2095:C 2.60986e-05
28 *263:8 *2097:A_N 0.000291358
29 *263:8 *2424:B 3.47498e-05
30 *263:8 *2559:CLK 3.09233e-05
31 *263:8 *265:10 7.89611e-05
32 *263:8 *269:36 0
33 *263:45 *2094:C 9.1566e-05
34 *263:45 *2424:B 6.31804e-05
35 *263:45 *2559:CLK 0.000138544
36 *263:60 *2424:A 0.000272978
*RES
1 *2558:Q *263:6 3.6 
2 *263:6 *263:8 5.205 
3 *263:8 *2095:B 7.26 
4 *263:8 *263:23 2 
5 *263:23 *2097:C 2.74 
6 *263:23 *2093:A 4.84 
7 *263:6 *263:45 5.42 
8 *263:45 *2094:B 8.21 
9 *263:45 *263:60 2.865 
10 *263:60 *2425:A2 12.365 
11 *263:60 *2422:A 1.6 
*END

*D_NET *264 0.00448777
*CONN
*I *2699:A I *D sky130_fd_sc_hd__dlygate4sd3_1
*I *2094:A I *D sky130_fd_sc_hd__and4_1
*I *2097:D I *D sky130_fd_sc_hd__and4b_1
*I *2095:A I *D sky130_fd_sc_hd__nand4_1
*I *2425:A1 I *D sky130_fd_sc_hd__a31o_1
*I *2559:Q O *D sky130_fd_sc_hd__dfrtp_1
*CAP
1 *2699:A 9.79171e-05
2 *2094:A 0.00018328
3 *2097:D 1.28078e-05
4 *2095:A 0.000184537
5 *2425:A1 3.02593e-05
6 *2559:Q 5.15558e-05
7 *264:31 0.000289253
8 *264:29 0.000706805
9 *264:12 0.000684693
10 *264:6 0.000372288
11 *2094:A *2094:C 0.000140999
12 *2094:A *2094:D 4.80285e-05
13 *2094:A *2096:B 3.69334e-05
14 *2094:A *2644:A 0
15 *2094:A *484:10 4.62478e-05
16 *2095:A *2095:C 5.02217e-05
17 *2095:A *2121:A2 0
18 *2095:A *2121:B1 0
19 *2095:A *2426:A 0
20 *2095:A *269:25 0.00012657
21 *2095:A *485:6 7.00889e-06
22 *2097:D *2426:B 2.05864e-05
23 *2425:A1 *2560:RESET_B 1.52184e-05
24 *2425:A1 *269:66 4.13171e-05
25 *2699:A *723:16 0.000103192
26 *264:6 *859:43 5.0751e-05
27 *264:12 *2094:D 4.38813e-05
28 *264:12 *2422:B 2.42236e-05
29 *264:12 *2560:RESET_B 4.76581e-05
30 *264:12 *269:66 0.000123828
31 *264:12 *859:43 8.82051e-05
32 *264:12 *859:93 0.000113191
33 *264:29 *2425:B1 4.35348e-05
34 *264:29 *2426:B 8.21807e-05
35 *264:29 *2560:RESET_B 0.000227566
36 *264:31 *2094:C 4.03082e-05
37 *264:31 *2095:C 1.07797e-05
38 *264:31 *2096:B 8.77073e-05
39 *264:31 *2426:A 0
40 *264:31 *2426:B 0.000187766
41 *2095:B *2095:A 4.99619e-05
42 *2125:A2 *2699:A 0
43 *2425:A2 *2425:A1 1.65105e-05
*RES
1 *2559:Q *264:6 2.74 
2 *264:6 *264:12 7.595 
3 *264:12 *2425:A1 4.47 
4 *264:12 *264:29 9.385 
5 *264:29 *264:31 3.165 
6 *264:31 *2095:A 6.825 
7 *264:31 *2097:D 3.79875 
8 *264:29 *2094:A 7.56 
9 *264:6 *2699:A 7.745 
*END

*D_NET *265 0.00306681
*CONN
*I *2425:B1 I *D sky130_fd_sc_hd__a31o_1
*I *2094:C I *D sky130_fd_sc_hd__and4_1
*I *2097:B I *D sky130_fd_sc_hd__and4b_1
*I *2095:C I *D sky130_fd_sc_hd__nand4_1
*I *2560:Q O *D sky130_fd_sc_hd__dfrtp_1
*CAP
1 *2425:B1 0.000128916
2 *2094:C 0.000254094
3 *2097:B 0
4 *2095:C 0.00013467
5 *2560:Q 0
6 *265:10 0.000172747
7 *265:8 0.000520123
8 *265:4 0.000356869
9 *2094:C *2094:D 0.000124895
10 *2094:C *2426:B 4.44927e-05
11 *2095:C *2426:B 8.53113e-06
12 *2425:B1 *2425:A3 2.14183e-05
13 *2425:B1 *2426:B 4.82919e-05
14 *2425:B1 *2560:RESET_B 5.95498e-05
15 *2425:B1 *269:49 1.92617e-05
16 *2425:B1 *269:66 8.07454e-05
17 *265:8 *2426:B 0.000168781
18 *265:10 *2426:B 0.000133075
19 *2094:A *2094:C 0.000140999
20 *2095:A *2095:C 5.02217e-05
21 *2095:B *2095:C 0.000160784
22 *263:8 *2094:C 0.0001471
23 *263:8 *2095:C 2.60986e-05
24 *263:8 *265:10 7.89611e-05
25 *263:45 *2094:C 9.1566e-05
26 *264:29 *2425:B1 4.35348e-05
27 *264:31 *2094:C 4.03082e-05
28 *264:31 *2095:C 1.07797e-05
*RES
1 *2560:Q *265:4 1.6 
2 *265:4 *265:8 4.865 
3 *265:8 *265:10 1.635 
4 *265:10 *2095:C 6.12 
5 *265:10 *2097:B 3.6 
6 *265:8 *2094:C 9.945 
7 *265:4 *2425:B1 4.855 
*END

*D_NET *266 0.00310949
*CONN
*I *2097:A_N I *D sky130_fd_sc_hd__and4b_1
*I *2429:A1 I *D sky130_fd_sc_hd__a21o_1
*I *2099:A I *D sky130_fd_sc_hd__nor2_4
*I *2428:S I *D sky130_fd_sc_hd__mux2_1
*I *2561:Q O *D sky130_fd_sc_hd__dfrtp_2
*CAP
1 *2097:A_N 0.000264906
2 *2429:A1 0
3 *2099:A 5.04058e-05
4 *2428:S 0.000147226
5 *2561:Q 0
6 *266:30 0.000464909
7 *266:19 0.000423799
8 *266:4 0.000320616
9 *2097:A_N *2424:B 0.000159747
10 *2097:A_N *2429:B1 8.57024e-05
11 *2097:A_N *2560:CLK 5.36281e-05
12 *2099:A *2099:B 5.4155e-06
13 *2099:A *2429:B1 4.82919e-05
14 *2099:A *2560:CLK 8.65961e-05
15 *2428:S *2099:B 2.76356e-05
16 *2428:S *2428:A0 0.00022921
17 *2428:S *2430:A 6.23375e-05
18 *2428:S *486:10 3.25997e-05
19 *266:19 *2099:B 5.85534e-05
20 *266:19 *2430:B 2.10034e-05
21 *266:30 *2429:B1 0.000275553
22 *263:8 *2097:A_N 0.000291358
*RES
1 *2561:Q *266:4 1.6 
2 *266:4 *2428:S 9.05 
3 *266:4 *266:19 2.175 
4 *266:19 *2099:A 3.01 
5 *266:19 *266:30 2.865 
6 *266:30 *2429:A1 1.6 
7 *266:30 *2097:A_N 11.195 
*END

*D_NET *267 0.00214351
*CONN
*I *2429:B1 I *D sky130_fd_sc_hd__a21o_1
*I *2098:A I *D sky130_fd_sc_hd__nand2_1
*I *2427:A I *D sky130_fd_sc_hd__nor2_1
*I *2096:A I *D sky130_fd_sc_hd__nand2_1
*I *2562:Q O *D sky130_fd_sc_hd__dfrtp_1
*CAP
1 *2429:B1 0.00025524
2 *2098:A 0
3 *2427:A 0
4 *2096:A 0.000146578
5 *2562:Q 0
6 *267:12 0.000184992
7 *267:10 0.000145835
8 *267:4 0.00036266
9 *2096:A *2096:B 3.24894e-05
10 *2096:A *2098:B 0
11 *2096:A *2426:B 0
12 *2096:A *2427:B 4.66108e-05
13 *2096:A *486:10 1.7386e-05
14 *2429:B1 *2429:A2 4.82919e-05
15 *2429:B1 *2560:CLK 0.000242067
16 *2429:B1 *2560:D 9.60582e-07
17 *267:10 *2096:B 0
18 *267:10 *2100:B 0.000143508
19 *267:10 *2560:CLK 3.05295e-05
20 *267:10 *2560:D 2.87867e-05
21 *267:12 *2096:B 4.80285e-05
22 *2097:A_N *2429:B1 8.57024e-05
23 *2099:A *2429:B1 4.82919e-05
24 *266:30 *2429:B1 0.000275553
*RES
1 *2562:Q *267:4 1.6 
2 *267:4 *267:10 6.91 
3 *267:10 *267:12 0.795 
4 *267:12 *2096:A 4.15 
5 *267:12 *2427:A 1.6 
6 *267:10 *2098:A 1.6 
7 *267:4 *2429:B1 11.435 
*END

*D_NET *268 0.00259997
*CONN
*I *2246:A1 I *D sky130_fd_sc_hd__o21bai_1
*I *2120:A I *D sky130_fd_sc_hd__and2_1
*I *2092:B I *D sky130_fd_sc_hd__and2b_1
*I *2245:A1 I *D sky130_fd_sc_hd__o21ba_1
*I *2516:Q O *D sky130_fd_sc_hd__dfstp_1
*CAP
1 *2246:A1 0.00015807
2 *2120:A 0
3 *2092:B 0
4 *2245:A1 0.000102614
5 *2516:Q 2.34297e-05
6 *268:32 0.000224556
7 *268:14 0.000301804
8 *268:8 0.000289107
9 *2245:A1 *482:10 4.82863e-05
10 *2245:A1 *854:84 1.91597e-05
11 *2246:A1 *2120:B 3.45252e-05
12 *2246:A1 *2121:B1 3.83041e-05
13 *2246:A1 *507:8 0.000399106
14 *2246:A1 *856:45 0.000125085
15 *2246:A1 *856:55 0.00011577
16 *268:8 *2091:B 1.19928e-05
17 *268:8 *269:12 2.75145e-05
18 *268:8 *845:30 3.08098e-05
19 *268:14 *2092:A_N 0.000284665
20 *268:14 *845:30 0.000116165
21 *268:14 *854:10 0
22 *268:32 *2092:A_N 5.23362e-05
23 *268:32 *2120:B 8.28738e-05
24 *268:32 *269:12 0.000113797
25 *268:32 *854:8 0
26 *268:32 *854:10 0
*RES
1 *2516:Q *268:8 4.2225 
2 *268:8 *268:14 6.065 
3 *268:14 *2245:A1 3.355 
4 *268:14 *2092:B 1.6 
5 *268:8 *268:32 3.89 
6 *268:32 *2120:A 1.6 
7 *268:32 *2246:A1 6.91 
*END

*D_NET *269 0.00563922
*CONN
*I *2422:B I *D sky130_fd_sc_hd__or2_1
*I *2094:D I *D sky130_fd_sc_hd__and4_1
*I *2425:A3 I *D sky130_fd_sc_hd__a31o_1
*I *2093:B I *D sky130_fd_sc_hd__nand2_1
*I *2095:D I *D sky130_fd_sc_hd__nand4_1
*I *2121:A1 I *D sky130_fd_sc_hd__a21o_1
*I *2517:Q O *D sky130_fd_sc_hd__dfrtp_1
*CAP
1 *2422:B 0.000181419
2 *2094:D 0.000603862
3 *2425:A3 8.58275e-06
4 *2093:B 0
5 *2095:D 0
6 *2121:A1 8.57595e-05
7 *2517:Q 0.000220574
8 *269:66 0.00100651
9 *269:49 0.000327753
10 *269:36 0.000390792
11 *269:25 0.000358651
12 *269:12 0.00037213
13 *2094:D *2559:D 1.7386e-05
14 *2094:D *2559:RESET_B 7.40482e-06
15 *2094:D *859:43 7.74205e-06
16 *2094:D *859:53 1.4389e-05
17 *2121:A1 *485:12 4.65515e-05
18 *2422:B *2424:A 4.99619e-05
19 *2422:B *723:16 0.000120151
20 *2422:B *859:93 0
21 *269:12 *2100:B 0
22 *269:12 *2121:B1 0.00013994
23 *269:12 *854:8 0
24 *269:25 *2519:D 0.000203178
25 *269:25 *485:6 1.12578e-05
26 *269:25 *485:12 1.83847e-05
27 *269:36 *2423:B 2.97004e-06
28 *269:36 *2519:D 0.00029938
29 *269:36 *476:12 0
30 *269:49 *2423:B 4.62396e-05
31 *269:49 *2558:D 0
32 *269:66 *2449:CLK 0
33 *269:66 *2558:D 6.73751e-05
34 *269:66 *723:16 5.61663e-05
35 *2094:A *2094:D 4.80285e-05
36 *2094:C *2094:D 0.000124895
37 *2095:A *269:25 0.00012657
38 *2095:B *269:25 1.60203e-05
39 *2095:B *269:36 0.000163204
40 *2425:A1 *269:66 4.13171e-05
41 *2425:A2 *2422:B 0
42 *2425:B1 *2425:A3 2.14183e-05
43 *2425:B1 *269:49 1.92617e-05
44 *2425:B1 *269:66 8.07454e-05
45 *263:8 *269:36 0
46 *264:12 *2094:D 4.38813e-05
47 *264:12 *2422:B 2.42236e-05
48 *264:12 *269:66 0.000123828
49 *268:8 *269:12 2.75145e-05
50 *268:32 *269:12 0.000113797
*RES
1 *2517:Q *269:12 9.47 
2 *269:12 *2121:A1 3.1 
3 *269:12 *269:25 2.535 
4 *269:25 *2095:D 1.6 
5 *269:25 *269:36 8.48 
6 *269:36 *2093:B 3.6 
7 *269:36 *269:49 3.995 
8 *269:49 *2425:A3 1.96 
9 *269:49 *269:66 7.4975 
10 *269:66 *2094:D 11.5725 
11 *269:66 *2422:B 7.2675 
*END

*D_NET *270 0.00116893
*CONN
*I *2714:A I *D sky130_fd_sc_hd__dlygate4sd3_1
*I *2518:Q O *D sky130_fd_sc_hd__dfrtp_1
*CAP
1 *2714:A 0.000436405
2 *2518:Q 0.000436405
3 *2714:A *2549:RESET_B 1.70935e-05
4 *2714:A *837:18 1.03423e-05
5 *2714:A *843:12 0.000119096
6 *2714:A *843:18 0
7 *2714:A *856:98 5.04265e-05
8 *2714:A *856:100 9.91579e-05
*RES
1 *2518:Q *2714:A 13.83 
*END

*D_NET *271 0.00797422
*CONN
*I *2632:A I *D sky130_fd_sc_hd__clkbuf_2
*I *2629:A I *D sky130_fd_sc_hd__dlymetal6s2s_1
*I *2519:Q O *D sky130_fd_sc_hd__dfrtp_1
*CAP
1 *2632:A 6.22573e-05
2 *2629:A 0.00254738
3 *2519:Q 0.000170395
4 *271:8 0.00278003
5 *2629:A *2085:A2 0.000118339
6 *2629:A *2249:A2 0
7 *2629:A *2278:A1 0
8 *2629:A *2373:A 0.000325612
9 *2629:A *2517:D 0.000111096
10 *2629:A *2626:A 0
11 *2629:A *2630:A 0
12 *2629:A *2631:A 4.91189e-05
13 *2629:A *2717:A 1.7635e-05
14 *2629:A *448:28 4.48319e-05
15 *2629:A *677:65 1.81522e-05
16 *2629:A *717:379 0.000712333
17 *2629:A *822:18 0.000141303
18 *2629:A *823:20 0
19 *2629:A *826:22 0
20 *2629:A *842:36 0
21 *2629:A *843:12 0.000115464
22 *2629:A *844:8 0
23 *2629:A *844:14 0.000358233
24 *2629:A *854:12 0
25 *2632:A *845:10 1.08758e-05
26 *271:8 *2092:A_N 0.00012819
27 *271:8 *2120:B 3.67779e-05
28 *271:8 *2517:D 0.000113972
29 *271:8 *2631:A 8.08153e-06
30 *271:8 *845:30 0
31 *271:8 *856:96 0
32 *271:8 *856:98 0
33 *2326:A2_N *2629:A 9.50342e-06
34 *236:10 *2629:A 9.46424e-05
*RES
1 *2519:Q *271:8 7.53 
2 *271:8 *2629:A 17.1593 
3 *271:8 *2632:A 4.395 
*END

*D_NET *272 0.00635488
*CONN
*I *2626:A I *D sky130_fd_sc_hd__clkbuf_4
*I *2420:B2 I *D sky130_fd_sc_hd__a22o_1
*I *2414:B2 I *D sky130_fd_sc_hd__a22o_1
*I *2417:B2 I *D sky130_fd_sc_hd__a22o_1
*I *2411:B2 I *D sky130_fd_sc_hd__a22o_1
*I *2520:Q O *D sky130_fd_sc_hd__dfrtp_1
*CAP
1 *2626:A 0.000272065
2 *2420:B2 2.51931e-05
3 *2414:B2 0.000111764
4 *2417:B2 0
5 *2411:B2 0.000425299
6 *2520:Q 0.000136856
7 *272:35 0.000197694
8 *272:12 0.000631796
9 *272:10 0.000340956
10 *272:8 0.000604118
11 *2411:B2 *2083:B1 0.000224487
12 *2411:B2 *2083:C1 7.99972e-05
13 *2411:B2 *2408:B1 0.000378975
14 *2411:B2 *2409:A1 1.88656e-05
15 *2411:B2 *2409:A2 4.9968e-05
16 *2411:B2 *2409:B1 1.31732e-05
17 *2411:B2 *2412:A2 0.000186627
18 *2411:B2 *2413:B 2.08979e-05
19 *2411:B2 *468:44 0
20 *2411:B2 *468:77 0
21 *2411:B2 *472:18 0.000107636
22 *2411:B2 *677:82 6.54191e-05
23 *2414:B2 *2083:A2 4.65721e-05
24 *2414:B2 *2415:A2 4.9968e-05
25 *2414:B2 *2415:B1 1.91597e-05
26 *2414:B2 *2417:B1 4.66108e-05
27 *2414:B2 *677:82 7.21296e-06
28 *2414:B2 *843:24 3.60364e-05
29 *2626:A *2517:D 5.72004e-05
30 *2626:A *839:16 0.000308261
31 *2626:A *839:224 7.22354e-05
32 *2626:A *856:98 3.84331e-05
33 *272:8 *2717:A 6.52265e-05
34 *272:8 *677:65 0.0001947
35 *272:10 *2421:B1 1.93765e-05
36 *272:10 *677:65 0.000117948
37 *272:10 *677:69 6.38169e-05
38 *272:10 *839:16 0.000529421
39 *272:12 *677:69 1.01661e-05
40 *272:12 *677:80 5.58701e-05
41 *272:12 *677:82 5.53249e-06
42 *272:12 *825:119 4.9968e-05
43 *272:12 *839:16 0.000189919
44 *272:35 *2415:B1 8.49205e-05
45 *272:35 *2417:B1 8.05167e-05
46 *272:35 *2418:B2 4.47125e-05
47 *2411:A1 *2411:B2 4.82863e-05
48 *2414:A1 *2414:B2 4.18603e-06
49 *2417:A1 *272:35 0
50 *2420:A1 *2420:B2 4.66108e-05
51 *2420:A1 *272:12 4.5783e-05
52 *2629:A *2626:A 0
53 *259:12 *2411:B2 4.68199e-05
54 *259:12 *272:12 4.39001e-05
55 *259:26 *272:12 3.37177e-05
*RES
1 *2520:Q *272:8 6.465 
2 *272:8 *272:10 6.225 
3 *272:10 *272:12 3.675 
4 *272:12 *2411:B2 15.165 
5 *272:12 *272:35 4.205 
6 *272:35 *2417:B2 1.6 
7 *272:35 *2414:B2 7.94 
8 *272:10 *2420:B2 4.05 
9 *272:8 *2626:A 9.525 
*END

*D_NET *273 0.000719194
*CONN
*I *2439:D I *D sky130_fd_sc_hd__dfrtp_1
*I *2203:X O *D sky130_fd_sc_hd__a21o_1
*CAP
1 *2439:D 0.000275554
2 *2203:X 0.000275554
3 *2439:D *2203:A2 0
4 *2439:D *2441:RESET_B 0
5 *2439:D *2508:D 0.000101271
6 *2439:D *805:10 6.02123e-05
7 *2439:D *857:47 6.60261e-06
8 *2439:D *857:110 0
*RES
1 *2203:X *2439:D 11.775 
*END

*D_NET *274 0.000745264
*CONN
*I *2440:D I *D sky130_fd_sc_hd__dfrtp_1
*I *2206:X O *D sky130_fd_sc_hd__a221o_1
*CAP
1 *2440:D 0.000309561
2 *2206:X 0.000309561
3 *2440:D *2440:CLK 7.94673e-05
4 *2440:D *566:59 4.66742e-05
*RES
1 *2206:X *2440:D 7.115 
*END

*D_NET *275 0.0013567
*CONN
*I *2441:D I *D sky130_fd_sc_hd__dfrtp_1
*I *2208:X O *D sky130_fd_sc_hd__a221o_1
*CAP
1 *2441:D 0.000489868
2 *2208:X 0.000489868
3 *2441:D *2208:B1 8.57024e-05
4 *2441:D *2592:A 4.85494e-05
5 *2441:D *565:45 7.06865e-05
6 *2441:D *567:28 7.06865e-05
7 *2441:D *717:164 3.16265e-05
8 *2441:D *721:96 6.97118e-05
*RES
1 *2208:X *2441:D 13.815 
*END

*D_NET *276 0.000887034
*CONN
*I *2442:D I *D sky130_fd_sc_hd__dfrtp_1
*I *2210:X O *D sky130_fd_sc_hd__a221o_1
*CAP
1 *2442:D 0.000233694
2 *2210:X 0.000233694
3 *2442:D *2442:CLK 0.000241483
4 *2442:D *2510:RESET_B 6.65725e-05
5 *2442:D *566:35 6.55328e-05
6 *2442:D *858:38 4.60584e-05
*RES
1 *2210:X *2442:D 12.48 
*END

*D_NET *277 0.000860767
*CONN
*I *2443:D I *D sky130_fd_sc_hd__dfrtp_1
*I *2212:X O *D sky130_fd_sc_hd__a221o_1
*CAP
1 *2443:D 0.000322843
2 *2212:X 0.000322843
3 *2443:D *722:80 0
4 *2443:D *722:84 9.65676e-05
5 *2443:D *858:60 0.000118513
*RES
1 *2212:X *2443:D 11.79 
*END

*D_NET *278 0.000515222
*CONN
*I *2444:D I *D sky130_fd_sc_hd__dfrtp_1
*I *2214:X O *D sky130_fd_sc_hd__a221o_1
*CAP
1 *2444:D 0.000214313
2 *2214:X 0.000214313
3 *2444:D *2214:B1 0
4 *2444:D *2444:CLK 8.65961e-05
*RES
1 *2214:X *2444:D 6.425 
*END

*D_NET *279 0.000567173
*CONN
*I *2445:D I *D sky130_fd_sc_hd__dfrtp_1
*I *2216:X O *D sky130_fd_sc_hd__a221o_1
*CAP
1 *2445:D 0.000269829
2 *2216:X 0.000269829
3 *2445:D *2216:A2 2.75145e-05
4 *2445:D *858:62 0
5 *2217:B *2445:D 0
*RES
1 *2216:X *2445:D 10.5 
*END

*D_NET *280 0.000333012
*CONN
*I *2446:D I *D sky130_fd_sc_hd__dfrtp_1
*I *2220:X O *D sky130_fd_sc_hd__o21a_1
*CAP
1 *2446:D 9.78727e-05
2 *2220:X 9.78727e-05
3 *2446:D *2204:B 2.11084e-05
4 *211:95 *2446:D 0.000116158
*RES
1 *2220:X *2446:D 9.03 
*END

*D_NET *281 0.00274448
*CONN
*I *2717:A I *D sky130_fd_sc_hd__dlygate4sd3_1
*I *2243:X O *D sky130_fd_sc_hd__o21a_1
*CAP
1 *2717:A 0.00096733
2 *2243:X 0.00096733
3 *2717:A *2084:B 0.000113797
4 *2717:A *2085:A1 1.15688e-05
5 *2717:A *2085:A2 6.95753e-05
6 *2717:A *2243:B1 8.52172e-05
7 *2717:A *2520:CLK 3.09179e-05
8 *2717:A *2520:D 9.4087e-05
9 *2717:A *677:65 0.00015948
10 *2717:A *825:105 0.000162311
11 *2629:A *2717:A 1.7635e-05
12 *272:8 *2717:A 6.52265e-05
*RES
1 *2243:X *2717:A 20.595 
*END

*D_NET *282 0.000856703
*CONN
*I *2516:D I *D sky130_fd_sc_hd__dfstp_1
*I *2100:X O *D sky130_fd_sc_hd__or2_1
*CAP
1 *2516:D 0.000191666
2 *2100:X 0.000191666
3 *2516:D *2091:B 6.95739e-05
4 *2516:D *2506:D 2.87867e-05
5 *2516:D *2613:A 0.000291372
6 *2516:D *376:96 3.6964e-05
7 *2516:D *376:104 0
8 *2516:D *837:48 4.66742e-05
*RES
1 *2100:X *2516:D 11.415 
*END

*D_NET *283 0.00227469
*CONN
*I *2517:D I *D sky130_fd_sc_hd__dfrtp_1
*I *2085:X O *D sky130_fd_sc_hd__a21o_1
*CAP
1 *2517:D 0.000577735
2 *2085:X 0.000577735
3 *2517:D *2091:B 0.000253954
4 *2517:D *2373:B 4.82863e-05
5 *2517:D *481:8 0.000176035
6 *2517:D *837:18 0.000272984
7 *2517:D *837:30 1.33285e-05
8 *2517:D *843:12 7.23602e-05
9 *2517:D *856:98 0
10 *2626:A *2517:D 5.72004e-05
11 *2629:A *2517:D 0.000111096
12 *271:8 *2517:D 0.000113972
*RES
1 *2085:X *2517:D 19.77 
*END

*D_NET *284 0.00141568
*CONN
*I *2519:D I *D sky130_fd_sc_hd__dfrtp_1
*I *2121:X O *D sky130_fd_sc_hd__a21o_1
*CAP
1 *2519:D 0.000456561
2 *2121:X 0.000456561
3 *2519:D *2519:RESET_B 0
4 *2519:D *477:10 0
5 *269:25 *2519:D 0.000203178
6 *269:36 *2519:D 0.00029938
*RES
1 *2121:X *2519:D 15.495 
*END

*D_NET *285 0.000428285
*CONN
*I *2492:D I *D sky130_fd_sc_hd__dfrtp_1
*I *2249:X O *D sky130_fd_sc_hd__a32o_1
*CAP
1 *2492:D 0.000104192
2 *2249:X 0.000104192
3 *2492:D *2249:A3 2.92538e-05
4 *2492:D *2250:B1 6.90044e-05
5 *2492:D *2492:RESET_B 0.000121643
*RES
1 *2249:X *2492:D 9.465 
*END

*D_NET *286 0.00094703
*CONN
*I *2493:D I *D sky130_fd_sc_hd__dfrtp_1
*I *2251:X O *D sky130_fd_sc_hd__o21a_1
*CAP
1 *2493:D 0.000426979
2 *2251:X 0.000426979
3 *2493:D *735:8 0
4 *2493:D *791:61 9.30717e-05
5 *2493:D *864:10 0
*RES
1 *2251:X *2493:D 12.225 
*END

*D_NET *287 0.000871829
*CONN
*I *2494:D I *D sky130_fd_sc_hd__dfrtp_1
*I *2253:X O *D sky130_fd_sc_hd__o21a_1
*CAP
1 *2494:D 0.000392365
2 *2253:X 0.000392365
3 *2494:D *2494:RESET_B 8.70995e-05
*RES
1 *2253:X *2494:D 9.17 
*END

*D_NET *288 0.000867732
*CONN
*I *2495:D I *D sky130_fd_sc_hd__dfrtp_1
*I *2255:X O *D sky130_fd_sc_hd__o21a_1
*CAP
1 *2495:D 0.000382899
2 *2255:X 0.000382899
3 *2495:D *2481:RESET_B 0
4 *2495:D *728:28 6.73751e-05
5 *2495:D *828:62 0
6 *2495:D *841:55 0
7 *2495:D *850:69 0
8 *2686:A *2495:D 3.45588e-05
*RES
1 *2255:X *2495:D 12.795 
*END

*D_NET *289 0.000527817
*CONN
*I *2496:D I *D sky130_fd_sc_hd__dfrtp_1
*I *2257:X O *D sky130_fd_sc_hd__o21a_1
*CAP
1 *2496:D 0.00024864
2 *2257:X 0.00024864
3 *2496:D *2482:RESET_B 0
4 *2496:D *2496:RESET_B 0
5 *2496:D *728:14 3.05373e-05
*RES
1 *2257:X *2496:D 10.41 
*END

*D_NET *290 0.000949623
*CONN
*I *2497:D I *D sky130_fd_sc_hd__dfrtp_1
*I *2259:X O *D sky130_fd_sc_hd__o21a_1
*CAP
1 *2497:D 0.000274265
2 *2259:X 0.000274265
3 *2497:D *2463:CLK 7.89689e-05
4 *2497:D *2497:CLK 9.41541e-05
5 *2497:D *2498:CLK 4.80285e-05
6 *2497:D *2524:RESET_B 4.92206e-05
7 *2497:D *728:75 2.86623e-05
8 *2497:D *841:40 4.99619e-05
9 *2497:D *850:115 5.20968e-05
*RES
1 *2259:X *2497:D 12.0188 
*END

*D_NET *291 0.000505588
*CONN
*I *2498:D I *D sky130_fd_sc_hd__dfrtp_1
*I *2261:X O *D sky130_fd_sc_hd__o21a_1
*CAP
1 *2498:D 0.000121109
2 *2261:X 0.000121109
3 *2498:D *828:32 0.000123225
4 *2498:D *836:24 3.68682e-05
5 *2260:A2 *2498:D 7.23533e-05
6 *2667:A *2498:D 3.09233e-05
*RES
1 *2261:X *2498:D 9.465 
*END

*D_NET *292 0.00072109
*CONN
*I *2499:D I *D sky130_fd_sc_hd__dfrtp_1
*I *2263:X O *D sky130_fd_sc_hd__o21a_1
*CAP
1 *2499:D 0.000331291
2 *2263:X 0.000331291
3 *2499:D *2522:CLK 0
4 *2499:D *730:52 0
5 *2499:D *834:29 0
6 *2262:A2 *2499:D 5.85071e-05
*RES
1 *2263:X *2499:D 12.525 
*END

*D_NET *293 0.000312066
*CONN
*I *2500:D I *D sky130_fd_sc_hd__dfrtp_1
*I *2265:X O *D sky130_fd_sc_hd__o21a_1
*CAP
1 *2500:D 7.1724e-05
2 *2265:X 7.1724e-05
3 *2500:D *2263:A1 3.00381e-05
4 *2500:D *2265:B1 9.02937e-05
5 *2500:D *2636:A 0
6 *2500:D *730:46 4.82863e-05
*RES
1 *2265:X *2500:D 8.775 
*END

*D_NET *294 0.000652424
*CONN
*I *2501:D I *D sky130_fd_sc_hd__dfrtp_1
*I *2267:X O *D sky130_fd_sc_hd__o21a_1
*CAP
1 *2501:D 0.00011761
2 *2267:X 0.00011761
3 *2501:D *2267:B1 0.000138188
4 *2501:D *730:38 3.07686e-05
5 *2501:D *828:16 0.000248247
*RES
1 *2267:X *2501:D 10.6088 
*END

*D_NET *295 0.000427614
*CONN
*I *2502:D I *D sky130_fd_sc_hd__dfrtp_1
*I *2269:X O *D sky130_fd_sc_hd__o21a_1
*CAP
1 *2502:D 9.56753e-05
2 *2269:X 9.56753e-05
3 *2502:D *717:134 6.55328e-05
4 *2502:D *814:25 5.05437e-05
5 *2268:A2 *2502:D 0.000120186
*RES
1 *2269:X *2502:D 9.375 
*END

*D_NET *296 0.000654176
*CONN
*I *2503:D I *D sky130_fd_sc_hd__dfrtp_1
*I *2271:X O *D sky130_fd_sc_hd__o21a_1
*CAP
1 *2503:D 9.39839e-05
2 *2271:X 9.39839e-05
3 *2503:D *2271:B1 0.000138791
4 *2503:D *2469:RESET_B 0.000116158
5 *2503:D *2503:CLK 9.5101e-05
6 *2503:D *818:62 0.000116158
*RES
1 *2271:X *2503:D 10.755 
*END

*D_NET *297 0.000239386
*CONN
*I *2504:D I *D sky130_fd_sc_hd__dfrtp_1
*I *2273:X O *D sky130_fd_sc_hd__o21a_1
*CAP
1 *2504:D 0.000109139
2 *2273:X 0.000109139
3 *2504:D *717:335 2.11084e-05
4 *2504:D *829:86 0
5 *2504:D *845:42 0
*RES
1 *2273:X *2504:D 9.03 
*END

*D_NET *298 0.00176179
*CONN
*I *2505:D I *D sky130_fd_sc_hd__dfrtp_1
*I *2275:X O *D sky130_fd_sc_hd__o21a_1
*CAP
1 *2505:D 0.000583183
2 *2275:X 0.000583183
3 *2505:D *2246:A2 0
4 *2505:D *2276:B1 0.00015639
5 *2505:D *2505:CLK 5.02217e-05
6 *2505:D *829:38 0.000382769
7 *2276:B2 *2505:D 6.03947e-06
*RES
1 *2275:X *2505:D 14.64 
*END

*D_NET *299 0.000945101
*CONN
*I *2506:D I *D sky130_fd_sc_hd__dfrtp_1
*I *2277:X O *D sky130_fd_sc_hd__o21a_1
*CAP
1 *2506:D 0.000273838
2 *2277:X 0.000273838
3 *2506:D *2392:A2_N 6.52265e-05
4 *2506:D *2506:RESET_B 4.82919e-05
5 *2506:D *2613:A 0
6 *2506:D *376:104 9.44791e-05
7 *2506:D *837:48 0.000160641
8 *2516:D *2506:D 2.87867e-05
*RES
1 *2277:X *2506:D 12.225 
*END

*D_NET *300 0.000353827
*CONN
*I *2507:D I *D sky130_fd_sc_hd__dfrtp_1
*I *2279:X O *D sky130_fd_sc_hd__o21a_1
*CAP
1 *2507:D 8.12823e-05
2 *2279:X 8.12823e-05
3 *2507:D *930:DIODE 1.7386e-05
4 *2507:D *2279:B1 0.000115083
5 *2507:D *443:52 5.87938e-05
*RES
1 *2279:X *2507:D 9.03 
*END

*D_NET *301 0.000837134
*CONN
*I *2508:D I *D sky130_fd_sc_hd__dfrtp_1
*I *2281:X O *D sky130_fd_sc_hd__a21o_1
*CAP
1 *2508:D 0.000269183
2 *2281:X 0.000269183
3 *2508:D *2203:A2 3.68682e-05
4 *2508:D *2439:CLK 3.57349e-05
5 *2508:D *2508:CLK 0.000124895
6 *2439:D *2508:D 0.000101271
*RES
1 *2281:X *2508:D 11.88 
*END

*D_NET *302 0.000661742
*CONN
*I *2509:D I *D sky130_fd_sc_hd__dfrtp_1
*I *2283:X O *D sky130_fd_sc_hd__a21o_1
*CAP
1 *2509:D 0.000183682
2 *2283:X 0.000183682
3 *2509:D *2286:C 0
4 *2509:D *2293:A2 9.5433e-05
5 *2509:D *820:72 0.000198945
*RES
1 *2283:X *2509:D 10.155 
*END

*D_NET *303 0.000752373
*CONN
*I *2510:D I *D sky130_fd_sc_hd__dfrtp_1
*I *2285:X O *D sky130_fd_sc_hd__a21o_1
*CAP
1 *2510:D 0.000247993
2 *2285:X 0.000247993
3 *2510:D *2284:C 1.16578e-05
4 *2510:D *2285:B1 1.47256e-05
5 *2510:D *2286:C 0
6 *2510:D *814:69 6.36578e-05
7 *2711:A *2510:D 0.000166346
*RES
1 *2285:X *2510:D 11.76 
*END

*D_NET *304 0.000701776
*CONN
*I *2511:D I *D sky130_fd_sc_hd__dfrtp_1
*I *2287:X O *D sky130_fd_sc_hd__a21o_1
*CAP
1 *2511:D 0.0001777
2 *2287:X 0.0001777
3 *2511:D *2288:C 4.01778e-05
4 *2511:D *2290:C 4.16353e-05
5 *2511:D *2512:CLK 2.75229e-05
6 *2511:D *842:84 0.00011852
7 *2511:D *853:46 0.00011852
*RES
1 *2287:X *2511:D 11.1 
*END

*D_NET *305 0.000692285
*CONN
*I *2512:D I *D sky130_fd_sc_hd__dfrtp_1
*I *2289:X O *D sky130_fd_sc_hd__a21o_1
*CAP
1 *2512:D 0.000117296
2 *2289:X 0.000117296
3 *2512:D *2291:A1 0.000141371
4 *2512:D *2291:B1 8.85291e-05
5 *2512:D *2474:RESET_B 2.37321e-05
6 *2512:D *842:118 0.000204062
*RES
1 *2289:X *2512:D 10.965 
*END

*D_NET *306 0.000830915
*CONN
*I *2513:D I *D sky130_fd_sc_hd__dfrtp_1
*I *2291:X O *D sky130_fd_sc_hd__a21o_1
*CAP
1 *2513:D 0.000260376
2 *2291:X 0.000260376
3 *2513:D *919:DIODE 0.000136413
4 *2513:D *2291:B1 8.23457e-05
5 *2513:D *2512:CLK 9.14049e-05
6 *2513:D *2599:A 0
7 *2513:D *730:104 0
8 *221:27 *2513:D 0
*RES
1 *2291:X *2513:D 11.925 
*END

*D_NET *307 0.000518872
*CONN
*I *2514:D I *D sky130_fd_sc_hd__dfrtp_4
*I *2293:X O *D sky130_fd_sc_hd__a21o_1
*CAP
1 *2514:D 0.000200482
2 *2293:X 0.000200482
3 *2514:D *717:234 0
4 *2514:D *717:238 8.8266e-05
5 *2514:D *717:247 2.96426e-05
6 *2514:D *730:8 0
*RES
1 *2293:X *2514:D 10.065 
*END

*D_NET *308 0.000232536
*CONN
*I *2515:D I *D sky130_fd_sc_hd__dfrtp_1
*I *2294:X O *D sky130_fd_sc_hd__o21a_1
*CAP
1 *2515:D 8.60516e-05
2 *2294:X 8.60516e-05
3 *2515:D *2281:A2 6.04327e-05
4 *2515:D *2503:RESET_B 0
5 *2515:D *857:85 0
*RES
1 *2294:X *2515:D 8.58 
*END

*D_NET *309 0.00184655
*CONN
*I *2521:D I *D sky130_fd_sc_hd__dfrtp_1
*I *2312:X O *D sky130_fd_sc_hd__o32a_1
*CAP
1 *2521:D 0.000388616
2 *2312:X 0.000388616
3 *2521:D *2306:B 9.50342e-06
4 *2521:D *2317:A2 3.67779e-05
5 *2521:D *499:10 0
6 *2521:D *624:8 0.000104287
7 *2521:D *731:18 0.000114026
8 *128:16 *2521:D 0.000150653
9 *128:26 *2521:D 0.00019637
10 *133:16 *2521:D 0.000457696
*RES
1 *2312:X *2521:D 16.62 
*END

*D_NET *310 0.000839429
*CONN
*I *2522:D I *D sky130_fd_sc_hd__dfrtp_1
*I *2318:X O *D sky130_fd_sc_hd__o22a_1
*CAP
1 *2522:D 0.000398606
2 *2318:X 0.000398606
3 *2522:D *2322:A2 3.72916e-05
4 *2622:A *2522:D 4.9253e-06
*RES
1 *2318:X *2522:D 8.945 
*END

*D_NET *311 0.000970394
*CONN
*I *2523:D I *D sky130_fd_sc_hd__dfrtp_1
*I *2322:X O *D sky130_fd_sc_hd__o32a_1
*CAP
1 *2523:D 0.000427962
2 *2322:X 0.000427962
3 *2523:D *2306:B 8.88108e-06
4 *2523:D *2322:B2 8.57024e-05
5 *2688:A *2523:D 1.98869e-05
*RES
1 *2322:X *2523:D 8.15 
*END

*D_NET *312 0.000807642
*CONN
*I *2524:D I *D sky130_fd_sc_hd__dfrtp_1
*I *2325:X O *D sky130_fd_sc_hd__o32a_1
*CAP
1 *2524:D 0.000241256
2 *2325:X 0.000241256
3 *2524:D *2306:D_N 0.000123225
4 *2524:D *2318:A2 0
5 *2524:D *2321:A3 5.43211e-05
6 *2524:D *2325:A3 7.06865e-05
7 *2524:D *626:10 5.02217e-05
8 *2524:D *627:10 2.66765e-05
*RES
1 *2325:X *2524:D 11.76 
*END

*D_NET *313 0.000444013
*CONN
*I *2534:D I *D sky130_fd_sc_hd__dfrtp_1
*I *2328:X O *D sky130_fd_sc_hd__a22o_1
*CAP
1 *2534:D 0.000119796
2 *2328:X 0.000119796
3 *2534:D *2328:A1 0.000117825
4 *2534:D *2328:A2 8.65961e-05
5 *2534:D *842:10 0
*RES
1 *2328:X *2534:D 9.375 
*END

*D_NET *314 0.000943873
*CONN
*I *2535:D I *D sky130_fd_sc_hd__dfrtp_1
*I *2331:X O *D sky130_fd_sc_hd__mux2_1
*CAP
1 *2535:D 0.000253049
2 *2331:X 0.000253049
3 *2535:D *2331:A1 1.7386e-05
4 *2535:D *823:28 8.40213e-05
5 *2535:D *839:18 0.000183043
6 *2535:D *842:10 0.000100536
7 *2331:A0 *2535:D 5.27885e-05
*RES
1 *2331:X *2535:D 12.555 
*END

*D_NET *315 0.00202076
*CONN
*I *2536:D I *D sky130_fd_sc_hd__dfrtp_1
*I *2335:X O *D sky130_fd_sc_hd__o21a_1
*CAP
1 *2536:D 0.000536758
2 *2335:X 0.000536758
3 *2536:D *880:DIODE 1.05984e-05
4 *2536:D *2335:B1 8.23457e-05
5 *2536:D *839:72 8.80473e-05
6 *2536:D *840:99 0.00037969
7 *2536:D *840:105 0.000161529
8 *239:8 *2536:D 0.000184849
9 *239:21 *2536:D 4.01811e-05
*RES
1 *2335:X *2536:D 14.69 
*END

*D_NET *316 0.000913974
*CONN
*I *2537:D I *D sky130_fd_sc_hd__dfrtp_1
*I *2339:X O *D sky130_fd_sc_hd__mux2_1
*CAP
1 *2537:D 0.000359109
2 *2339:X 0.000359109
3 *2537:D *2537:RESET_B 1.86458e-05
4 *2537:D *718:36 0.000119631
5 *2537:D *846:64 2.7441e-05
6 *240:8 *2537:D 3.00381e-05
*RES
1 *2339:X *2537:D 9.635 
*END

*D_NET *317 0.0010072
*CONN
*I *2538:D I *D sky130_fd_sc_hd__dfrtp_1
*I *2343:X O *D sky130_fd_sc_hd__mux2_1
*CAP
1 *2538:D 0.000408862
2 *2343:X 0.000408862
3 *2538:D *2346:B 7.3664e-05
4 *2538:D *2538:RESET_B 2.46073e-05
5 *2538:D *2540:RESET_B 4.91679e-05
6 *2538:D *846:64 3.27338e-05
7 *2346:A *2538:D 9.3062e-06
8 *241:23 *2538:D 0
*RES
1 *2343:X *2538:D 14.115 
*END

*D_NET *318 0.000556266
*CONN
*I *2539:D I *D sky130_fd_sc_hd__dfrtp_1
*I *2348:X O *D sky130_fd_sc_hd__o22a_1
*CAP
1 *2539:D 0.000197976
2 *2348:X 0.000197976
3 *2539:D *2540:RESET_B 0.000160314
*RES
1 *2348:X *2539:D 9.81 
*END

*D_NET *319 0.000864402
*CONN
*I *2540:D I *D sky130_fd_sc_hd__dfrtp_1
*I *2353:X O *D sky130_fd_sc_hd__mux2_1
*CAP
1 *2540:D 0.000362278
2 *2353:X 0.000362278
3 *2540:D *2540:CLK 8.53856e-06
4 *2540:D *2540:RESET_B 5.61465e-05
5 *2540:D *826:70 7.51611e-05
6 *242:12 *2540:D 0
*RES
1 *2353:X *2540:D 11.7788 
*END

*D_NET *320 0.00063809
*CONN
*I *2541:D I *D sky130_fd_sc_hd__dfrtp_1
*I *2358:X O *D sky130_fd_sc_hd__o22a_1
*CAP
1 *2541:D 0.000135812
2 *2358:X 0.000135812
3 *2541:D *2539:RESET_B 0
4 *2541:D *824:56 4.75576e-05
5 *2541:D *826:70 0.000237249
6 *243:6 *2541:D 8.16598e-05
*RES
1 *2358:X *2541:D 10.755 
*END

*D_NET *321 0.000149999
*CONN
*I *2542:D I *D sky130_fd_sc_hd__dfrtp_1
*I *2363:X O *D sky130_fd_sc_hd__mux2_1
*CAP
1 *2542:D 7.49995e-05
2 *2363:X 7.49995e-05
3 *2542:D *2363:A0 0
4 *2542:D *2542:RESET_B 0
5 *2542:D *726:35 0
6 *245:10 *2542:D 0
*RES
1 *2363:X *2542:D 8.325 
*END

*D_NET *322 0.000679718
*CONN
*I *2543:D I *D sky130_fd_sc_hd__dfrtp_1
*I *2367:X O *D sky130_fd_sc_hd__o21a_1
*CAP
1 *2543:D 0.000150949
2 *2367:X 0.000150949
3 *2543:D *2364:B1 0.000182349
4 *2543:D *2366:B1 9.54399e-05
5 *2543:D *2367:B1 3.26822e-05
6 *2543:D *726:35 1.73877e-05
7 *2543:D *847:124 4.99619e-05
*RES
1 *2367:X *2543:D 10.815 
*END

*D_NET *323 0.000162641
*CONN
*I *2544:D I *D sky130_fd_sc_hd__dfrtp_1
*I *2372:X O *D sky130_fd_sc_hd__mux2_1
*CAP
1 *2544:D 3.48582e-05
2 *2372:X 3.48582e-05
3 *2544:D *2371:A2 5.39718e-05
4 *2544:D *823:60 3.89528e-05
*RES
1 *2372:X *2544:D 8.325 
*END

*D_NET *324 0.00148383
*CONN
*I *2545:D I *D sky130_fd_sc_hd__dfrtp_1
*I *2377:X O *D sky130_fd_sc_hd__a22o_1
*CAP
1 *2545:D 0.000579767
2 *2377:X 0.000579767
3 *2545:D *2377:B2 1.88656e-05
4 *2545:D *2544:RESET_B 0.000242825
5 *2545:D *2545:CLK 4.00541e-06
6 *2545:D *823:75 2.531e-05
7 *2377:A1 *2545:D 7.9642e-06
8 *247:12 *2545:D 0
9 *248:8 *2545:D 2.53305e-05
*RES
1 *2377:X *2545:D 14.745 
*END

*D_NET *325 0.000794774
*CONN
*I *2546:D I *D sky130_fd_sc_hd__dfrtp_1
*I *2381:X O *D sky130_fd_sc_hd__mux2_1
*CAP
1 *2546:D 0.000259922
2 *2381:X 0.000259922
3 *2546:D *354:61 9.54399e-05
4 *2546:D *448:58 9.37731e-05
5 *2546:D *823:26 8.16598e-05
6 *2546:D *847:96 4.05674e-06
*RES
1 *2381:X *2546:D 11.295 
*END

*D_NET *326 0.000379889
*CONN
*I *2547:D I *D sky130_fd_sc_hd__dfrtp_1
*I *2385:X O *D sky130_fd_sc_hd__a22o_1
*CAP
1 *2547:D 6.83737e-05
2 *2385:X 6.83737e-05
3 *2547:D *2278:A1 1.03592e-05
4 *2547:D *2385:A2 4.66108e-05
5 *2547:D *2546:RESET_B 7.9642e-06
6 *2547:D *844:41 8.37282e-05
7 *2547:D *854:112 9.44791e-05
*RES
1 *2385:X *2547:D 8.775 
*END

*D_NET *327 0.00076022
*CONN
*I *2548:D I *D sky130_fd_sc_hd__dfrtp_1
*I *2389:X O *D sky130_fd_sc_hd__a22o_1
*CAP
1 *2548:D 0.000191032
2 *2389:X 0.000191032
3 *2548:D *1982:B 8.57024e-05
4 *2548:D *2389:A1 9.0336e-05
5 *2548:D *2548:RESET_B 9.50342e-06
6 *2548:D *372:35 6.38384e-05
7 *2548:D *677:22 2.35512e-05
8 *2548:D *717:335 0
9 *2548:D *837:69 3.68804e-05
10 *250:27 *2548:D 6.83447e-05
*RES
1 *2389:X *2548:D 11.16 
*END

*D_NET *328 0.000724767
*CONN
*I *2549:D I *D sky130_fd_sc_hd__dfrtp_1
*I *2393:Y O *D sky130_fd_sc_hd__o32ai_1
*CAP
1 *2549:D 0.000141833
2 *2393:Y 0.000141833
3 *2549:D *1995:C1 5.05167e-05
4 *2549:D *2392:B1 0.000190144
5 *2549:D *2549:CLK 5.83121e-06
6 *2549:D *353:18 3.13105e-05
7 *2549:D *385:10 3.83995e-05
8 *2549:D *825:10 0
9 *2549:D *825:160 0.0001249
*RES
1 *2393:Y *2549:D 10.74 
*END

*D_NET *329 0.000305968
*CONN
*I *2550:D I *D sky130_fd_sc_hd__dfrtp_2
*I *2397:X O *D sky130_fd_sc_hd__o21a_1
*CAP
1 *2550:D 0.000115904
2 *2397:X 0.000115904
3 *2550:D *732:14 0
4 *2550:D *837:124 3.68682e-05
5 *253:18 *2550:D 3.72916e-05
*RES
1 *2397:X *2550:D 9.12 
*END

*D_NET *330 0.000507299
*CONN
*I *2551:D I *D sky130_fd_sc_hd__dfrtp_2
*I *2401:X O *D sky130_fd_sc_hd__o21a_1
*CAP
1 *2551:D 0.000129486
2 *2401:X 0.000129486
3 *2551:D *2377:A2 3.54025e-05
4 *2551:D *2551:CLK 3.97377e-05
5 *2551:D *732:16 4.99619e-05
6 *2551:D *854:47 0.000123225
*RES
1 *2401:X *2551:D 9.915 
*END

*D_NET *331 0.000821986
*CONN
*I *2552:D I *D sky130_fd_sc_hd__dfrtp_1
*I *2405:X O *D sky130_fd_sc_hd__o21a_1
*CAP
1 *2552:D 0.000210499
2 *2405:X 0.000210499
3 *2552:D *895:DIODE 9.0444e-05
4 *2552:D *2404:A2 7.0021e-05
5 *2552:D *2404:B1 9.17274e-05
6 *2552:D *2404:B2 1.9488e-05
7 *2552:D *2552:RESET_B 0
8 *2552:D *825:60 1.19386e-05
9 *2552:D *826:172 8.53113e-06
10 *2552:D *843:67 6.21553e-05
11 *255:32 *2552:D 4.66826e-05
*RES
1 *2405:X *2552:D 11.16 
*END

*D_NET *332 0.00149017
*CONN
*I *2553:D I *D sky130_fd_sc_hd__dfrtp_1
*I *2408:X O *D sky130_fd_sc_hd__a22o_1
*CAP
1 *2553:D 0.000678541
2 *2408:X 0.000678541
3 *2553:D *2407:A2 7.44375e-05
4 *2553:D *2408:B2 0
5 *2553:D *2553:RESET_B 3.09233e-05
6 *2408:A1 *2553:D 2.77283e-05
*RES
1 *2408:X *2553:D 15.99 
*END

*D_NET *333 0.00103488
*CONN
*I *2554:D I *D sky130_fd_sc_hd__dfrtp_1
*I *2412:X O *D sky130_fd_sc_hd__a22o_1
*CAP
1 *2554:D 0.000493928
2 *2412:X 0.000493928
3 *2554:D *719:28 4.70256e-05
*RES
1 *2412:X *2554:D 13.17 
*END

*D_NET *334 0.000836399
*CONN
*I *2555:D I *D sky130_fd_sc_hd__dfrtp_1
*I *2415:X O *D sky130_fd_sc_hd__a22o_1
*CAP
1 *2555:D 0.000372428
2 *2415:X 0.000372428
3 *2555:D *2415:A1 2.46089e-05
4 *2555:D *719:24 6.69341e-05
5 *2555:D *855:74 0
*RES
1 *2415:X *2555:D 13.485 
*END

*D_NET *335 0.000956981
*CONN
*I *2556:D I *D sky130_fd_sc_hd__dfrtp_1
*I *2418:X O *D sky130_fd_sc_hd__a22o_1
*CAP
1 *2556:D 0.000404405
2 *2418:X 0.000404405
3 *2556:D *2415:A2 0.000120655
4 *259:8 *2556:D 2.75145e-05
*RES
1 *2418:X *2556:D 9.53 
*END

*D_NET *336 0.000987854
*CONN
*I *2557:D I *D sky130_fd_sc_hd__dfrtp_1
*I *2421:X O *D sky130_fd_sc_hd__a22o_1
*CAP
1 *2557:D 0.000443291
2 *2421:X 0.000443291
3 *2557:D *2603:A 5.83121e-06
4 *2557:D *719:14 9.54399e-05
5 *2557:D *855:72 0
*RES
1 *2421:X *2557:D 12.57 
*END

*D_NET *337 0.00109735
*CONN
*I *2558:D I *D sky130_fd_sc_hd__dfrtp_1
*I *2423:X O *D sky130_fd_sc_hd__and2_1
*CAP
1 *2558:D 0.000489713
2 *2423:X 0.000489713
3 *2558:D *2449:CLK 0
4 *2558:D *483:8 5.05521e-05
5 *2086:A *2558:D 0
6 *196:50 *2558:D 0
7 *269:49 *2558:D 0
8 *269:66 *2558:D 6.73751e-05
*RES
1 *2423:X *2558:D 13.92 
*END

*D_NET *338 0.000278546
*CONN
*I *2559:D I *D sky130_fd_sc_hd__dfrtp_1
*I *2424:Y O *D sky130_fd_sc_hd__xnor2_1
*CAP
1 *2559:D 5.58705e-05
2 *2424:Y 5.58705e-05
3 *2559:D *2423:B 9.54469e-05
4 *2559:D *2424:B 5.39718e-05
5 *2094:D *2559:D 1.7386e-05
*RES
1 *2424:Y *2559:D 8.775 
*END

*D_NET *339 0.000259694
*CONN
*I *2560:D I *D sky130_fd_sc_hd__dfrtp_1
*I *2426:X O *D sky130_fd_sc_hd__and2_1
*CAP
1 *2560:D 0.000114973
2 *2426:X 0.000114973
3 *2560:D *2096:B 0
4 *2429:B1 *2560:D 9.60582e-07
5 *267:10 *2560:D 2.87867e-05
*RES
1 *2426:X *2560:D 8.79375 
*END

*D_NET *340 0.000632824
*CONN
*I *2561:D I *D sky130_fd_sc_hd__dfrtp_2
*I *2428:X O *D sky130_fd_sc_hd__mux2_1
*CAP
1 *2561:D 0.000228069
2 *2428:X 0.000228069
3 *2561:D *2430:A 4.11198e-05
4 *2561:D *2430:B 6.97118e-05
5 *2561:D *486:10 2.97004e-06
6 *2561:D *857:12 6.28843e-05
*RES
1 *2428:X *2561:D 11.445 
*END

*D_NET *341 0.000498609
*CONN
*I *2562:D I *D sky130_fd_sc_hd__dfrtp_1
*I *2430:X O *D sky130_fd_sc_hd__and2_1
*CAP
1 *2562:D 0.000188748
2 *2430:X 0.000188748
3 *2562:D *2430:B 4.05358e-05
4 *2562:D *2504:RESET_B 1.22762e-05
5 *2562:D *2562:CLK 0
6 *2562:D *721:18 0
7 *2562:D *857:12 3.35338e-05
8 *2562:D *857:14 3.47668e-05
*RES
1 *2430:X *2562:D 10.815 
*END

*D_NET *342 0.000561125
*CONN
*I *2651:A I *D sky130_fd_sc_hd__dlygate4sd3_1
*I *2431:X O *D sky130_fd_sc_hd__mux2_1
*CAP
1 *2651:A 0.000220747
2 *2431:X 0.000220747
3 *2651:A *489:25 0
4 *2651:A *489:29 0.000119631
5 *163:10 *2651:A 0
6 *164:12 *2651:A 0
*RES
1 *2431:X *2651:A 10.41 
*END

*D_NET *343 0.00106418
*CONN
*I *2703:A I *D sky130_fd_sc_hd__dlygate4sd3_1
*I *2432:X O *D sky130_fd_sc_hd__mux2_1
*CAP
1 *2703:A 0.000327002
2 *2432:X 0.000327002
3 *2703:A *2527:RESET_B 5.63701e-05
4 *2703:A *2564:D 8.23457e-05
5 *2112:A1 *2703:A 7.72175e-05
6 *2527:D *2703:A 0
7 *2650:A *2703:A 8.23457e-05
8 *164:19 *2703:A 0.000111901
*RES
1 *2432:X *2703:A 8.84 
*END

*D_NET *344 0.00233869
*CONN
*I *2659:A I *D sky130_fd_sc_hd__dlygate4sd3_1
*I *2433:X O *D sky130_fd_sc_hd__mux2_1
*CAP
1 *2659:A 0.000780587
2 *2433:X 0.000780587
3 *2659:A *2113:C1 8.53113e-06
4 *2659:A *2114:C1 0.000210329
5 *2659:A *2565:D 0.000162762
6 *2659:A *717:164 3.1562e-06
7 *2113:A1 *2659:A 5.63035e-05
8 *2114:B1 *2659:A 1.34361e-05
9 *2433:A0 *2659:A 8.57024e-05
10 *165:17 *2659:A 0.000237292
*RES
1 *2433:X *2659:A 20.175 
*END

*D_NET *345 0.0010637
*CONN
*I *2657:A I *D sky130_fd_sc_hd__dlygate4sd3_1
*I *2434:X O *D sky130_fd_sc_hd__mux2_1
*CAP
1 *2657:A 0.000358339
2 *2434:X 0.000358339
3 *2657:A *2566:RESET_B 0.000347023
4 *2657:A *362:10 0
5 *1971:A *2657:A 0
*RES
1 *2434:X *2657:A 12.135 
*END

*D_NET *346 0.000577555
*CONN
*I *2655:A I *D sky130_fd_sc_hd__dlygate4sd3_1
*I *2435:X O *D sky130_fd_sc_hd__mux2_1
*CAP
1 *2655:A 0.00027342
2 *2435:X 0.00027342
3 *2655:A *2435:A1 3.07153e-05
4 *2655:A *2567:D 0
5 *2655:A *722:88 0
6 *2655:A *861:53 0
7 *2655:A *861:60 0
*RES
1 *2435:X *2655:A 11.415 
*END

*D_NET *347 0.000828307
*CONN
*I *2653:A I *D sky130_fd_sc_hd__dlygate4sd3_1
*I *2436:X O *D sky130_fd_sc_hd__mux2_1
*CAP
1 *2653:A 0.000299214
2 *2436:X 0.000299214
3 *2653:A *2568:D 5.83121e-06
4 *2653:A *2569:RESET_B 4.92192e-05
5 *2653:A *489:65 0.000113255
6 *2653:A *861:60 6.15731e-05
7 *169:8 *2653:A 0
8 *169:14 *2653:A 0
*RES
1 *2436:X *2653:A 12.795 
*END

*D_NET *348 0.000805399
*CONN
*I *2681:A I *D sky130_fd_sc_hd__dlygate4sd3_1
*I *2437:X O *D sky130_fd_sc_hd__mux2_1
*CAP
1 *2681:A 0.000286579
2 *2437:X 0.000286579
3 *2681:A *2569:D 0
4 *2681:A *2569:RESET_B 6.73665e-05
5 *2681:A *489:65 0.000164874
6 *169:8 *2681:A 0
*RES
1 *2437:X *2681:A 12.105 
*END

*D_NET *349 0.000110911
*CONN
*I *2649:A I *D sky130_fd_sc_hd__dlygate4sd3_1
*I *2438:X O *D sky130_fd_sc_hd__mux2_1
*CAP
1 *2649:A 4.49012e-05
2 *2438:X 4.49012e-05
3 *170:23 *2649:A 2.11084e-05
*RES
1 *2438:X *2649:A 4.01 
*END

*D_NET *350 0.00295108
*CONN
*I *2065:A1 I *D sky130_fd_sc_hd__a211o_1
*I *2012:A I *D sky130_fd_sc_hd__or3b_2
*I *2056:C1 I *D sky130_fd_sc_hd__a211o_1
*I *1959:Y O *D sky130_fd_sc_hd__inv_2
*CAP
1 *2065:A1 0.00028428
2 *2012:A 8.88385e-05
3 *2056:C1 8.46485e-05
4 *1959:Y 0.00019467
5 *350:23 0.000507544
6 *350:6 0.000413744
7 *2012:A *2057:B1 2.88519e-05
8 *2012:A *403:12 2.97561e-05
9 *2012:A *409:38 0
10 *2056:C1 *2061:A2 0.000113797
11 *2056:C1 *379:14 4.32126e-05
12 *2065:A1 *2018:A2_N 2.89259e-05
13 *2065:A1 *2018:B1 0
14 *2065:A1 *2022:B1 0
15 *2065:A1 *2057:A2 0
16 *2065:A1 *2057:B1 7.21296e-06
17 *2065:A1 *2065:A2 9.50342e-06
18 *2065:A1 *407:12 4.68417e-05
19 *2065:A1 *409:38 0
20 *2065:A1 *422:10 0
21 *2065:A1 *448:24 2.24833e-05
22 *350:6 *1959:A 4.82863e-05
23 *350:6 *2009:B 4.66108e-05
24 *350:6 *2010:B 0.000120655
25 *350:6 *2135:B1 9.92326e-05
26 *350:6 *352:14 4.99619e-05
27 *350:6 *830:50 0.000108886
28 *350:23 *1980:B1_N 0.000270524
29 *350:23 *2057:A1 4.66108e-05
30 *350:23 *2057:B1 8.65961e-05
31 *350:23 *352:8 0.000157751
32 *350:23 *352:14 1.16578e-05
*RES
1 *1959:Y *350:6 5.5 
2 *350:6 *2056:C1 7.34 
3 *350:6 *350:23 5.9 
4 *350:23 *2012:A 5.235 
5 *350:23 *2065:A1 8.04 
*END

*D_NET *351 0.00169993
*CONN
*I *2031:B2 I *D sky130_fd_sc_hd__o22a_2
*I *2043:A1 I *D sky130_fd_sc_hd__a221o_2
*I *1960:Y O *D sky130_fd_sc_hd__inv_2
*CAP
1 *2031:B2 6.26076e-05
2 *2043:A1 0.000174888
3 *1960:Y 5.19861e-05
4 *351:6 0.000289482
5 *2031:B2 *1988:B 0.000147196
6 *2031:B2 *2031:A2 1.85674e-05
7 *2031:B2 *2031:B1 4.66108e-05
8 *2031:B2 *422:8 4.82919e-05
9 *2043:A1 *2031:B1 2.53366e-05
10 *2043:A1 *2039:B 0.000112001
11 *2043:A1 *407:42 0.000151386
12 *2043:A1 *422:10 0.000152519
13 *351:6 *1988:B 0.000233004
14 *351:6 *422:8 8.49205e-05
15 *351:6 *831:8 9.80032e-06
16 *351:6 *836:62 4.66108e-05
17 *2619:A *351:6 4.47209e-05
*RES
1 *1960:Y *351:6 3.775 
2 *351:6 *2043:A1 9.53 
3 *351:6 *2031:B2 3.445 
*END

*D_NET *352 0.00392372
*CONN
*I *2022:A1 I *D sky130_fd_sc_hd__a21o_1
*I *2009:A I *D sky130_fd_sc_hd__nor2_1
*I *2008:A I *D sky130_fd_sc_hd__nand2_1
*I *2004:A2 I *D sky130_fd_sc_hd__o32a_1
*I *1961:Y O *D sky130_fd_sc_hd__inv_2
*CAP
1 *2022:A1 0.000114106
2 *2009:A 0
3 *2008:A 0.000199469
4 *2004:A2 0
5 *1961:Y 0
6 *352:14 0.000464159
7 *352:8 0.000431959
8 *352:4 0.000281375
9 *2008:A *2004:A1 5.10462e-05
10 *2008:A *2008:B 1.16578e-05
11 *2008:A *2633:A 0
12 *2008:A *379:14 1.00941e-05
13 *2008:A *392:12 9.35812e-05
14 *2008:A *831:12 5.97296e-05
15 *2008:A *833:73 2.34544e-05
16 *2008:A *847:33 5.89104e-05
17 *2022:A1 *2022:B1 0.00016176
18 *2022:A1 *409:38 7.48667e-05
19 *2022:A1 *413:27 1.61831e-05
20 *352:8 *1961:A 4.82863e-05
21 *352:8 *1980:B1_N 8.65439e-05
22 *352:8 *2057:A1 4.66108e-05
23 *352:8 *2057:B1 8.65961e-05
24 *352:8 *2135:B1 7.84086e-06
25 *352:8 *717:81 0.00068071
26 *352:14 *2001:A 0.000159269
27 *352:14 *2055:B1_N 0.000117825
28 *352:14 *2135:B1 1.65562e-05
29 *352:14 *379:14 7.3727e-05
30 *352:14 *392:12 3.18737e-05
31 *352:14 *392:44 8.49485e-05
32 *352:14 *717:81 1.88656e-05
33 *352:14 *833:67 3.43387e-05
34 *352:14 *833:73 0
35 *352:14 *835:78 0.000158004
36 *350:6 *352:14 4.99619e-05
37 *350:23 *352:8 0.000157751
38 *350:23 *352:14 1.16578e-05
*RES
1 *1961:Y *352:4 1.6 
2 *352:4 *352:8 6.675 
3 *352:8 *352:14 8.42 
4 *352:14 *2004:A2 3.6 
5 *352:14 *2008:A 7.905 
6 *352:8 *2009:A 1.6 
7 *352:4 *2022:A1 8.03 
*END

*D_NET *353 0.00236133
*CONN
*I *2393:B2 I *D sky130_fd_sc_hd__o32ai_1
*I *1995:C1 I *D sky130_fd_sc_hd__o211ai_1
*I *1962:Y O *D sky130_fd_sc_hd__inv_2
*CAP
1 *2393:B2 0
2 *1995:C1 0.000309911
3 *1962:Y 0.000301596
4 *353:18 0.000611507
5 *1995:C1 *2077:A_N 2.10582e-05
6 *1995:C1 *2386:C1 3.99069e-05
7 *1995:C1 *2388:A2 2.40105e-05
8 *1995:C1 *2392:B1 3.23391e-05
9 *1995:C1 *376:110 0
10 *1995:C1 *389:12 3.86529e-05
11 *353:18 *2391:B1 0.000292303
12 *353:18 *385:10 3.69766e-05
13 *353:18 *823:16 0.000291726
14 *353:18 *825:16 0.00015639
15 *353:18 *825:105 8.49205e-05
16 *353:18 *826:172 3.82072e-05
17 *2549:D *1995:C1 5.05167e-05
18 *2549:D *353:18 3.13105e-05
19 *252:12 *1995:C1 0
*RES
1 *1962:Y *353:18 8.19587 
2 *353:18 *1995:C1 8.235 
3 *353:18 *2393:B2 3.6 
*END

*D_NET *354 0.0162989
*CONN
*I *2248:A I *D sky130_fd_sc_hd__nand2_1
*I *2391:B1 I *D sky130_fd_sc_hd__a31o_1
*I *2383:B1 I *D sky130_fd_sc_hd__a31o_1
*I *2326:B2 I *D sky130_fd_sc_hd__o2bb2ai_1
*I *2375:B1 I *D sky130_fd_sc_hd__a31o_1
*I *2361:A I *D sky130_fd_sc_hd__nor2_1
*I *2351:B1 I *D sky130_fd_sc_hd__a21o_1
*I *1963:Y O *D sky130_fd_sc_hd__inv_2
*CAP
1 *2248:A 0.000446914
2 *2391:B1 0.000907795
3 *2383:B1 0.000126743
4 *2326:B2 3.39277e-05
5 *2375:B1 0.000484734
6 *2361:A 1.88809e-05
7 *2351:B1 0.0002692
8 *1963:Y 0.000100757
9 *354:74 0.00201316
10 *354:61 0.000931437
11 *354:40 0.00183017
12 *354:21 0.00120911
13 *354:10 0.000580538
14 *2248:A *2278:A1 0.000100919
15 *2248:A *2507:CLK 7.08206e-05
16 *2248:A *373:18 8.53914e-05
17 *2248:A *717:339 0
18 *2248:A *733:8 0.000166919
19 *2248:A *844:39 1.88904e-05
20 *2248:A *844:41 6.34932e-05
21 *2248:A *847:214 0.000122325
22 *2326:B2 *2328:A2 4.82919e-05
23 *2351:B1 *2351:A1 0.000525703
24 *2351:B1 *2352:A2_N 1.33293e-05
25 *2351:B1 *426:16 0.000113247
26 *2351:B1 *426:25 0.000124667
27 *2351:B1 *428:6 0.000114024
28 *2351:B1 *429:12 1.34594e-05
29 *2351:B1 *434:55 0
30 *2361:A *2361:B 5.4155e-06
31 *2375:B1 *2058:B 4.28483e-05
32 *2375:B1 *2073:B 0.000114492
33 *2375:B1 *2369:A1 0.000159964
34 *2375:B1 *2370:A 8.53113e-06
35 *2375:B1 *2370:B 0.000459366
36 *2375:B1 *2374:A1 2.15594e-05
37 *2375:B1 *2374:A2 4.26938e-06
38 *2375:B1 *2377:B1 6.97256e-05
39 *2375:B1 *448:58 4.72538e-05
40 *2375:B1 *448:71 5.98004e-06
41 *2375:B1 *674:27 2.99518e-06
42 *2375:B1 *823:58 3.17967e-05
43 *2383:B1 *1999:A 9.34773e-06
44 *2383:B1 *2383:A3 4.82919e-05
45 *2383:B1 *2387:A2 0.000141606
46 *2383:B1 *373:18 7.65502e-05
47 *2383:B1 *381:37 4.66108e-05
48 *2383:B1 *844:41 0.000108355
49 *2391:B1 *1995:B1 0
50 *2391:B1 *2393:A2 1.92979e-05
51 *2391:B1 *373:18 0
52 *2391:B1 *823:16 0.000320367
53 *2391:B1 *823:20 0.00067772
54 *2391:B1 *825:24 1.92979e-05
55 *2391:B1 *839:16 0
56 *354:10 *422:10 0
57 *354:10 *839:125 0.000265931
58 *354:40 *2063:B 0.000122331
59 *354:40 *2070:A 0.000106738
60 *354:40 *2070:B 0.000145406
61 *354:40 *2070:C_N 4.80285e-05
62 *354:40 *2073:A 0.000122337
63 *354:40 *2361:B 6.32463e-05
64 *354:40 *2362:B2 1.03423e-05
65 *354:40 *823:58 6.08203e-05
66 *354:61 *448:58 0.000477548
67 *354:61 *823:58 9.58173e-05
68 *354:61 *847:90 7.17811e-05
69 *354:61 *847:96 0.000185342
70 *354:61 *847:100 0
71 *354:61 *847:108 0
72 *354:74 *2547:CLK 5.83121e-06
73 *354:74 *2547:RESET_B 9.11714e-05
74 *2044:A *2351:B1 0
75 *2063:A *354:40 6.26945e-05
76 *2074:B2 *2375:B1 0.000205435
77 *2326:A2_N *2326:B2 3.1835e-05
78 *2326:A2_N *354:74 3.1835e-05
79 *2384:B1 *2383:B1 0.000161364
80 *2546:D *354:61 9.54399e-05
81 *244:38 *354:10 0.000137578
82 *244:51 *354:10 7.06865e-05
83 *250:10 *354:74 0.000165829
84 *250:27 *2248:A 0.0001947
85 *353:18 *2391:B1 0.000292303
*RES
1 *1963:Y *354:10 8.765 
2 *354:10 *2351:B1 8.62 
3 *354:10 *354:21 2.865 
4 *354:21 *2361:A 1.96 
5 *354:21 *354:40 16.1825 
6 *354:40 *2375:B1 17.5375 
7 *354:40 *354:61 12.9425 
8 *354:61 *2326:B2 2.395 
9 *354:61 *354:74 11.09 
10 *354:74 *2383:B1 8.1075 
11 *354:74 *2391:B1 6.90983 
12 *354:74 *2248:A 13.5525 
*END

*D_NET *355 0.0015958
*CONN
*I *2317:A2 I *D sky130_fd_sc_hd__a311o_1
*I *1964:Y O *D sky130_fd_sc_hd__inv_2
*CAP
1 *2317:A2 0.000379163
2 *1964:Y 0.000379163
3 *2317:A2 *2299:C_N 0
4 *2317:A2 *2306:B 9.29751e-06
5 *2317:A2 *2312:A2 0.000198046
6 *2317:A2 *2312:B1 4.66108e-05
7 *2317:A2 *2317:C1 5.05521e-05
8 *2317:A2 *2323:C 7.0401e-05
9 *2317:A2 *499:10 0
10 *2317:A2 *634:12 0.000122331
11 *2317:A2 *836:16 4.38278e-05
12 *2317:A1 *2317:A2 2.75145e-05
13 *2521:D *2317:A2 3.67779e-05
14 *133:16 *2317:A2 0.000232111
*RES
1 *1964:Y *2317:A2 14.775 
*END

*D_NET *356 0.00143782
*CONN
*I *2110:B I *D sky130_fd_sc_hd__or4bb_2
*I *2295:B I *D sky130_fd_sc_hd__and3_1
*I *1965:Y O *D sky130_fd_sc_hd__inv_2
*CAP
1 *2110:B 0.000155878
2 *2295:B 3.8682e-05
3 *1965:Y 0.000191922
4 *356:8 0.000386483
5 *2110:B *2305:C 0.000160635
6 *2110:B *2316:A2 0.000120652
7 *2110:B *614:12 1.07797e-05
8 *2110:B *615:71 4.76503e-05
9 *356:8 *614:12 7.26475e-06
10 *356:8 *615:10 5.99362e-05
11 *356:8 *615:22 3.54284e-05
12 *356:8 *615:71 0.000170703
13 *141:22 *356:8 2.68156e-05
14 *141:39 *2295:B 2.49909e-05
*RES
1 *1965:Y *356:8 7.785 
2 *356:8 *2295:B 4.05 
3 *356:8 *2110:B 7.02 
*END

*D_NET *357 0.00241267
*CONN
*I *2241:A I *D sky130_fd_sc_hd__xnor2_1
*I *2119:A2 I *D sky130_fd_sc_hd__a22o_1
*I *2118:A2 I *D sky130_fd_sc_hd__o22a_1
*I *1966:Y O *D sky130_fd_sc_hd__inv_2
*CAP
1 *2241:A 0.000149861
2 *2119:A2 0.000403023
3 *2118:A2 0
4 *1966:Y 0.000200667
5 *357:19 0.000630887
6 *357:10 0.000278669
7 *2119:A2 *2119:B1 0.000160635
8 *2241:A *724:42 0
9 *2241:A *724:53 0
10 *2241:A *724:68 2.16917e-05
11 *357:10 *359:8 2.11084e-05
12 *357:10 *581:10 0
13 *357:10 *724:42 0
14 *357:19 *581:10 0
15 *357:19 *581:19 0
16 *357:19 *724:42 0
17 *1968:A *357:10 5.30673e-05
18 *2118:A1 *2241:A 0.000229897
19 *2118:A1 *357:19 0.000116158
20 *2526:D *357:10 0
21 *2533:D *2119:A2 7.31789e-06
22 *2533:D *2241:A 7.23602e-05
23 *2713:A *2241:A 4.66108e-05
24 *170:23 *2241:A 2.07184e-05
*RES
1 *1966:Y *357:10 6.465 
2 *357:10 *2118:A2 3.6 
3 *357:10 *357:19 1.635 
4 *357:19 *2119:A2 8.46 
5 *357:19 *2241:A 7.305 
*END

*D_NET *358 0.000739581
*CONN
*I *2118:B2 I *D sky130_fd_sc_hd__o22a_1
*I *2117:A2 I *D sky130_fd_sc_hd__a221o_1
*I *1967:Y O *D sky130_fd_sc_hd__inv_2
*CAP
1 *2118:B2 1.11992e-05
2 *2117:A2 0.000101309
3 *1967:Y 0.000136845
4 *358:6 0.000249353
5 *2117:A2 *2119:B2 5.81888e-05
6 *2117:A1 *2117:A2 0
7 *2117:B1 *2117:A2 0
8 *2118:B1 *2117:A2 0.000173153
9 *2118:B1 *2118:B2 9.53428e-06
*RES
1 *1967:Y *358:6 3.43 
2 *358:6 *2117:A2 4.0675 
3 *358:6 *2118:B2 1.96 
*END

*D_NET *359 0.00168871
*CONN
*I *2117:B2 I *D sky130_fd_sc_hd__a221o_1
*I *2116:A2 I *D sky130_fd_sc_hd__o221a_1
*I *1968:Y O *D sky130_fd_sc_hd__inv_2
*CAP
1 *2117:B2 0.000106579
2 *2116:A2 0.000132891
3 *1968:Y 0.000256354
4 *359:8 0.000495824
5 *2116:A2 *2117:C1 0.000117825
6 *2116:A2 *489:57 0
7 *2116:A2 *724:42 0
8 *2117:B2 *2117:C1 0.000198293
9 *2117:B2 *2119:B1 0
10 *2117:B2 *724:42 0
11 *2116:A1 *2116:A2 7.32968e-05
12 *2116:B2 *2116:A2 0.00012657
13 *2117:B1 *2117:B2 6.03947e-06
14 *2652:A *359:8 0.000142669
15 *169:14 *2117:B2 1.12643e-05
16 *357:10 *359:8 2.11084e-05
*RES
1 *1968:Y *359:8 8.19 
2 *359:8 *2116:A2 6.885 
3 *359:8 *2117:B2 6.10875 
*END

*D_NET *360 0.00265685
*CONN
*I *2116:B1 I *D sky130_fd_sc_hd__o221a_1
*I *2236:A I *D sky130_fd_sc_hd__xnor2_1
*I *2115:A1 I *D sky130_fd_sc_hd__a221o_1
*I *1969:Y O *D sky130_fd_sc_hd__inv_2
*CAP
1 *2116:B1 6.40273e-05
2 *2236:A 0.00021509
3 *2115:A1 0
4 *1969:Y 0.000592084
5 *360:12 0.00031366
6 *360:8 0.000754682
7 *2116:B1 *489:57 0
8 *2116:B1 *724:42 7.5416e-05
9 *2236:A *2530:CLK 0
10 *2236:A *361:10 0.000308236
11 *360:8 *2116:C1 3.1835e-05
12 *360:12 *2114:A2 2.97004e-06
13 *360:12 *724:42 0.000136877
14 *1970:A *2236:A 0.000124895
15 *2115:A2 *2236:A 3.70779e-05
16 *167:10 *360:12 0
*RES
1 *1969:Y *360:8 9.915 
2 *360:8 *360:12 3.635 
3 *360:12 *2115:A1 1.6 
4 *360:12 *2236:A 6.565 
5 *360:8 *2116:B1 4.92 
*END

*D_NET *361 0.0020264
*CONN
*I *2115:B2 I *D sky130_fd_sc_hd__a221o_1
*I *2114:A2 I *D sky130_fd_sc_hd__o221a_1
*I *1970:Y O *D sky130_fd_sc_hd__inv_2
*CAP
1 *2115:B2 0
2 *2114:A2 0.000176358
3 *1970:Y 0.000203883
4 *361:10 0.000380241
5 *2114:A2 *2113:A2 9.50342e-06
6 *2114:A2 *2115:C1 0.000464203
7 *2114:A2 *2566:CLK 0
8 *2114:A2 *362:10 0.000375847
9 *2114:A2 *724:42 0
10 *2114:A1 *2114:A2 0
11 *2115:A2 *2114:A2 1.85115e-05
12 *2115:A2 *361:10 3.72012e-05
13 *2115:B1 *2114:A2 4.94404e-05
14 *2236:A *361:10 0.000308236
15 *360:12 *2114:A2 2.97004e-06
*RES
1 *1970:Y *361:10 5.665 
2 *361:10 *2114:A2 11.885 
3 *361:10 *2115:B2 1.6 
*END

*D_NET *362 0.00315083
*CONN
*I *2114:B2 I *D sky130_fd_sc_hd__o221a_1
*I *2113:A2 I *D sky130_fd_sc_hd__a221o_1
*I *1971:Y O *D sky130_fd_sc_hd__inv_2
*CAP
1 *2114:B2 0
2 *2113:A2 0.000371986
3 *1971:Y 0.000300001
4 *362:10 0.000671987
5 *2113:A2 *2114:C1 6.8725e-06
6 *2113:A2 *2432:A1 0
7 *2113:A2 *2565:RESET_B 6.69474e-05
8 *2113:A2 *859:53 3.09164e-05
9 *2113:A2 *859:63 0.000113797
10 *2113:A2 *859:70 0.000252282
11 *362:10 *2566:CLK 0.000133408
12 *362:10 *724:29 0.000239813
13 *2113:A1 *2113:A2 0.000150365
14 *2113:B1 *2113:A2 0.000186627
15 *2114:A2 *2113:A2 9.50342e-06
16 *2114:A2 *362:10 0.000375847
17 *2114:B1 *2113:A2 0.000176873
18 *2114:B1 *362:10 9.50342e-06
19 *2115:B1 *362:10 4.82919e-05
20 *2657:A *362:10 0
21 *144:28 *2113:A2 5.80482e-06
*RES
1 *1971:Y *362:10 11.25 
2 *362:10 *2113:A2 12.8888 
3 *362:10 *2114:B2 3.6 
*END

*D_NET *363 0.00329328
*CONN
*I *2112:A2 I *D sky130_fd_sc_hd__o22a_1
*I *2113:B2 I *D sky130_fd_sc_hd__a221o_1
*I *1972:Y O *D sky130_fd_sc_hd__inv_2
*CAP
1 *2112:A2 0.000115655
2 *2113:B2 0.000568597
3 *1972:Y 8.23681e-05
4 *363:10 0.00076662
5 *2112:A2 *2112:B1 8.40213e-05
6 *2112:A2 *2113:C1 1.96006e-05
7 *2112:A2 *2565:CLK 5.83121e-06
8 *2112:A2 *717:164 0.000134922
9 *2112:A2 *717:200 4.21973e-05
10 *2113:B2 *2113:C1 7.21296e-06
11 *2113:B2 *2114:C1 0.000118292
12 *2113:B2 *2231:A 0.000100135
13 *2113:B2 *2527:CLK 6.36578e-05
14 *2113:B2 *2528:CLK 8.49205e-05
15 *2113:B2 *2564:CLK 2.49909e-05
16 *2113:B2 *2565:CLK 4.38051e-05
17 *2113:B2 *579:10 7.30547e-05
18 *2113:B2 *717:168 0
19 *2113:B2 *723:10 0
20 *2113:B2 *723:92 0.00013994
21 *2113:B2 *723:123 1.52184e-05
22 *2113:B2 *861:29 0
23 *363:10 *579:10 0.000114492
24 *363:10 *717:200 6.56075e-05
25 *2112:B2 *2112:A2 4.82919e-05
26 *2226:B *2112:A2 5.05437e-05
27 *2231:B *2113:B2 2.46089e-05
28 *2650:A *2113:B2 9.78082e-05
29 *2694:A *2112:A2 0.00012115
30 *144:28 *2113:B2 5.84184e-05
31 *171:20 *2113:B2 2.75707e-05
32 *171:20 *363:10 4.22316e-06
33 *171:54 *363:10 2.49909e-05
34 *173:10 *2113:B2 0.000122337
35 *173:14 *2112:A2 4.21973e-05
*RES
1 *1972:Y *363:10 5.43 
2 *363:10 *2113:B2 19.8738 
3 *363:10 *2112:A2 7.5 
*END

*D_NET *364 0.0047106
*CONN
*I *2230:B1 I *D sky130_fd_sc_hd__a31o_1
*I *2112:B1 I *D sky130_fd_sc_hd__o22a_1
*I *1973:Y O *D sky130_fd_sc_hd__inv_2
*CAP
1 *2230:B1 0.000386644
2 *2112:B1 0.000267329
3 *1973:Y 0.000180479
4 *364:16 0.000834452
5 *2112:B1 *2113:C1 2.16833e-05
6 *2112:B1 *2595:A 2.75229e-05
7 *2112:B1 *717:168 7.30547e-05
8 *2230:B1 *2227:B 0.000301886
9 *2230:B1 *2230:A1 2.75229e-05
10 *2230:B1 *579:10 8.53113e-06
11 *2230:B1 *580:12 0.000160651
12 *2230:B1 *580:27 0.000292053
13 *2230:B1 *581:10 6.55406e-05
14 *2230:B1 *717:200 0.000116853
15 *2230:B1 *861:82 0.000355314
16 *364:16 *2234:A 8.40269e-05
17 *364:16 *579:14 0.000347922
18 *364:16 *861:29 2.96553e-05
19 *364:16 *862:59 7.30547e-05
20 *1971:A *2112:B1 0.000252282
21 *2112:A2 *2112:B1 8.40213e-05
22 *2526:D *2230:B1 0.000112447
23 *2528:D *364:16 4.82919e-05
24 *2698:A *364:16 4.82919e-05
25 *171:10 *2112:B1 6.75724e-05
26 *171:20 *2112:B1 8.92341e-05
27 *171:54 *2112:B1 5.29023e-05
28 *171:54 *364:16 0.000253087
29 *173:14 *2112:B1 4.82919e-05
*RES
1 *1973:Y *364:16 11.525 
2 *364:16 *2112:B1 11.48 
3 *364:16 *2230:B1 17.735 
*END

*D_NET *365 0.00150801
*CONN
*I *2143:A1 I *D sky130_fd_sc_hd__a21oi_1
*I *2140:A1_N I *D sky130_fd_sc_hd__a2bb2o_1
*I *1974:Y O *D sky130_fd_sc_hd__inv_2
*CAP
1 *2143:A1 5.16565e-05
2 *2140:A1_N 6.11159e-05
3 *1974:Y 0.000197469
4 *365:12 0.000310241
5 *2140:A1_N *2140:A2_N 0.000122337
6 *2140:A1_N *2141:A1 0.000153816
7 *2140:A1_N *2141:A2 2.82992e-05
8 *2143:A1 *2140:A2_N 0.000110673
9 *2143:A1 *2140:B1 2.16917e-05
10 *2143:A1 *2141:A1 4.66108e-05
11 *2143:A1 *2145:A2 4.99619e-05
12 *365:12 *2141:A1 2.92496e-05
13 *365:12 *2145:A2 3.81581e-05
14 *365:12 *847:54 2.01259e-05
15 *118:61 *365:12 0.000266605
*RES
1 *1974:Y *365:12 9.56 
2 *365:12 *2140:A1_N 3.445 
3 *365:12 *2143:A1 3.085 
*END

*D_NET *366 0.00197938
*CONN
*I *2204:B I *D sky130_fd_sc_hd__nor2_2
*I *2201:B I *D sky130_fd_sc_hd__and3_2
*I *2224:A1 I *D sky130_fd_sc_hd__mux2_1
*I *1975:Y O *D sky130_fd_sc_hd__inv_2
*CAP
1 *2204:B 0.000248427
2 *2201:B 2.08101e-05
3 *2224:A1 0.000161892
4 *1975:Y 0
5 *366:19 0.000342787
6 *366:4 0.000235442
7 *2204:B *2216:C1 2.62115e-05
8 *2204:B *2219:B1 0
9 *2204:B *2220:A1 0
10 *2204:B *565:8 0.0001249
11 *2204:B *566:25 0.000198939
12 *2204:B *567:10 0
13 *2204:B *574:6 0.0001249
14 *2224:A1 *2219:B1 0
15 *2224:A1 *2223:A2 3.09233e-05
16 *2224:A1 *566:25 0.0001249
17 *366:19 *566:25 0.000162311
18 *1975:A *2224:A1 1.91597e-05
19 *2201:A *2224:A1 5.23093e-05
20 *2217:B *2204:B 0
21 *2218:A *2224:A1 1.43521e-05
22 *2446:D *2204:B 2.11084e-05
23 *211:33 *2224:A1 4.9191e-05
24 *211:95 *2204:B 4.9253e-06
25 *222:88 *2204:B 1.58876e-05
*RES
1 *1975:Y *366:4 1.6 
2 *366:4 *2224:A1 8.975 
3 *366:4 *366:19 1.485 
4 *366:19 *2201:B 1.96 
5 *366:19 *2204:B 10.97 
*END

*D_NET *367 0.000727602
*CONN
*I *2220:A1 I *D sky130_fd_sc_hd__o21a_1
*I *2219:A1 I *D sky130_fd_sc_hd__a21oi_1
*I *1976:Y O *D sky130_fd_sc_hd__inv_2
*CAP
1 *2220:A1 4.82136e-05
2 *2219:A1 5.90679e-05
3 *1976:Y 0.000178526
4 *367:10 0.000285808
5 *2219:A1 *2219:A2 4.82863e-05
6 *2219:A1 *2220:B1 1.61831e-05
7 *2220:A1 *2219:B1 0
8 *367:10 *2219:B1 0
9 *367:10 *566:25 1.34503e-05
10 *1976:A *367:10 5.05521e-05
11 *2201:C *367:10 2.75145e-05
12 *2204:B *2220:A1 0
13 *211:10 *2220:A1 0
*RES
1 *1976:Y *367:10 5.955 
2 *367:10 *2219:A1 4.395 
3 *367:10 *2220:A1 4.215 
*END

*D_NET *368 0.00244365
*CONN
*I *2222:B I *D sky130_fd_sc_hd__and2_1
*I *2223:A1 I *D sky130_fd_sc_hd__o31a_1
*I *1977:Y O *D sky130_fd_sc_hd__inv_2
*CAP
1 *2222:B 0.000384377
2 *2223:A1 0
3 *1977:Y 0.000262257
4 *368:10 0.000646634
5 *2222:B *2223:B1 4.82863e-05
6 *2222:B *2224:S 0.000105533
7 *2222:B *2474:RESET_B 0.000132467
8 *368:10 *2223:B1 0.00012657
9 *368:10 *2289:A1 0.000163199
10 *2218:B *2222:B 0
11 *2222:A *2222:B 0.000404416
12 *2225:A1 *2222:B 0
13 *2474:D *2222:B 4.40812e-05
14 *145:8 *2222:B 0
15 *210:12 *2222:B 7.23533e-05
16 *220:21 *368:10 5.34747e-05
*RES
1 *1977:Y *368:10 7 
2 *368:10 *2223:A1 1.6 
3 *368:10 *2222:B 14.765 
*END

*D_NET *369 0.00211919
*CONN
*I *1981:A I *D sky130_fd_sc_hd__and2_1
*I *2018:B2 I *D sky130_fd_sc_hd__a2bb2o_1
*I *1978:Y O *D sky130_fd_sc_hd__nand2b_1
*CAP
1 *1981:A 1.42455e-05
2 *2018:B2 0.000403918
3 *1978:Y 0.000147456
4 *369:12 0.00056562
5 *1981:A *717:59 4.66108e-05
6 *1981:A *840:18 1.91597e-05
7 *2018:B2 *2596:A 2.63322e-05
8 *2018:B2 *457:24 0.000118294
9 *2018:B2 *717:59 0.000373369
10 *2018:B2 *840:18 5.83121e-06
11 *369:12 *1978:B 5.96157e-06
12 *369:12 *2003:A 0.000241856
13 *369:12 *717:46 0.00010057
14 *369:12 *726:17 4.9968e-05
*RES
1 *1978:Y *369:12 8.96 
2 *369:12 *2018:B2 9.07 
3 *369:12 *1981:A 2.05 
*END

*D_NET *370 0.00128992
*CONN
*I *2056:B1 I *D sky130_fd_sc_hd__a211o_1
*I *1979:Y O *D sky130_fd_sc_hd__nor2_1
*CAP
1 *2056:B1 0.000141901
2 *1979:Y 0.000141901
3 *2056:B1 *1979:A 0.000108739
4 *2056:B1 *1979:B 0.000232105
5 *2056:B1 *2056:A1 5.4155e-06
6 *2056:B1 *2135:B2 0.000563114
7 *2056:B1 *835:57 4.47209e-05
8 *2056:B1 *835:78 5.20263e-05
*RES
1 *1979:Y *2056:B1 8.84 
*END

*D_NET *371 0.00426003
*CONN
*I *2020:B1 I *D sky130_fd_sc_hd__a21o_1
*I *1981:B I *D sky130_fd_sc_hd__and2_1
*I *2034:B1 I *D sky130_fd_sc_hd__a21o_1
*I *2061:A1 I *D sky130_fd_sc_hd__o21a_1
*I *1980:Y O *D sky130_fd_sc_hd__o21bai_2
*CAP
1 *2020:B1 3.66398e-05
2 *1981:B 0.00027425
3 *2034:B1 0
4 *2061:A1 2.96432e-05
5 *1980:Y 2.55105e-05
6 *371:34 0.000719208
7 *371:16 0.000565979
8 *371:8 0.000970164
9 *1981:B *2596:A 0.000119756
10 *1981:B *411:12 7.06865e-05
11 *1981:B *717:59 2.42043e-05
12 *1981:B *726:17 8.23457e-05
13 *1981:B *835:39 3.86529e-05
14 *1981:B *840:18 8.73389e-06
15 *2020:B1 *1978:B 0
16 *2061:A1 *401:25 0.000122337
17 *2061:A1 *403:12 8.49205e-05
18 *371:8 *1961:A 4.82863e-05
19 *371:16 *2022:B1 0
20 *371:16 *2023:A1 9.37731e-05
21 *371:16 *2061:B1 0
22 *371:16 *401:25 7.3093e-05
23 *371:16 *409:38 0
24 *371:16 *414:12 0.00014531
25 *371:16 *452:60 0.000197016
26 *371:34 *1978:B 2.8185e-05
27 *371:34 *2020:A1 7.14699e-05
28 *371:34 *2022:B1 0
29 *371:34 *2023:A1 9.14049e-05
30 *371:34 *448:24 1.7635e-05
31 *371:34 *457:24 2.46089e-05
32 *371:34 *717:81 7.26551e-05
33 *371:34 *832:54 8.11827e-05
34 *371:34 *832:78 0.000123225
35 *371:34 *833:14 1.33285e-05
36 *371:34 *833:30 5.83121e-06
*RES
1 *1980:Y *371:8 4.05 
2 *371:8 *371:16 11.825 
3 *371:16 *2061:A1 2.74 
4 *371:16 *2034:B1 1.6 
5 *371:8 *371:34 8.795 
6 *371:34 *1981:B 9.815 
7 *371:34 *2020:B1 2.215 
*END

*D_NET *372 0.00905963
*CONN
*I *2155:A2 I *D sky130_fd_sc_hd__a221o_1
*I *2089:A I *D sky130_fd_sc_hd__nand2_1
*I *1982:B I *D sky130_fd_sc_hd__nor2_1
*I *1994:B I *D sky130_fd_sc_hd__nand2_1
*I *2152:A2 I *D sky130_fd_sc_hd__o22a_1
*I *1981:X O *D sky130_fd_sc_hd__and2_1
*CAP
1 *2155:A2 3.66966e-05
2 *2089:A 0.000332176
3 *1982:B 0.000149423
4 *1994:B 1.85441e-05
5 *2152:A2 8.23594e-06
6 *1981:X 0.000553686
7 *372:35 0.000416266
8 *372:33 0.00101029
9 *372:16 0.000598465
10 *372:10 0.000750797
11 *1982:B *2385:A2 5.80923e-05
12 *1982:B *677:37 0.000171525
13 *1994:B *824:22 5.16348e-05
14 *2089:A *2277:A1 4.99619e-05
15 *2089:A *2277:A2 2.39856e-05
16 *2089:A *854:84 0.00026359
17 *2152:A2 *2195:A 1.88602e-05
18 *2152:A2 *2195:B 9.5799e-06
19 *2155:A2 *380:8 5.80482e-06
20 *372:10 *2155:B1 3.25831e-05
21 *372:10 *2278:A1 0.000124192
22 *372:10 *2279:A2 0.000221321
23 *372:10 *2326:A1_N 0.000137591
24 *372:10 *2611:A 4.10051e-05
25 *372:10 *380:14 0.000111347
26 *372:10 *819:18 0
27 *372:10 *821:16 3.58155e-05
28 *372:10 *842:62 0
29 *372:10 *847:86 7.10578e-05
30 *372:10 *847:214 9.27495e-05
31 *372:16 *2155:B1 3.46196e-05
32 *372:16 *2249:A2 2.91013e-05
33 *372:16 *376:77 0.00021012
34 *372:16 *376:96 0.000149685
35 *372:16 *380:14 2.28346e-05
36 *372:33 *2249:A2 0.000181285
37 *372:33 *376:96 0.00106764
38 *372:33 *824:202 6.27968e-05
39 *372:33 *856:69 1.67879e-05
40 *372:35 *2548:RESET_B 0.000143542
41 *372:35 *824:22 9.26619e-05
42 *372:35 *824:202 0.000535661
43 *1982:A *1982:B 0.000337169
44 *2155:A1 *2155:A2 1.37395e-05
45 *2278:A2 *372:16 9.77349e-05
46 *2278:A2 *372:33 0.000189684
47 *2278:B2 *372:10 5.4857e-05
48 *2548:D *1982:B 8.57024e-05
49 *2548:D *372:35 6.38384e-05
50 *2680:A *372:33 2.30797e-05
51 *2680:A *372:35 9.54399e-05
52 *236:10 *372:10 8.88715e-05
53 *250:27 *1994:B 2.78732e-05
54 *250:27 *372:35 3.96326e-05
*RES
1 *1981:X *372:10 15.45 
2 *372:10 *372:16 1.5499 
3 *372:16 *2152:A2 4.3325 
4 *372:16 *372:33 2.8537 
5 *372:33 *372:35 7.5 
6 *372:35 *1994:B 4.215 
7 *372:35 *1982:B 7.875 
8 *372:33 *2089:A 9.24 
9 *372:10 *2155:A2 4.17375 
*END

*D_NET *373 0.00303156
*CONN
*I *1998:A_N I *D sky130_fd_sc_hd__nand2b_1
*I *1995:A1 I *D sky130_fd_sc_hd__o211ai_1
*I *1982:Y O *D sky130_fd_sc_hd__nor2_1
*CAP
1 *1998:A_N 7.81861e-05
2 *1995:A1 0
3 *1982:Y 0.000694824
4 *373:18 0.00077301
5 *1998:A_N *1995:B1 4.66108e-05
6 *1998:A_N *2076:A3 0.000115316
7 *1998:A_N *2076:B1 0.000120655
8 *1998:A_N *386:8 3.74161e-05
9 *373:18 *1992:B 7.9642e-06
10 *373:18 *1995:B1 7.96104e-06
11 *373:18 *2387:A2 7.17118e-05
12 *373:18 *376:110 1.7635e-05
13 *373:18 *681:53 0
14 *373:18 *688:10 4.78859e-05
15 *373:18 *717:339 0.000176676
16 *373:18 *839:16 0.000673765
17 *2248:A *373:18 8.53914e-05
18 *2383:B1 *373:18 7.65502e-05
19 *2391:B1 *373:18 0
*RES
1 *1982:Y *373:18 14.2135 
2 *373:18 *1995:A1 1.6 
3 *373:18 *1998:A_N 4.165 
*END

*D_NET *374 0.000729132
*CONN
*I *1984:A I *D sky130_fd_sc_hd__inv_2
*I *2031:A2 I *D sky130_fd_sc_hd__o22a_2
*I *1983:Y O *D sky130_fd_sc_hd__nand2_1
*CAP
1 *1984:A 6.97594e-05
2 *2031:A2 8.79861e-05
3 *1983:Y 0
4 *374:4 0.000157746
5 *1984:A *2149:B1 4.66742e-05
6 *1984:A *819:143 0.000116158
7 *1984:A *834:29 6.28765e-05
8 *2031:A2 *1978:A_N 1.03423e-05
9 *2031:A2 *1983:A 5.40741e-05
10 *2031:A2 *2031:A1 9.53428e-06
11 *2031:A2 *830:108 1.1392e-05
12 *2031:A2 *834:33 0
13 *2031:B2 *2031:A2 1.85674e-05
14 *2147:A1 *1984:A 8.40213e-05
*RES
1 *1983:Y *374:4 1.6 
2 *374:4 *2031:A2 3.37 
3 *374:4 *1984:A 7.775 
*END

*D_NET *375 0.00249632
*CONN
*I *2052:A2 I *D sky130_fd_sc_hd__o32a_2
*I *2043:A2 I *D sky130_fd_sc_hd__a221o_2
*I *2066:A2 I *D sky130_fd_sc_hd__o31a_1
*I *1984:Y O *D sky130_fd_sc_hd__inv_2
*CAP
1 *2052:A2 0
2 *2043:A2 8.16027e-05
3 *2066:A2 0.000197298
4 *1984:Y 0.000252455
5 *375:12 0.000398272
6 *375:10 0.000371827
7 *2043:A2 *2004:B2 9.2901e-05
8 *2043:A2 *2043:B1 5.66352e-05
9 *2043:A2 *2043:B2 2.75985e-05
10 *2043:A2 *831:25 1.0689e-05
11 *2043:A2 *831:42 7.29996e-06
12 *2066:A2 *1988:B 3.39151e-05
13 *2066:A2 *2018:B1 0
14 *2066:A2 *2065:A2 7.48995e-05
15 *2066:A2 *2065:B1 9.80032e-06
16 *2066:A2 *2066:B1 0.000158952
17 *2066:A2 *407:10 8.40269e-05
18 *2066:A2 *407:42 4.5783e-05
19 *375:10 *1988:B 4.1192e-05
20 *375:10 *2031:B1 0.000186186
21 *375:10 *2043:C1 1.1561e-05
22 *375:10 *422:47 0
23 *375:10 *819:143 0
24 *375:10 *831:42 9.50342e-06
25 *375:12 *1988:B 1.65371e-05
26 *375:12 *2031:B1 3.09233e-05
27 *375:12 *2043:C1 2.20632e-05
28 *375:12 *407:42 7.67375e-05
29 *375:12 *831:42 0.000111061
30 *2147:A1 *375:10 8.65961e-05
*RES
1 *1984:Y *375:10 8.07 
2 *375:10 *375:12 2.4 
3 *375:12 *2066:A2 7.5 
4 *375:12 *2043:A2 5.92875 
5 *375:10 *2052:A2 3.6 
*END

*D_NET *376 0.0174856
*CONN
*I *2089:B I *D sky130_fd_sc_hd__nand2_1
*I *1986:B I *D sky130_fd_sc_hd__nand2_1
*I *1991:B I *D sky130_fd_sc_hd__nor2_1
*I *1992:B I *D sky130_fd_sc_hd__or2_1
*I *2152:B1 I *D sky130_fd_sc_hd__o22a_1
*I *2151:A2 I *D sky130_fd_sc_hd__a22o_1
*I *2004:B2 I *D sky130_fd_sc_hd__o32a_1
*I *2022:B1 I *D sky130_fd_sc_hd__a21o_1
*I *1985:X O *D sky130_fd_sc_hd__a21bo_2
*CAP
1 *2089:B 0
2 *1986:B 9.71884e-06
3 *1991:B 2.44059e-05
4 *1992:B 0.000465056
5 *2152:B1 6.31386e-05
6 *2151:A2 5.53304e-05
7 *2004:B2 0.000549074
8 *2022:B1 0.000400056
9 *1985:X 0
10 *376:110 0.000807616
11 *376:104 0.00103597
12 *376:96 0.00174768
13 *376:77 0.00134975
14 *376:58 0.00147987
15 *376:10 0.00121699
16 *376:4 0.00144536
17 *1986:B *2393:A3 4.82919e-05
18 *1986:B *2393:B1 4.82919e-05
19 *1991:B *2076:A3 4.66742e-05
20 *1991:B *2076:B1 8.40213e-05
21 *1992:B *1995:B1 6.60257e-06
22 *1992:B *2000:A 4.99619e-05
23 *1992:B *2077:A_N 0
24 *1992:B *2077:C 4.82863e-05
25 *1992:B *384:16 1.88904e-05
26 *1992:B *388:10 0
27 *1992:B *732:10 0.000121181
28 *1992:B *837:73 0.000100111
29 *1992:B *839:16 0.000267535
30 *2004:B2 *2004:B1 1.34594e-05
31 *2004:B2 *2043:B1 4.20638e-05
32 *2004:B2 *2043:C1 2.11084e-05
33 *2004:B2 *379:14 2.66861e-05
34 *2004:B2 *434:22 6.75843e-05
35 *2004:B2 *819:18 9.27326e-05
36 *2004:B2 *830:8 1.64087e-05
37 *2004:B2 *831:42 2.86265e-06
38 *2022:B1 *2018:B1 0.000264449
39 *2022:B1 *409:38 6.08611e-05
40 *2022:B1 *413:27 4.99619e-05
41 *2022:B1 *457:24 8.61331e-05
42 *2151:A2 *2151:B1 8.02946e-05
43 *2151:A2 *2155:B1 8.23457e-05
44 *2151:A2 *2193:B 2.1433e-05
45 *2151:A2 *531:10 0
46 *2152:B1 *443:52 7.84003e-05
47 *376:10 *1983:A 8.65961e-05
48 *376:10 *2017:A_N 9.19299e-05
49 *376:10 *2018:B1 0.000192102
50 *376:10 *457:24 9.55716e-05
51 *376:10 *819:143 0
52 *376:10 *834:29 3.25831e-05
53 *376:10 *834:33 4.80285e-05
54 *376:10 *834:46 5.83121e-06
55 *376:58 *1983:A 0.000122331
56 *376:58 *1985:B1_N 1.12643e-05
57 *376:58 *2147:A2 7.42845e-05
58 *376:58 *2148:B 7.18547e-05
59 *376:58 *2149:B1 1.46828e-05
60 *376:58 *2149:B2 0.000162311
61 *376:58 *2149:C1 9.27255e-06
62 *376:58 *2193:B 4.05982e-05
63 *376:58 *2193:C 7.41665e-05
64 *376:58 *457:24 5.83373e-05
65 *376:58 *457:45 6.57653e-06
66 *376:58 *457:70 0.000105508
67 *376:58 *832:21 2.92496e-05
68 *376:58 *834:29 0
69 *376:58 *834:46 5.39716e-05
70 *376:77 *2153:C1 3.2874e-05
71 *376:77 *2155:B1 0.000225821
72 *376:77 *2155:B2 1.52532e-05
73 *376:77 *2249:A2 1.63614e-05
74 *376:77 *532:20 0.000216261
75 *376:77 *802:31 1.33725e-05
76 *376:77 *842:62 0
77 *376:96 *2091:B 1.88602e-05
78 *376:96 *2249:A2 0.00011327
79 *376:96 *2277:B1 2.86729e-05
80 *376:96 *802:31 4.07807e-05
81 *376:104 *2277:B1 9.50342e-06
82 *376:104 *2392:A2_N 0
83 *376:104 *2392:B1 1.88605e-05
84 *376:104 *2392:B2 0.000115083
85 *376:104 *2549:CLK 2.88202e-05
86 *376:104 *2613:A 0
87 *376:104 *377:16 4.13329e-05
88 *376:104 *733:87 0
89 *376:104 *825:10 0
90 *376:104 *837:48 9.8549e-05
91 *376:110 *2388:A2 0.000121518
92 *376:110 *2392:B1 1.74629e-05
93 *376:110 *377:16 0.000149842
94 *376:110 *732:10 0.000104643
95 *376:110 *732:58 2.16389e-05
96 *1992:A *1992:B 3.67779e-05
97 *1995:C1 *376:110 0
98 *2022:A1 *2022:B1 0.00016176
99 *2043:A2 *2004:B2 9.2901e-05
100 *2065:A1 *2022:B1 0
101 *2147:B2 *376:58 9.3062e-06
102 *2148:A *376:58 1.4389e-05
103 *2151:B2 *2151:A2 3.99514e-06
104 *2151:B2 *376:58 4.6603e-05
105 *2155:A1 *2152:B1 2.49909e-05
106 *2506:D *376:104 9.44791e-05
107 *2516:D *376:96 3.6964e-05
108 *2516:D *376:104 0
109 *2634:A *2152:B1 7.84003e-05
110 *126:33 *376:58 0
111 *251:10 *376:104 5.93963e-05
112 *251:20 *376:104 4.01019e-05
113 *371:16 *2022:B1 0
114 *371:34 *2022:B1 0
115 *372:16 *376:77 0.00021012
116 *372:16 *376:96 0.000149685
117 *372:33 *376:96 0.00106764
118 *373:18 *1992:B 7.9642e-06
119 *373:18 *376:110 1.7635e-05
*RES
1 *1985:X *376:4 1.6 
2 *376:4 *376:10 8 
3 *376:10 *2022:B1 11.55 
4 *376:10 *2004:B2 14.74 
5 *376:4 *376:58 20.4587 
6 *376:58 *2151:A2 3.35125 
7 *376:58 *376:77 5.72837 
8 *376:77 *2152:B1 5.5475 
9 *376:77 *376:96 4.09923 
10 *376:96 *376:104 12.09 
11 *376:104 *376:110 5.085 
12 *376:110 *1992:B 8.5472 
13 *376:110 *1991:B 4.395 
14 *376:104 *1986:B 4.05 
15 *376:96 *2089:B 3.6 
*END

*D_NET *377 0.00415457
*CONN
*I *2387:A1 I *D sky130_fd_sc_hd__a311o_1
*I *2076:A1 I *D sky130_fd_sc_hd__a31o_2
*I *1993:A1 I *D sky130_fd_sc_hd__a21o_1
*I *1999:A I *D sky130_fd_sc_hd__nand2_1
*I *1986:Y O *D sky130_fd_sc_hd__nand2_1
*CAP
1 *2387:A1 0
2 *2076:A1 3.43202e-05
3 *1993:A1 0
4 *1999:A 0.000275836
5 *1986:Y 0.000196491
6 *377:24 0.000509168
7 *377:20 0.000297099
8 *377:16 0.000225937
9 *1999:A *1999:B 0.000144278
10 *1999:A *2077:C 1.51394e-05
11 *1999:A *2387:A2 8.53113e-06
12 *1999:A *388:10 0.000173533
13 *1999:A *388:14 0.000112685
14 *1999:A *462:12 0.000242646
15 *1999:A *466:10 1.07797e-05
16 *1999:A *681:38 0.000268008
17 *1999:A *681:53 0
18 *1999:A *837:73 0
19 *2076:A1 *2076:B1 3.66286e-05
20 *377:16 *2386:A2 0.000419398
21 *377:16 *2587:A 0.000421073
22 *377:16 *732:58 7.07669e-05
23 *377:16 *837:73 6.61973e-05
24 *377:20 *837:73 9.37731e-05
25 *377:24 *1993:B1 8.69014e-05
26 *377:24 *2076:B1 4.82919e-05
27 *377:24 *681:53 2.36716e-05
28 *1986:A *377:16 4.76303e-05
29 *1992:A *377:16 4.13092e-05
30 *1992:A *377:20 8.09744e-05
31 *2383:B1 *1999:A 9.34773e-06
32 *2384:B1 *1999:A 2.97872e-06
33 *376:104 *377:16 4.13329e-05
34 *376:110 *377:16 0.000149842
*RES
1 *1986:Y *377:16 14.77 
2 *377:16 *377:20 3.125 
3 *377:20 *377:24 3.135 
4 *377:24 *1999:A 13.325 
5 *377:24 *1993:A1 1.6 
6 *377:20 *2076:A1 2.05 
7 *377:16 *2387:A1 3.6 
*END

*D_NET *378 0.00519633
*CONN
*I *1989:B1 I *D sky130_fd_sc_hd__o31ai_2
*I *1988:B I *D sky130_fd_sc_hd__nand2_1
*I *2065:A2 I *D sky130_fd_sc_hd__a211o_1
*I *1987:Y O *D sky130_fd_sc_hd__o21ai_2
*CAP
1 *1989:B1 0.000347016
2 *1988:B 0.000434751
3 *2065:A2 0.000151984
4 *1987:Y 8.48051e-05
5 *378:10 0.000835969
6 *378:8 0.000681056
7 *1988:B *2002:A 3.26889e-05
8 *1988:B *2018:B1 0
9 *1988:B *2043:C1 0.000173328
10 *1988:B *379:8 2.42043e-05
11 *1988:B *393:10 1.08758e-05
12 *1988:B *819:18 0.000125757
13 *1988:B *819:143 0.000197049
14 *1988:B *830:108 0.000306155
15 *1988:B *836:41 3.12176e-05
16 *1988:B *836:62 2.42043e-05
17 *1989:B1 *2016:B 1.88904e-05
18 *1989:B1 *457:24 0.000244224
19 *1989:B1 *832:23 0.000119396
20 *1989:B1 *847:33 0.000348299
21 *2065:A2 *2018:B1 0
22 *2065:A2 *407:6 7.00889e-06
23 *2065:A2 *407:10 6.90876e-05
24 *2065:A2 *407:12 2.99445e-05
25 *2065:A2 *407:42 4.92971e-05
26 *378:8 *2016:A_N 2.05056e-05
27 *378:8 *2016:B 3.66286e-05
28 *378:10 *2016:B 0.000160641
29 *378:10 *407:6 6.90876e-05
30 *378:10 *833:30 6.0147e-06
31 *2031:B2 *1988:B 0.000147196
32 *2065:A1 *2065:A2 9.50342e-06
33 *2066:A2 *1988:B 3.39151e-05
34 *2066:A2 *2065:A2 7.48995e-05
35 *351:6 *1988:B 0.000233004
36 *375:10 *1988:B 4.1192e-05
37 *375:12 *1988:B 1.65371e-05
*RES
1 *1987:Y *378:8 2.755 
2 *378:8 *378:10 3.21 
3 *378:10 *2065:A2 7.955 
4 *378:10 *1988:B 16.67 
5 *378:8 *1989:B1 12.08 
*END

*D_NET *379 0.00598463
*CONN
*I *2144:A2 I *D sky130_fd_sc_hd__a32o_1
*I *2142:A1 I *D sky130_fd_sc_hd__a21oi_1
*I *2036:A1 I *D sky130_fd_sc_hd__a21oi_1
*I *2035:B I *D sky130_fd_sc_hd__and3_1
*I *1988:Y O *D sky130_fd_sc_hd__nand2_1
*CAP
1 *2144:A2 0
2 *2142:A1 7.19147e-05
3 *2036:A1 0
4 *2035:B 0.000139823
5 *1988:Y 6.37301e-05
6 *379:40 0.000390902
7 *379:14 0.00123552
8 *379:8 0.00147841
9 *2035:B *422:10 2.37321e-05
10 *2035:B *427:8 4.43871e-06
11 *2035:B *438:12 0.00016063
12 *2142:A1 *2143:B1 9.16237e-05
13 *2142:A1 *425:50 1.34361e-05
14 *2142:A1 *847:54 3.04982e-05
15 *379:8 *393:10 4.82863e-05
16 *379:14 *1980:B1_N 4.92861e-05
17 *379:14 *2004:A3 0.000149459
18 *379:14 *2004:B1 1.62834e-05
19 *379:14 *2042:B1 0
20 *379:14 *2055:A2 6.03272e-05
21 *379:14 *2055:B1_N 0.000114492
22 *379:14 *2061:A2 0
23 *379:14 *392:44 9.27921e-05
24 *379:14 *393:10 0.000130821
25 *379:14 *401:12 0
26 *379:14 *422:10 0.000298242
27 *379:14 *452:24 3.79555e-05
28 *379:14 *717:81 4.61701e-06
29 *379:14 *830:8 0
30 *379:14 *830:14 0.000165212
31 *379:14 *835:78 0
32 *379:14 *840:93 3.26892e-05
33 *379:40 *2144:A3 3.45588e-05
34 *379:40 *2144:B1 3.04245e-05
35 *379:40 *2146:C1 4.13891e-06
36 *379:40 *393:10 2.03245e-05
37 *379:40 *425:50 0
38 *379:40 *831:12 1.65192e-05
39 *379:40 *836:24 4.75576e-05
40 *1988:B *379:8 2.42043e-05
41 *2004:B2 *379:14 2.66861e-05
42 *2008:A *379:14 1.00941e-05
43 *2042:C1 *379:14 0
44 *2056:C1 *379:14 4.32126e-05
45 *2144:A1 *2142:A1 0.00020779
46 *2146:A1 *379:40 0.000122331
47 *2618:A *379:14 0.000130821
48 *2618:A *379:40 9.0444e-05
49 *127:10 *379:40 8.28738e-05
50 *242:23 *379:14 0
51 *243:25 *2035:B 7.06865e-05
52 *243:25 *379:14 4.31106e-05
53 *352:14 *379:14 7.3727e-05
*RES
1 *1988:Y *379:8 4.395 
2 *379:8 *379:14 20.64 
3 *379:14 *2035:B 5.955 
4 *379:14 *2036:A1 3.6 
5 *379:8 *379:40 7.025 
6 *379:40 *2142:A1 8.255 
7 *379:40 *2144:A2 1.6 
*END

*D_NET *380 0.00641349
*CONN
*I *2151:B1 I *D sky130_fd_sc_hd__a22o_1
*I *2153:A2 I *D sky130_fd_sc_hd__o221a_1
*I *1996:B I *D sky130_fd_sc_hd__or2_1
*I *1990:B I *D sky130_fd_sc_hd__nand2_1
*I *1989:Y O *D sky130_fd_sc_hd__o31ai_2
*CAP
1 *2151:B1 0.000198597
2 *2153:A2 0.000123922
3 *1996:B 9.00534e-05
4 *1990:B 0
5 *1989:Y 0.000882007
6 *380:30 0.000367547
7 *380:14 0.000756915
8 *380:8 0.0015939
9 *1996:B *381:6 1.61831e-05
10 *2151:B1 *2154:B 6.83447e-05
11 *2151:B1 *2155:B1 3.59508e-05
12 *2151:B1 *443:52 2.72225e-05
13 *2151:B1 *531:10 2.72174e-06
14 *2153:A2 *443:52 7.35374e-05
15 *380:8 *2155:B2 5.08025e-05
16 *380:8 *847:33 0.000102586
17 *380:14 *2155:B1 1.16475e-05
18 *380:14 *2278:A1 0.000122525
19 *380:14 *2279:B1 0.000473561
20 *380:14 *2326:A1_N 0.000466203
21 *380:14 *2611:A 3.86814e-05
22 *380:14 *443:52 7.82661e-05
23 *380:14 *448:58 0.00019907
24 *380:14 *532:20 7.03893e-05
25 *380:30 *2155:B1 1.51915e-05
26 *380:30 *443:52 4.36573e-06
27 *380:30 *532:20 5.63183e-05
28 *1990:A *1996:B 4.82863e-05
29 *2151:A2 *2151:B1 8.02946e-05
30 *2153:A1 *2151:B1 0.00011381
31 *2155:A1 *380:8 2.81679e-05
32 *2155:A2 *380:8 5.80482e-06
33 *2278:A2 *380:14 5.92147e-05
34 *2278:B2 *380:8 3.76406e-06
35 *2634:A *2151:B1 0
36 *114:8 *380:8 1.34594e-05
37 *372:10 *380:14 0.000111347
38 *372:16 *380:14 2.28346e-05
*RES
1 *1989:Y *380:8 13.365 
2 *380:8 *380:14 18.38 
3 *380:14 *1990:B 1.6 
4 *380:14 *1996:B 3.1 
5 *380:8 *380:30 0.87 
6 *380:30 *2153:A2 5.355 
7 *380:30 *2151:B1 7.245 
*END

*D_NET *381 0.00321674
*CONN
*I *1993:A2 I *D sky130_fd_sc_hd__a21o_1
*I *2387:A2 I *D sky130_fd_sc_hd__a311o_1
*I *2383:A1 I *D sky130_fd_sc_hd__a31o_1
*I *1997:A I *D sky130_fd_sc_hd__nand2_1
*I *2382:A1 I *D sky130_fd_sc_hd__a21oi_1
*I *1990:Y O *D sky130_fd_sc_hd__nand2_1
*CAP
1 *1993:A2 0
2 *2387:A2 0.000205242
3 *2383:A1 0
4 *1997:A 0
5 *2382:A1 0.00037507
6 *1990:Y 0.000141376
7 *381:37 0.000274305
8 *381:30 0.000163418
9 *381:23 0.00018047
10 *381:6 0.000602562
11 *2382:A1 *2075:A1_N 4.18603e-06
12 *2382:A1 *2371:A1 1.53032e-05
13 *2382:A1 *2377:B1 0
14 *2382:A1 *2380:A3 1.7635e-05
15 *2382:A1 *2381:A0 3.86607e-05
16 *2382:A1 *2382:A2 0.000125706
17 *2382:A1 *2384:A1_N 0
18 *2382:A1 *823:24 6.60009e-05
19 *2387:A2 *920:DIODE 1.33293e-05
20 *2387:A2 *2587:A 6.58339e-05
21 *2387:A2 *688:10 4.82863e-05
22 *381:6 *1997:B 5.83121e-06
23 *381:23 *1997:B 2.75229e-05
24 *381:23 *2383:A3 1.10085e-05
25 *381:23 *388:10 4.99619e-05
26 *381:30 *2383:A3 4.41506e-05
27 *381:30 *2384:A2_N 2.75229e-05
28 *381:30 *388:10 3.79854e-05
29 *381:37 *2383:A3 3.38341e-05
30 *381:37 *681:53 5.83121e-06
31 *1990:A *381:6 6.83659e-05
32 *1996:B *381:6 1.61831e-05
33 *1999:A *2387:A2 8.53113e-06
34 *2383:B1 *2387:A2 0.000141606
35 *2383:B1 *381:37 4.66108e-05
36 *248:44 *2382:A1 0.000123225
37 *249:12 *2382:A1 0.000138968
38 *249:12 *381:6 2.05056e-05
39 *373:18 *2387:A2 7.17118e-05
*RES
1 *1990:Y *381:6 3.775 
2 *381:6 *2382:A1 13.22 
3 *381:6 *381:23 1.755 
4 *381:23 *1997:A 1.6 
5 *381:23 *381:30 1.83 
6 *381:30 *2383:A1 1.6 
7 *381:30 *381:37 1.14 
8 *381:37 *2387:A2 9.755 
9 *381:37 *1993:A2 1.6 
*END

*D_NET *382 0.00259591
*CONN
*I *2386:A1 I *D sky130_fd_sc_hd__o211ai_1
*I *2387:C1 I *D sky130_fd_sc_hd__a311o_1
*I *1993:B1 I *D sky130_fd_sc_hd__a21o_1
*I *1991:Y O *D sky130_fd_sc_hd__nor2_1
*CAP
1 *2386:A1 8.24493e-05
2 *2387:C1 3.70285e-05
3 *1993:B1 0.00035639
4 *1991:Y 0
5 *382:25 0.000164997
6 *382:6 0.000401909
7 *1993:B1 *2076:A3 0.000141975
8 *1993:B1 *2076:B1 0.000126731
9 *1993:B1 *467:18 1.54318e-05
10 *1993:B1 *681:53 7.35729e-05
11 *1993:B1 *732:10 5.66618e-05
12 *2386:A1 *2386:A2 2.30292e-05
13 *2386:A1 *2386:B1 1.37328e-05
14 *2386:A1 *2387:B1 0.000215298
15 *2386:A1 *2587:A 0.000239937
16 *2386:A1 *732:8 7.40446e-05
17 *2387:C1 *2387:B1 6.52265e-05
18 *2387:C1 *2587:A 0.00015896
19 *2387:C1 *732:8 4.66108e-05
20 *382:25 *732:10 4.94326e-05
21 *382:25 *732:58 1.07797e-05
22 *1991:A *1993:B1 5.05223e-05
23 *1991:A *382:25 0.000104287
24 *377:24 *1993:B1 8.69014e-05
*RES
1 *1991:Y *382:6 3.6 
2 *382:6 *1993:B1 10.2 
3 *382:6 *382:25 3.38 
4 *382:25 *2387:C1 3.085 
5 *382:25 *2386:A1 5.29 
*END

*D_NET *383 0.00245645
*CONN
*I *2076:A2 I *D sky130_fd_sc_hd__a31o_2
*I *1999:B I *D sky130_fd_sc_hd__nand2_1
*I *1992:X O *D sky130_fd_sc_hd__or2_1
*CAP
1 *2076:A2 0.000195246
2 *1999:B 0.000299015
3 *1992:X 4.61528e-05
4 *383:6 0.000540414
5 *1999:B *2380:A3 1.81522e-05
6 *1999:B *388:10 7.30547e-05
7 *1999:B *388:14 0.000109786
8 *1999:B *466:10 0
9 *1999:B *824:22 0
10 *2076:A2 *2000:A 3.26889e-05
11 *2076:A2 *2077:C 0.000259539
12 *2076:A2 *384:16 2.30292e-05
13 *2076:A2 *824:22 0.000193684
14 *383:6 *2077:C 8.23457e-05
15 *1992:A *1999:B 4.9968e-05
16 *1992:A *2076:A2 0.000389094
17 *1999:A *1999:B 0.000144278
*RES
1 *1992:X *383:6 2.395 
2 *383:6 *1999:B 11.18 
3 *383:6 *2076:A2 10.88 
*END

*D_NET *384 0.003347
*CONN
*I *2386:C1 I *D sky130_fd_sc_hd__o211ai_1
*I *1995:A2 I *D sky130_fd_sc_hd__o211ai_1
*I *1993:X O *D sky130_fd_sc_hd__a21o_1
*CAP
1 *2386:C1 0.000109299
2 *1995:A2 0.000180233
3 *1993:X 0.000650733
4 *384:16 0.000940265
5 *1995:A2 *2076:A3 0.000275548
6 *2386:C1 *2077:A_N 0
7 *2386:C1 *385:22 0.000113221
8 *2386:C1 *389:12 7.06865e-05
9 *384:16 *2000:A 0.000618022
10 *384:16 *388:10 2.66935e-05
11 *384:16 *837:73 2.88322e-05
12 *1992:A *384:16 0.000158066
13 *1992:B *384:16 1.88904e-05
14 *1995:C1 *2386:C1 3.99069e-05
15 *2076:A2 *384:16 2.30292e-05
16 *2396:A1 *2386:C1 4.33654e-05
17 *2396:A1 *384:16 3.67779e-05
18 *252:12 *2386:C1 1.34361e-05
*RES
1 *1993:X *384:16 17.035 
2 *384:16 *1995:A2 6.12 
3 *384:16 *2386:C1 6.255 
*END

*D_NET *385 0.00407613
*CONN
*I *2391:A2 I *D sky130_fd_sc_hd__a31o_1
*I *2390:A1 I *D sky130_fd_sc_hd__a21oi_1
*I *1995:B1 I *D sky130_fd_sc_hd__o211ai_1
*I *1998:B I *D sky130_fd_sc_hd__nand2b_1
*I *1994:Y O *D sky130_fd_sc_hd__nand2_1
*CAP
1 *2391:A2 0
2 *2390:A1 0
3 *1995:B1 0.000207356
4 *1998:B 2.57453e-05
5 *1994:Y 0.00066432
6 *385:22 0.000388465
7 *385:16 0.00026075
8 *385:10 0.000769707
9 *1995:B1 *2076:A3 4.82863e-05
10 *1995:B1 *2077:A_N 3.69766e-05
11 *1995:B1 *839:16 0.00029893
12 *1998:B *2076:A3 4.89559e-05
13 *1998:B *389:12 4.64239e-05
14 *385:10 *2393:A2 0.000240711
15 *385:10 *2549:CLK 0.000114424
16 *385:10 *825:160 3.81908e-06
17 *385:10 *826:172 0.000100287
18 *385:16 *2390:A2 0.000208304
19 *385:16 *2393:A2 5.07376e-05
20 *385:16 *825:24 6.95335e-05
21 *385:16 *826:172 2.50049e-05
22 *385:22 *2390:A2 7.00889e-06
23 *385:22 *2392:B1 4.11678e-06
24 *1982:A *385:10 2.75229e-05
25 *1992:B *1995:B1 6.60257e-06
26 *1998:A_N *1995:B1 4.66108e-05
27 *2386:C1 *385:22 0.000113221
28 *2391:B1 *1995:B1 0
29 *2396:A1 *385:22 0.000111547
30 *2549:D *385:10 3.83995e-05
31 *251:20 *385:10 1.38505e-05
32 *251:22 *385:10 4.12352e-05
33 *252:10 *385:10 1.23391e-05
34 *353:18 *385:10 3.69766e-05
35 *373:18 *1995:B1 7.96104e-06
*RES
1 *1994:Y *385:10 13.17 
2 *385:10 *385:16 5.105 
3 *385:16 *385:22 4.52 
4 *385:22 *1998:B 4.39125 
5 *385:22 *1995:B1 5.98337 
6 *385:16 *2390:A1 1.6 
7 *385:10 *2391:A2 3.6 
*END

*D_NET *386 0.00165671
*CONN
*I *2077:A_N I *D sky130_fd_sc_hd__nand3b_4
*I *2076:B1 I *D sky130_fd_sc_hd__a31o_2
*I *1995:Y O *D sky130_fd_sc_hd__o211ai_1
*CAP
1 *2077:A_N 0.000178738
2 *2076:B1 0.000295043
3 *1995:Y 4.53586e-05
4 *386:8 0.00051914
5 *2076:B1 *2076:A3 0.000106651
6 *2077:A_N *732:10 0
7 *386:8 *2000:B 0
8 *1991:B *2076:B1 8.40213e-05
9 *1992:B *2077:A_N 0
10 *1993:B1 *2076:B1 0.000126731
11 *1995:B1 *2077:A_N 3.69766e-05
12 *1995:C1 *2077:A_N 2.10582e-05
13 *1998:A_N *2076:B1 0.000120655
14 *1998:A_N *386:8 3.74161e-05
15 *2076:A1 *2076:B1 3.66286e-05
16 *2386:C1 *2077:A_N 0
17 *2396:A1 *2077:A_N 0
18 *377:24 *2076:B1 4.82919e-05
*RES
1 *1995:Y *386:8 2.41 
2 *386:8 *2076:B1 6.88 
3 *386:8 *2077:A_N 8.255 
*END

*D_NET *387 8.26824e-05
*CONN
*I *1997:B I *D sky130_fd_sc_hd__nand2_1
*I *1996:X O *D sky130_fd_sc_hd__or2_1
*CAP
1 *1997:B 2.46641e-05
2 *1996:X 2.46641e-05
3 *381:6 *1997:B 5.83121e-06
4 *381:23 *1997:B 2.75229e-05
*RES
1 *1996:X *1997:B 3.65 
*END

*D_NET *388 0.0044764
*CONN
*I *2000:A I *D sky130_fd_sc_hd__nor2_1
*I *2379:A I *D sky130_fd_sc_hd__nand3_1
*I *2378:B1 I *D sky130_fd_sc_hd__a21o_1
*I *1997:Y O *D sky130_fd_sc_hd__nand2_1
*CAP
1 *2000:A 0.000738258
2 *2379:A 2.26804e-05
3 *2378:B1 0
4 *1997:Y 0.000370927
5 *388:14 6.71455e-05
6 *388:10 0.00115365
7 *2000:A *2077:C 0.000123436
8 *2000:A *825:24 6.15995e-05
9 *2000:A *826:172 8.34493e-05
10 *2379:A *462:18 0.000124007
11 *2379:A *837:81 0.000122331
12 *388:10 *2383:A3 0.000192125
13 *388:10 *681:53 7.14699e-05
14 *1992:A *2000:A 4.82919e-05
15 *1992:A *388:10 1.26626e-05
16 *1992:B *2000:A 4.99619e-05
17 *1992:B *388:10 0
18 *1999:A *388:10 0.000173533
19 *1999:A *388:14 0.000112685
20 *1999:B *388:10 7.30547e-05
21 *1999:B *388:14 0.000109786
22 *2076:A2 *2000:A 3.26889e-05
23 *381:23 *388:10 4.99619e-05
24 *381:30 *388:10 3.79854e-05
25 *384:16 *2000:A 0.000618022
26 *384:16 *388:10 2.66935e-05
*RES
1 *1997:Y *388:10 9.645 
2 *388:10 *388:14 3.38 
3 *388:14 *2378:B1 1.6 
4 *388:14 *2379:A 2.74 
5 *388:10 *2000:A 21.175 
*END

*D_NET *389 0.00203719
*CONN
*I *2000:B I *D sky130_fd_sc_hd__nor2_1
*I *2386:B1 I *D sky130_fd_sc_hd__o211ai_1
*I *2387:B1 I *D sky130_fd_sc_hd__a311o_1
*I *1998:Y O *D sky130_fd_sc_hd__nand2b_1
*CAP
1 *2000:B 6.16603e-05
2 *2386:B1 2.9682e-05
3 *2387:B1 0.000474607
4 *1998:Y 0
5 *389:12 0.00063469
6 *389:4 0.000192061
7 *2000:B *2076:A3 2.49909e-05
8 *2387:B1 *2386:A2 1.34503e-05
9 *2387:B1 *2388:A2 1.17409e-05
10 *2387:B1 *2392:B1 3.81908e-06
11 *2387:B1 *2587:A 1.19928e-05
12 *2387:B1 *732:8 0.000120655
13 *389:12 *2076:A3 7.81903e-06
14 *1995:C1 *389:12 3.86529e-05
15 *1998:B *389:12 4.64239e-05
16 *2386:A1 *2386:B1 1.37328e-05
17 *2386:A1 *2387:B1 0.000215298
18 *2386:C1 *389:12 7.06865e-05
19 *2387:C1 *2387:B1 6.52265e-05
20 *386:8 *2000:B 0
*RES
1 *1998:Y *389:4 1.6 
2 *389:4 *389:12 6.01 
3 *389:12 *2387:B1 7.84 
4 *389:12 *2386:B1 2.215 
5 *389:4 *2000:B 2.665 
*END

*D_NET *390 0.00164615
*CONN
*I *2383:A2 I *D sky130_fd_sc_hd__a31o_1
*I *2382:B1 I *D sky130_fd_sc_hd__a21oi_1
*I *1999:Y O *D sky130_fd_sc_hd__nand2_1
*CAP
1 *2383:A2 0.00017026
2 *2382:B1 5.21817e-05
3 *1999:Y 9.36289e-05
4 *390:8 0.000316071
5 *2382:B1 *2371:A1 0
6 *2382:B1 *2384:A1_N 2.97004e-06
7 *2382:B1 *462:12 5.05437e-05
8 *2383:A2 *2384:A1_N 9.26015e-05
9 *2383:A2 *2546:RESET_B 0.000200984
10 *2383:A2 *844:47 0.00025887
11 *2383:A2 *844:51 1.01152e-05
12 *390:8 *462:12 0.000118081
13 *2380:B2 *2382:B1 7.30547e-05
14 *2380:B2 *2383:A2 0.00011852
15 *248:44 *2382:B1 8.8266e-05
*RES
1 *1999:Y *390:8 4.74 
2 *390:8 *2382:B1 5.265 
3 *390:8 *2383:A2 9.06 
*END

*D_NET *391 0.00140818
*CONN
*I *2076:A3 I *D sky130_fd_sc_hd__a31o_2
*I *2000:Y O *D sky130_fd_sc_hd__nor2_1
*CAP
1 *2076:A3 0.00029598
2 *2000:Y 0.00029598
3 *1991:B *2076:A3 4.66742e-05
4 *1993:B1 *2076:A3 0.000141975
5 *1995:A2 *2076:A3 0.000275548
6 *1995:B1 *2076:A3 4.82863e-05
7 *1998:A_N *2076:A3 0.000115316
8 *1998:B *2076:A3 4.89559e-05
9 *2000:B *2076:A3 2.49909e-05
10 *2076:B1 *2076:A3 0.000106651
11 *389:12 *2076:A3 7.81903e-06
*RES
1 *2000:Y *2076:A3 10.685 
*END

*D_NET *392 0.00524421
*CONN
*I *2065:B1 I *D sky130_fd_sc_hd__a211o_1
*I *2055:B1_N I *D sky130_fd_sc_hd__o21ba_1
*I *2004:B1 I *D sky130_fd_sc_hd__o32a_1
*I *2039:A I *D sky130_fd_sc_hd__nor2_1
*I *2001:X O *D sky130_fd_sc_hd__and2_1
*CAP
1 *2065:B1 0.000238303
2 *2055:B1_N 0.000113169
3 *2004:B1 0.000160163
4 *2039:A 0.000147573
5 *2001:X 0
6 *392:44 0.000381084
7 *392:12 0.000494686
8 *392:4 0.000216562
9 *2004:B1 *2043:B1 4.77719e-05
10 *2004:B1 *2249:A2 0.000295959
11 *2004:B1 *434:22 5.83121e-06
12 *2004:B1 *819:22 0.000316444
13 *2004:B1 *830:8 5.63183e-05
14 *2039:A *2249:A2 0.000429592
15 *2039:A *431:14 5.92147e-05
16 *2039:A *819:22 0.000303318
17 *2039:A *819:26 0.000136377
18 *2055:B1_N *2013:B 4.82863e-05
19 *2055:B1_N *2018:A1_N 7.56823e-05
20 *2055:B1_N *2055:A2 4.77757e-05
21 *2055:B1_N *398:8 0
22 *2055:B1_N *457:24 4.00541e-06
23 *2055:B1_N *833:30 0.000229645
24 *2065:B1 *2065:C1 9.53428e-06
25 *2065:B1 *2066:A3 2.51225e-05
26 *2065:B1 *2066:B1 0.000134732
27 *2065:B1 *407:10 9.27495e-05
28 *2065:B1 *833:30 0.000196376
29 *392:12 *2066:A3 0.00016063
30 *392:12 *833:73 0.00018471
31 *2004:B2 *2004:B1 1.34594e-05
32 *2008:A *392:12 9.35812e-05
33 *2066:A2 *2065:B1 9.80032e-06
34 *2250:B2 *2039:A 5.75434e-05
35 *352:14 *2055:B1_N 0.000117825
36 *352:14 *392:12 3.18737e-05
37 *352:14 *392:44 8.49485e-05
38 *379:14 *2004:B1 1.62834e-05
39 *379:14 *2055:B1_N 0.000114492
40 *379:14 *392:44 9.27921e-05
*RES
1 *2001:X *392:4 1.6 
2 *392:4 *392:12 6.2575 
3 *392:12 *2039:A 5.52143 
4 *392:12 *2004:B1 5.79663 
5 *392:4 *392:44 3.125 
6 *392:44 *2055:B1_N 7.515 
7 *392:44 *2065:B1 8.55 
*END

*D_NET *393 0.00102835
*CONN
*I *2021:B I *D sky130_fd_sc_hd__nor2_1
*I *2004:A3 I *D sky130_fd_sc_hd__o32a_1
*I *2002:X O *D sky130_fd_sc_hd__xor2_1
*CAP
1 *2021:B 0
2 *2004:A3 7.20609e-05
3 *2002:X 0.00011757
4 *393:10 0.000189631
5 *2004:A3 *2004:A1 1.1071e-05
6 *2004:A3 *2043:B1 8.65612e-05
7 *2004:A3 *831:12 1.97442e-05
8 *393:10 *2002:A 8.57024e-05
9 *393:10 *831:12 7.64469e-05
10 *393:10 *836:41 9.80032e-06
11 *1988:B *393:10 1.08758e-05
12 *379:8 *393:10 4.82863e-05
13 *379:14 *2004:A3 0.000149459
14 *379:14 *393:10 0.000130821
15 *379:40 *393:10 2.03245e-05
*RES
1 *2002:X *393:10 6.63 
2 *393:10 *2004:A3 5.49 
3 *393:10 *2021:B 3.6 
*END

*D_NET *394 0.00195867
*CONN
*I *2020:A2 I *D sky130_fd_sc_hd__a21o_1
*I *2022:A2 I *D sky130_fd_sc_hd__a21o_1
*I *2003:Y O *D sky130_fd_sc_hd__xnor2_1
*CAP
1 *2020:A2 9.26448e-05
2 *2022:A2 0.00021514
3 *2003:Y 0
4 *394:6 0.000307785
5 *2020:A2 *2003:B 0.000299524
6 *2020:A2 *835:39 0.000309028
7 *2022:A2 *2003:B 5.16418e-05
8 *2022:A2 *2023:A1 4.82919e-05
9 *2022:A2 *2023:A2 4.00541e-06
10 *2022:A2 *2326:B1 3.57349e-05
11 *2022:A2 *2327:A3 3.79854e-05
12 *2022:A2 *413:27 7.60965e-05
13 *2022:A2 *414:12 8.49205e-05
14 *2022:A2 *826:38 9.14049e-05
15 *2022:A2 *832:54 6.17895e-06
16 *2022:A2 *835:39 6.38291e-05
17 *2022:A2 *835:45 0.000112123
18 *2023:B1 *2022:A2 0.000122337
*RES
1 *2003:Y *394:6 3.6 
2 *394:6 *2022:A2 9.315 
3 *394:6 *2020:A2 7.275 
*END

*D_NET *395 0.00774187
*CONN
*I *2139:A2 I *D sky130_fd_sc_hd__o22a_1
*I *2134:B1 I *D sky130_fd_sc_hd__a32o_1
*I *2005:B I *D sky130_fd_sc_hd__nor2_1
*I *2006:B I *D sky130_fd_sc_hd__and2_1
*I *2004:X O *D sky130_fd_sc_hd__o32a_1
*CAP
1 *2139:A2 0
2 *2134:B1 7.90736e-05
3 *2005:B 5.81796e-05
4 *2006:B 0.000811943
5 *2004:X 0.000179975
6 *395:32 0.00187468
7 *395:12 0.00171319
8 *395:6 0.000809533
9 *2005:B *2030:A_N 1.59482e-05
10 *2005:B *2047:C_N 3.59921e-05
11 *2005:B *2337:B 4.35931e-05
12 *2005:B *396:23 0.000113776
13 *2006:B *2047:B 9.35189e-05
14 *2006:B *432:14 0
15 *2006:B *824:119 1.22505e-05
16 *2134:B1 *2580:A 0.000102779
17 *395:6 *2141:A2 3.81908e-06
18 *395:6 *434:22 1.83847e-05
19 *395:6 *434:37 3.83895e-05
20 *395:12 *913:DIODE 8.52845e-05
21 *395:12 *2141:A2 3.52139e-06
22 *395:12 *2249:B1 5.21607e-05
23 *395:12 *2249:B2 4.21579e-05
24 *395:12 *434:37 4.05674e-06
25 *395:32 *2027:A 0.000262687
26 *395:32 *2029:B1 7.51823e-05
27 *395:32 *2029:C1 5.80811e-05
28 *395:32 *2250:A1 8.08153e-06
29 *395:32 *2333:A_N 8.97228e-05
30 *395:32 *2333:B 0.000283198
31 *395:32 *2589:A 0.000216878
32 *395:32 *397:27 1.89685e-05
33 *395:32 *404:33 0.000122996
34 *395:32 *406:8 8.76033e-05
35 *395:32 *717:98 9.6971e-05
36 *395:32 *839:72 1.79486e-05
37 *2015:A *395:32 3.20618e-05
38 *2134:B2 *395:12 6.9221e-05
39 *2139:A1 *395:12 9.24211e-05
40 *2334:A1 *395:32 1.7635e-05
41 *115:51 *395:12 0
42 *115:51 *395:32 0
*RES
1 *2004:X *395:6 3.775 
2 *395:6 *395:12 10.205 
3 *395:12 *395:32 18.525 
4 *395:32 *2006:B 7.90047 
5 *395:32 *2005:B 5.445 
6 *395:12 *2134:B1 4.9125 
7 *395:6 *2139:A2 1.6 
*END

*D_NET *396 0.00116931
*CONN
*I *2336:A I *D sky130_fd_sc_hd__or2_1
*I *2047:A I *D sky130_fd_sc_hd__or3b_1
*I *2030:A_N I *D sky130_fd_sc_hd__and2b_1
*I *2005:Y O *D sky130_fd_sc_hd__nor2_1
*CAP
1 *2336:A 7.79726e-05
2 *2047:A 0
3 *2030:A_N 9.06041e-05
4 *2005:Y 0
5 *396:23 0.000241451
6 *396:4 0.000254083
7 *2030:A_N *2030:B 4.77719e-05
8 *2030:A_N *2047:C_N 3.03925e-05
9 *2336:A *2337:B 0.000195861
10 *2336:A *438:12 4.65607e-05
11 *396:23 *2337:B 7.11235e-06
12 *2005:A *2030:A_N 4.77719e-05
13 *2005:B *2030:A_N 1.59482e-05
14 *2005:B *396:23 0.000113776
*RES
1 *2005:Y *396:4 1.6 
2 *396:4 *2030:A_N 3.46 
3 *396:4 *396:23 2.91 
4 *396:23 *2047:A 1.6 
5 *396:23 *2336:A 3.79 
*END

*D_NET *397 0.0022355
*CONN
*I *2340:A1 I *D sky130_fd_sc_hd__o21ai_2
*I *2029:B1 I *D sky130_fd_sc_hd__a211o_1
*I *2336:B I *D sky130_fd_sc_hd__or2_1
*I *2341:A I *D sky130_fd_sc_hd__or3_1
*I *2006:X O *D sky130_fd_sc_hd__and2_1
*CAP
1 *2340:A1 0
2 *2029:B1 0.000220562
3 *2336:B 0
4 *2341:A 0
5 *2006:X 1.64228e-05
6 *397:27 0.000379092
7 *397:14 0.000263121
8 *397:6 0.000121014
9 *2029:B1 *2029:C1 3.11409e-05
10 *2029:B1 *432:12 7.55313e-05
11 *2029:B1 *839:72 0.000122701
12 *397:6 *421:12 4.89295e-05
13 *397:6 *824:106 5.83121e-06
14 *397:14 *2340:A2 9.74931e-06
15 *397:14 *2341:B 9.81319e-05
16 *397:14 *2342:A3 0.000194666
17 *397:14 *421:12 4.40028e-05
18 *397:14 *436:19 0.000122801
19 *397:27 *2046:D_N 7.54285e-05
20 *397:27 *2047:B 0.000156105
21 *397:27 *2340:A2 0
22 *397:27 *2341:B 6.69608e-06
23 *397:27 *2341:C 4.87465e-06
24 *397:27 *432:12 7.26629e-05
25 *397:27 *432:14 2.7881e-05
26 *397:27 *436:19 4.40028e-05
27 *395:32 *2029:B1 7.51823e-05
28 *395:32 *397:27 1.89685e-05
*RES
1 *2006:X *397:6 2.05 
2 *397:6 *397:14 4.035 
3 *397:14 *2341:A 1.6 
4 *397:14 *397:27 6.335 
5 *397:27 *2336:B 3.6 
6 *397:27 *2029:B1 7.875 
7 *397:6 *2340:A1 1.6 
*END

*D_NET *398 0.00181286
*CONN
*I *2018:A1_N I *D sky130_fd_sc_hd__a2bb2o_1
*I *2055:A1 I *D sky130_fd_sc_hd__o21ba_1
*I *2013:B I *D sky130_fd_sc_hd__or3b_1
*I *2007:X O *D sky130_fd_sc_hd__and2b_1
*CAP
1 *2018:A1_N 9.28219e-05
2 *2055:A1 0
3 *2013:B 0.000100526
4 *2007:X 6.06449e-06
5 *398:8 0.000120177
6 *398:6 0.000118537
7 *2013:B *403:48 0.000140912
8 *2013:B *409:10 0.000132763
9 *2013:B *833:30 5.88334e-05
10 *2013:B *833:32 0.000139238
11 *2018:A1_N *2018:A2_N 0.000162311
12 *2018:A1_N *2055:A2 4.77719e-05
13 *2018:A1_N *409:10 0.00037209
14 *2018:A1_N *409:38 8.65961e-05
15 *2018:A1_N *457:24 4.53904e-05
16 *2018:A1_N *833:30 9.47972e-06
17 *398:6 *409:10 4.99619e-05
18 *398:8 *409:10 5.4155e-06
19 *2055:B1_N *2013:B 4.82863e-05
20 *2055:B1_N *2018:A1_N 7.56823e-05
21 *2055:B1_N *398:8 0
*RES
1 *2007:X *398:6 2.05 
2 *398:6 *398:8 0.36 
3 *398:8 *2013:B 9.065 
4 *398:8 *2055:A1 1.6 
5 *398:6 *2018:A1_N 5.845 
*END

*D_NET *399 0.00105185
*CONN
*I *2043:B1 I *D sky130_fd_sc_hd__a221o_2
*I *2008:Y O *D sky130_fd_sc_hd__nand2_1
*CAP
1 *2043:B1 0.00016875
2 *2008:Y 0.00016875
3 *2043:B1 *2004:A1 2.8531e-05
4 *2043:B1 *434:22 1.19928e-05
5 *2043:B1 *831:12 6.72196e-05
6 *2043:B1 *831:25 0.000373573
7 *2004:A3 *2043:B1 8.65612e-05
8 *2004:B1 *2043:B1 4.77719e-05
9 *2004:B2 *2043:B1 4.20638e-05
10 *2043:A2 *2043:B1 5.66352e-05
*RES
1 *2008:Y *2043:B1 11.88 
*END

*D_NET *400 0.00116421
*CONN
*I *2061:A2 I *D sky130_fd_sc_hd__o21a_1
*I *2009:Y O *D sky130_fd_sc_hd__nor2_1
*CAP
1 *2061:A2 0.000313545
2 *2009:Y 0.000313545
3 *2061:A2 *401:12 9.54399e-05
4 *2061:A2 *401:25 4.85494e-05
5 *2061:A2 *403:48 0
6 *2061:A2 *452:24 6.57653e-06
7 *2061:A2 *452:60 0.00015896
8 *2061:A2 *835:78 0.000113797
9 *2056:C1 *2061:A2 0.000113797
10 *379:14 *2061:A2 0
*RES
1 *2009:Y *2061:A2 12.63 
*END

*D_NET *401 0.00279221
*CONN
*I *2034:A2 I *D sky130_fd_sc_hd__a21o_1
*I *2056:A2 I *D sky130_fd_sc_hd__a211o_1
*I *2012:C_N I *D sky130_fd_sc_hd__or3b_2
*I *2011:B I *D sky130_fd_sc_hd__nand2_1
*I *2010:X O *D sky130_fd_sc_hd__xor2_1
*CAP
1 *2034:A2 0
2 *2056:A2 4.96946e-05
3 *2012:C_N 0
4 *2011:B 0
5 *2010:X 9.80849e-05
6 *401:33 0.000204307
7 *401:25 0.000317143
8 *401:12 0.000260616
9 *2056:A2 *2056:A1 0
10 *2056:A2 *2135:B2 0.000108215
11 *2056:A2 *835:55 6.4869e-05
12 *401:12 *1979:A 4.82863e-05
13 *401:12 *2042:B1 3.09164e-05
14 *401:12 *403:18 4.19797e-05
15 *401:12 *403:48 1.0183e-05
16 *401:12 *452:24 0
17 *401:25 *2061:B1 9.53428e-06
18 *401:25 *403:12 6.38722e-05
19 *401:25 *403:18 0.000223195
20 *401:25 *452:60 0.000402771
21 *401:33 *2034:A1 0.000136877
22 *401:33 *2135:B2 0.000131435
23 *401:33 *409:38 6.86819e-05
24 *401:33 *835:45 5.83121e-06
25 *401:33 *835:47 2.49909e-05
26 *401:33 *835:55 0.000151303
27 *2061:A1 *401:25 0.000122337
28 *2061:A2 *401:12 9.54399e-05
29 *2061:A2 *401:25 4.85494e-05
30 *371:16 *401:25 7.3093e-05
31 *379:14 *401:12 0
*RES
1 *2010:X *401:12 7.94 
2 *401:12 *2011:B 1.6 
3 *401:12 *401:25 6.105 
4 *401:25 *401:33 8.32 
5 *401:33 *2012:C_N 1.6 
6 *401:33 *2056:A2 3.1 
7 *401:25 *2034:A2 1.6 
*END

*D_NET *402 0.000667585
*CONN
*I *2042:B1 I *D sky130_fd_sc_hd__o211a_1
*I *2040:B1 I *D sky130_fd_sc_hd__o21ai_1
*I *2011:Y O *D sky130_fd_sc_hd__nand2_1
*CAP
1 *2042:B1 0.000116954
2 *2040:B1 6.01306e-05
3 *2011:Y 0
4 *402:4 0.000177085
5 *2040:B1 *2011:A 8.40269e-05
6 *2040:B1 *403:18 2.05056e-05
7 *2042:B1 *2042:A1 4.53623e-05
8 *2042:B1 *403:18 2.59981e-05
9 *2042:B1 *416:18 3.67779e-05
10 *2042:B1 *826:120 3.00381e-05
11 *2042:B1 *840:93 1.22762e-05
12 *2042:C1 *2042:B1 2.75145e-05
13 *379:14 *2042:B1 0
14 *401:12 *2042:B1 3.09164e-05
*RES
1 *2011:Y *402:4 1.6 
2 *402:4 *2040:B1 2.74 
3 *402:4 *2042:B1 8.195 
*END

*D_NET *403 0.00629495
*CONN
*I *2061:B1 I *D sky130_fd_sc_hd__o21a_1
*I *2137:A1 I *D sky130_fd_sc_hd__a21o_1
*I *2134:A2 I *D sky130_fd_sc_hd__a32o_1
*I *2014:A I *D sky130_fd_sc_hd__and2_1
*I *2015:B I *D sky130_fd_sc_hd__and3_1
*I *2012:X O *D sky130_fd_sc_hd__or3b_2
*CAP
1 *2061:B1 1.85694e-05
2 *2137:A1 0
3 *2134:A2 0.000467171
4 *2014:A 5.60895e-05
5 *2015:B 1.67197e-05
6 *2012:X 0.000270283
7 *403:48 0.000762726
8 *403:26 0.000546575
9 *403:18 0.000970886
10 *403:12 0.000490418
11 *2014:A *1979:A 0
12 *2014:A *2014:B 0.000121027
13 *2014:A *2027:A 8.35068e-05
14 *2134:A2 *2138:A2 1.91597e-05
15 *2134:A2 *2138:A3 2.8185e-05
16 *2134:A2 *2138:B1 0.000229541
17 *2134:A2 *2580:A 3.64998e-06
18 *2134:A2 *404:23 4.98632e-05
19 *403:12 *2034:A1 4.92096e-05
20 *403:12 *2057:B1 8.53113e-06
21 *403:12 *409:38 0
22 *403:12 *422:10 5.53591e-05
23 *403:12 *425:16 4.61196e-05
24 *403:12 *425:50 7.96104e-06
25 *403:18 *2011:A 4.82919e-05
26 *403:18 *2042:A1 2.92496e-05
27 *403:18 *2042:A2 2.66939e-05
28 *403:18 *416:18 0.000160635
29 *403:18 *430:16 2.66935e-05
30 *403:26 *1979:A 0.000385327
31 *403:26 *2014:B 1.64523e-05
32 *403:26 *2135:B2 3.22901e-05
33 *403:26 *404:33 1.69463e-06
34 *403:48 *2010:B 0.000161007
35 *403:48 *2066:A3 2.19562e-06
36 *403:48 *404:12 0.0002459
37 *403:48 *404:23 1.1392e-05
38 *403:48 *430:16 1.23331e-05
39 *403:48 *830:48 1.7635e-05
40 *403:48 *832:104 3.86447e-05
41 *403:48 *833:32 5.11827e-05
42 *403:48 *833:67 3.31204e-05
43 *403:48 *833:73 3.64998e-06
44 *403:48 *835:78 3.81494e-05
45 *2012:A *403:12 2.97561e-05
46 *2013:B *403:48 0.000140912
47 *2040:B1 *403:18 2.05056e-05
48 *2042:B1 *403:18 2.59981e-05
49 *2061:A1 *403:12 8.49205e-05
50 *2061:A2 *403:48 0
51 *371:16 *2061:B1 0
52 *401:12 *403:18 4.19797e-05
53 *401:12 *403:48 1.0183e-05
54 *401:25 *2061:B1 9.53428e-06
55 *401:25 *403:12 6.38722e-05
56 *401:25 *403:18 0.000223195
*RES
1 *2012:X *403:12 10.595 
2 *403:12 *403:18 7.1 
3 *403:18 *403:26 8.435 
4 *403:26 *2015:B 1.96 
5 *403:26 *2014:A 3.1 
6 *403:18 *403:48 9.02 
7 *403:48 *2134:A2 7.24 
8 *403:48 *2137:A1 1.6 
9 *403:12 *2061:B1 1.96 
*END

*D_NET *404 0.00385964
*CONN
*I *2134:A3 I *D sky130_fd_sc_hd__a32o_1
*I *2014:B I *D sky130_fd_sc_hd__and2_1
*I *2015:C I *D sky130_fd_sc_hd__and3_1
*I *2137:A2 I *D sky130_fd_sc_hd__a21o_1
*I *2013:X O *D sky130_fd_sc_hd__or3b_1
*CAP
1 *2134:A3 0
2 *2014:B 0.000113322
3 *2015:C 6.07376e-06
4 *2137:A2 0
5 *2013:X 0.000177825
6 *404:33 0.000320995
7 *404:23 0.000518514
8 *404:12 0.000494741
9 *2014:B *1979:A 0
10 *2014:B *2027:A 4.40028e-05
11 *404:12 *2135:B1 6.83659e-05
12 *404:12 *832:100 0.000139245
13 *404:12 *832:104 0.000160658
14 *404:12 *833:67 1.94723e-05
15 *404:23 *2001:A 5.4155e-06
16 *404:23 *2001:B 0
17 *404:23 *2066:A3 8.21861e-05
18 *404:23 *2138:A2 8.43862e-05
19 *404:23 *2138:A3 0.000196376
20 *404:23 *2138:B1 0
21 *404:23 *2580:A 0
22 *404:23 *430:12 0.000198939
23 *404:33 *2135:B2 0.000120186
24 *404:33 *2138:A2 0.000136877
25 *404:33 *2250:A1 6.75059e-05
26 *404:33 *717:98 0.000307354
27 *2014:A *2014:B 0.000121027
28 *2134:A2 *404:23 4.98632e-05
29 *115:79 *404:33 2.78732e-05
30 *395:32 *404:33 0.000122996
31 *403:26 *2014:B 1.64523e-05
32 *403:26 *404:33 1.69463e-06
33 *403:48 *404:12 0.0002459
34 *403:48 *404:23 1.1392e-05
*RES
1 *2013:X *404:12 10.16 
2 *404:12 *2137:A2 1.6 
3 *404:12 *404:23 6.51 
4 *404:23 *404:33 10.1012 
5 *404:33 *2015:C 1.82875 
6 *404:33 *2014:B 3.95875 
7 *404:23 *2134:A3 1.6 
*END

*D_NET *405 0.000379195
*CONN
*I *2026:B I *D sky130_fd_sc_hd__xor2_1
*I *2014:X O *D sky130_fd_sc_hd__and2_1
*CAP
1 *2026:B 0.000103951
2 *2014:X 0.000103951
3 *2026:B *2027:A 4.66108e-05
4 *2026:B *2027:B 7.06865e-05
5 *2026:B *2029:A2 5.39961e-05
*RES
1 *2014:X *2026:B 9.03 
*END

*D_NET *406 0.00193694
*CONN
*I *2028:A I *D sky130_fd_sc_hd__or2_1
*I *2029:C1 I *D sky130_fd_sc_hd__a211o_1
*I *2015:X O *D sky130_fd_sc_hd__and3_1
*CAP
1 *2028:A 5.85616e-05
2 *2029:C1 0.000323873
3 *2015:X 2.7331e-05
4 *406:8 0.000409766
5 *2028:A *2332:B 4.11518e-05
6 *2028:A *2333:B 1.08758e-05
7 *2029:C1 *2041:B 0
8 *2029:C1 *2250:A1 0.000257753
9 *2029:C1 *2333:A_N 4.77757e-05
10 *2029:C1 *2333:B 0.000281525
11 *2029:C1 *2334:C1 3.42142e-05
12 *2029:C1 *2337:A 3.50152e-06
13 *2029:C1 *434:45 0
14 *2029:C1 *839:62 4.99619e-05
15 *2029:C1 *839:72 0.000159851
16 *406:8 *2250:A1 5.39718e-05
17 *2029:B1 *2029:C1 3.11409e-05
18 *395:32 *2029:C1 5.80811e-05
19 *395:32 *406:8 8.76033e-05
*RES
1 *2015:X *406:8 4.725 
2 *406:8 *2029:C1 11.13 
3 *406:8 *2028:A 4.77 
*END

*D_NET *407 0.00573155
*CONN
*I *2065:C1 I *D sky130_fd_sc_hd__a211o_1
*I *2039:B I *D sky130_fd_sc_hd__nor2_1
*I *2052:B2 I *D sky130_fd_sc_hd__o32a_2
*I *2055:A2 I *D sky130_fd_sc_hd__o21ba_1
*I *2018:A2_N I *D sky130_fd_sc_hd__a2bb2o_1
*I *2016:X O *D sky130_fd_sc_hd__and2b_1
*CAP
1 *2065:C1 1.92145e-05
2 *2039:B 0.000767622
3 *2052:B2 0
4 *2055:A2 0.000339218
5 *2018:A2_N 8.42441e-05
6 *2016:X 2.18218e-05
7 *407:42 0.000915844
8 *407:12 0.000480618
9 *407:10 0.000249281
10 *407:6 8.49396e-05
11 *2018:A2_N *409:38 2.30292e-05
12 *2018:A2_N *422:10 9.29751e-06
13 *2018:A2_N *457:24 0.000131008
14 *2018:A2_N *833:30 1.7635e-05
15 *2039:B *2031:B1 0.000121504
16 *2039:B *2140:B1 6.61062e-05
17 *2039:B *2144:B1 5.01597e-05
18 *2039:B *2250:C1 6.44676e-05
19 *2039:B *425:50 0.000101732
20 *2039:B *431:14 4.70714e-05
21 *2039:B *434:45 1.88602e-05
22 *2039:B *452:24 1.72799e-05
23 *2039:B *819:22 8.28127e-05
24 *2039:B *819:26 1.71025e-05
25 *2039:B *836:62 0.000246682
26 *2039:B *846:18 6.06593e-05
27 *2055:A2 *830:14 2.5474e-05
28 *2055:A2 *830:48 0
29 *407:6 *833:30 4.85494e-05
30 *407:10 *833:30 1.61831e-05
31 *407:12 *422:10 2.39522e-05
32 *407:12 *833:30 5.07138e-05
33 *407:42 *2031:B1 3.09233e-05
34 *407:42 *422:10 6.08534e-05
35 *2018:A1_N *2018:A2_N 0.000162311
36 *2018:A1_N *2055:A2 4.77719e-05
37 *2043:A1 *2039:B 0.000112001
38 *2043:A1 *407:42 0.000151386
39 *2055:B1_N *2055:A2 4.77757e-05
40 *2065:A1 *2018:A2_N 2.89259e-05
41 *2065:A1 *407:12 4.68417e-05
42 *2065:A2 *407:6 7.00889e-06
43 *2065:A2 *407:10 6.90876e-05
44 *2065:A2 *407:12 2.99445e-05
45 *2065:A2 *407:42 4.92971e-05
46 *2065:B1 *2065:C1 9.53428e-06
47 *2065:B1 *407:10 9.27495e-05
48 *2066:A2 *407:10 8.40269e-05
49 *2066:A2 *407:42 4.5783e-05
50 *2250:B2 *2039:B 0.000151063
51 *1:15 *2055:A2 9.50307e-05
52 *375:12 *407:42 7.67375e-05
53 *378:10 *407:6 6.90876e-05
54 *379:14 *2055:A2 6.03272e-05
*RES
1 *2016:X *407:6 2.74 
2 *407:6 *407:10 3.83 
3 *407:10 *407:12 1.5075 
4 *407:12 *2018:A2_N 6.1725 
5 *407:12 *2055:A2 6.23837 
6 *407:10 *407:42 3.93 
7 *407:42 *2052:B2 3.6 
8 *407:42 *2039:B 10.7199 
9 *407:6 *2065:C1 1.96 
*END

*D_NET *408 0.00272238
*CONN
*I *2018:B1 I *D sky130_fd_sc_hd__a2bb2o_1
*I *2031:B1 I *D sky130_fd_sc_hd__o22a_2
*I *2052:B1 I *D sky130_fd_sc_hd__o32a_2
*I *2017:Y O *D sky130_fd_sc_hd__nand2b_1
*CAP
1 *2018:B1 0.000255417
2 *2031:B1 0.000121923
3 *2052:B1 5.56818e-05
4 *2017:Y 0
5 *408:6 0.000245848
6 *408:4 0.000323659
7 *2018:B1 *819:18 4.31508e-05
8 *2018:B1 *819:143 1.12129e-05
9 *2018:B1 *831:53 4.82863e-05
10 *2018:B1 *847:33 3.66286e-05
11 *2052:B1 *412:18 7.42009e-05
12 *2052:B1 *847:33 0.000120923
13 *408:6 *2043:C1 3.24882e-05
14 *408:6 *412:18 5.83121e-06
15 *408:6 *831:53 0.000193801
16 *408:6 *847:33 0.000255288
17 *1988:B *2018:B1 0
18 *2022:B1 *2018:B1 0.000264449
19 *2031:B2 *2031:B1 4.66108e-05
20 *2039:B *2031:B1 0.000121504
21 *2043:A1 *2031:B1 2.53366e-05
22 *2065:A1 *2018:B1 0
23 *2065:A2 *2018:B1 0
24 *2066:A2 *2018:B1 0
25 *375:10 *2031:B1 0.000186186
26 *375:12 *2031:B1 3.09233e-05
27 *376:10 *2018:B1 0.000192102
28 *407:42 *2031:B1 3.09233e-05
*RES
1 *2017:Y *408:4 1.6 
2 *408:4 *408:6 2.52 
3 *408:6 *2052:B1 3.1 
4 *408:6 *2031:B1 8.705 
5 *408:4 *2018:B1 11.51 
*END

*D_NET *409 0.00578223
*CONN
*I *2019:B I *D sky130_fd_sc_hd__and2_1
*I *2024:B I *D sky130_fd_sc_hd__xor2_1
*I *2135:A2 I *D sky130_fd_sc_hd__a221o_1
*I *2136:B I *D sky130_fd_sc_hd__or2_1
*I *2018:X O *D sky130_fd_sc_hd__a2bb2o_1
*CAP
1 *2019:B 0
2 *2024:B 0.000123052
3 *2135:A2 5.36899e-05
4 *2136:B 0.0003736
5 *2018:X 0
6 *409:38 0.000685476
7 *409:10 0.000999699
8 *409:4 0.00113483
9 *2024:B *425:16 0
10 *2024:B *452:60 0
11 *2024:B *839:52 8.65961e-05
12 *2024:B *839:108 3.09164e-05
13 *2135:A2 *2135:B1 1.37395e-05
14 *2135:A2 *2250:A1 0.000183043
15 *2135:A2 *431:14 0.000181376
16 *2136:B *2138:A2 0.000265759
17 *2136:B *2589:A 0.000303684
18 *409:10 *2007:A_N 4.41506e-05
19 *409:10 *2057:A2 4.82919e-05
20 *409:10 *2589:A 8.23457e-05
21 *409:38 *425:16 0
22 *409:38 *448:24 1.32824e-05
23 *409:38 *452:60 0
24 *409:38 *457:24 2.36616e-05
25 *2012:A *409:38 0
26 *2013:B *409:10 0.000132763
27 *2018:A1_N *409:10 0.00037209
28 *2018:A1_N *409:38 8.65961e-05
29 *2018:A2_N *409:38 2.30292e-05
30 *2019:A *2024:B 1.00941e-05
31 *2022:A1 *409:38 7.48667e-05
32 *2022:B1 *409:38 6.08611e-05
33 *2065:A1 *409:38 0
34 *2137:B1 *409:10 8.72789e-05
35 *2250:B2 *2135:A2 1.2818e-05
36 *108:38 *2136:B 0
37 *115:20 *2136:B 0
38 *238:16 *2024:B 0.000150578
39 *371:16 *409:38 0
40 *398:6 *409:10 4.99619e-05
41 *398:8 *409:10 5.4155e-06
42 *401:33 *409:38 6.86819e-05
43 *403:12 *409:38 0
*RES
1 *2018:X *409:4 1.6 
2 *409:4 *409:10 10.23 
3 *409:10 *2136:B 8.965 
4 *409:10 *2135:A2 7.86875 
5 *409:4 *409:38 11.585 
6 *409:38 *2024:B 6.54 
7 *409:38 *2019:B 3.6 
*END

*D_NET *410 0.00020652
*CONN
*I *2025:B1 I *D sky130_fd_sc_hd__a21o_1
*I *2019:X O *D sky130_fd_sc_hd__and2_1
*CAP
1 *2025:B1 2.08751e-05
2 *2019:X 2.08751e-05
3 *2025:B1 *826:120 5.34747e-05
4 *2025:B1 *840:93 0.000111295
*RES
1 *2019:X *2025:B1 4.34 
*END

*D_NET *411 0.00610963
*CONN
*I *2023:A1 I *D sky130_fd_sc_hd__a21o_1
*I *2135:B1 I *D sky130_fd_sc_hd__a221o_1
*I *2327:A2 I *D sky130_fd_sc_hd__a31o_1
*I *2020:X O *D sky130_fd_sc_hd__a21o_1
*CAP
1 *2023:A1 0.000109656
2 *2135:B1 0.00110825
3 *2327:A2 0.000129409
4 *2020:X 0.00016243
5 *411:25 0.00142687
6 *411:12 0.000500804
7 *2023:A1 *414:12 8.53113e-06
8 *2023:A1 *717:81 2.92496e-05
9 *2023:A1 *826:38 2.37321e-05
10 *2023:A1 *832:54 3.64972e-05
11 *2135:B1 *1959:A 4.82863e-05
12 *2135:B1 *2009:B 4.66108e-05
13 *2135:B1 *717:81 0.000977771
14 *2135:B1 *717:83 3.23663e-05
15 *2135:B1 *830:50 0.000118081
16 *2327:A2 *2327:A1 9.50342e-06
17 *2327:A2 *457:70 9.70668e-05
18 *2327:A2 *835:39 5.02217e-05
19 *2327:A2 *835:45 7.81221e-05
20 *411:12 *1978:A_N 2.49909e-05
21 *411:12 *457:70 0.00024283
22 *411:12 *835:39 6.15258e-05
23 *411:25 *448:24 0.000140954
24 *411:25 *717:81 3.57349e-05
25 *1981:B *411:12 7.06865e-05
26 *2022:A2 *2023:A1 4.82919e-05
27 *2023:B1 *2327:A2 1.70935e-05
28 *2135:A1 *2135:B1 0
29 *2135:A2 *2135:B1 1.37395e-05
30 *2250:B2 *2135:B1 5.56285e-05
31 *115:79 *2135:B1 2.75145e-05
32 *350:6 *2135:B1 9.92326e-05
33 *352:8 *2135:B1 7.84086e-06
34 *352:14 *2135:B1 1.65562e-05
35 *371:16 *2023:A1 9.37731e-05
36 *371:34 *2023:A1 9.14049e-05
37 *404:12 *2135:B1 6.83659e-05
*RES
1 *2020:X *411:12 7.41 
2 *411:12 *2327:A2 6.51 
3 *411:12 *411:25 4.52 
4 *411:25 *2135:B1 18.88 
5 *411:25 *2023:A1 8.195 
*END

*D_NET *412 0.00189755
*CONN
*I *2043:C1 I *D sky130_fd_sc_hd__a221o_2
*I *2052:A3 I *D sky130_fd_sc_hd__o32a_2
*I *2021:Y O *D sky130_fd_sc_hd__nor2_1
*CAP
1 *2043:C1 0.000125664
2 *2052:A3 0
3 *2021:Y 0.000246934
4 *412:18 0.000372598
5 *2043:C1 *831:42 0.000116397
6 *2043:C1 *831:53 4.66108e-05
7 *2043:C1 *832:94 0.000120655
8 *412:18 *2021:A 0
9 *412:18 *830:8 7.11219e-05
10 *412:18 *832:94 0.00027884
11 *412:18 *832:100 8.23457e-05
12 *412:18 *847:33 5.61539e-05
13 *1988:B *2043:C1 0.000173328
14 *2004:B2 *2043:C1 2.11084e-05
15 *2052:B1 *412:18 7.42009e-05
16 *2618:A *412:18 3.96467e-05
17 *375:10 *2043:C1 1.1561e-05
18 *375:12 *2043:C1 2.20632e-05
19 *408:6 *2043:C1 3.24882e-05
20 *408:6 *412:18 5.83121e-06
*RES
1 *2021:Y *412:18 10.595 
2 *412:18 *2052:A3 1.6 
3 *412:18 *2043:C1 9.335 
*END

*D_NET *413 0.00453292
*CONN
*I *2023:A2 I *D sky130_fd_sc_hd__a21o_1
*I *2327:A3 I *D sky130_fd_sc_hd__a31o_1
*I *2135:B2 I *D sky130_fd_sc_hd__a221o_1
*I *2022:X O *D sky130_fd_sc_hd__a21o_1
*CAP
1 *2023:A2 1.90984e-05
2 *2327:A3 0.000167601
3 *2135:B2 0.000956806
4 *2022:X 0
5 *413:27 0.000295728
6 *413:4 0.00106583
7 *2135:B2 *1979:A 1.33293e-05
8 *2135:B2 *2057:B1 8.58063e-05
9 *2135:B2 *2250:A1 6.36578e-05
10 *2135:B2 *717:83 1.33285e-05
11 *2135:B2 *835:45 3.27443e-05
12 *2135:B2 *835:55 7.68414e-06
13 *2135:B2 *835:57 2.86876e-05
14 *2327:A3 *2327:B1 8.49205e-05
15 *2327:A3 *2328:A2 0
16 *2327:A3 *2328:B1 0
17 *2327:A3 *835:45 0.00027042
18 *413:27 *835:45 0.000181719
19 *2022:A1 *413:27 1.61831e-05
20 *2022:A2 *2023:A2 4.00541e-06
21 *2022:A2 *2327:A3 3.79854e-05
22 *2022:A2 *413:27 7.60965e-05
23 *2022:B1 *413:27 4.99619e-05
24 *2023:B1 *2327:A3 0.000106078
25 *2056:A2 *2135:B2 0.000108215
26 *2056:B1 *2135:B2 0.000563114
27 *401:33 *2135:B2 0.000131435
28 *403:26 *2135:B2 3.22901e-05
29 *404:33 *2135:B2 0.000120186
*RES
1 *2022:X *413:4 1.6 
2 *413:4 *2135:B2 20.21 
3 *413:4 *413:27 3.48 
4 *413:27 *2327:A3 5.875 
5 *413:27 *2023:A2 1.96 
*END

*D_NET *414 0.00325611
*CONN
*I *2326:B1 I *D sky130_fd_sc_hd__o2bb2ai_1
*I *2025:A1 I *D sky130_fd_sc_hd__a21o_1
*I *2329:A I *D sky130_fd_sc_hd__xor2_1
*I *2023:X O *D sky130_fd_sc_hd__a21o_1
*CAP
1 *2326:B1 0.000597513
2 *2025:A1 7.11407e-05
3 *2329:A 0
4 *2023:X 0
5 *414:12 0.000298248
6 *414:4 0.000824621
7 *2025:A1 *2329:B 9.44548e-05
8 *2025:A1 *826:120 8.73389e-06
9 *2025:A1 *839:52 1.47347e-05
10 *2025:A1 *840:93 0.000123225
11 *2326:B1 *2328:A2 0.00012171
12 *2326:B1 *2328:B1 1.19928e-05
13 *2326:B1 *2328:B2 0.000312176
14 *414:12 *452:60 0
15 *414:12 *826:38 3.31204e-05
16 *414:12 *826:40 5.65627e-05
17 *414:12 *826:42 0.00013194
18 *414:12 *840:93 4.9968e-05
19 *2022:A2 *2326:B1 3.57349e-05
20 *2022:A2 *414:12 8.49205e-05
21 *2023:A1 *414:12 8.53113e-06
22 *2023:B1 *2326:B1 0.0001049
23 *2326:A2_N *2326:B1 0.00012657
24 *371:16 *414:12 0.00014531
*RES
1 *2023:X *414:4 1.6 
2 *414:4 *414:12 9.49 
3 *414:12 *2329:A 1.6 
4 *414:12 *2025:A1 3.445 
5 *414:4 *2326:B1 10.81 
*END

*D_NET *415 0.000682276
*CONN
*I *2329:B I *D sky130_fd_sc_hd__xor2_1
*I *2025:A2 I *D sky130_fd_sc_hd__a21o_1
*I *2024:X O *D sky130_fd_sc_hd__xor2_1
*CAP
1 *2329:B 4.60919e-05
2 *2025:A2 0
3 *2024:X 7.6524e-05
4 *415:12 0.000122616
5 *2329:B *826:120 1.19928e-05
6 *2329:B *839:52 2.49909e-05
7 *415:12 *452:60 0.000139238
8 *415:12 *839:52 0.000141371
9 *415:12 *840:93 2.4997e-05
10 *2025:A1 *2329:B 9.44548e-05
*RES
1 *2024:X *415:12 7.685 
2 *415:12 *2025:A2 1.6 
3 *415:12 *2329:B 2.755 
*END

*D_NET *416 0.00633797
*CONN
*I *2332:A I *D sky130_fd_sc_hd__or2_1
*I *2027:A I *D sky130_fd_sc_hd__and2_1
*I *2029:A1 I *D sky130_fd_sc_hd__a211o_1
*I *2025:X O *D sky130_fd_sc_hd__a21o_1
*CAP
1 *2332:A 0
2 *2027:A 0.000411976
3 *2029:A1 0.000300084
4 *2025:X 0.000919961
5 *416:26 0.000945388
6 *416:18 0.00115329
7 *2027:A *2027:B 7.18771e-05
8 *2027:A *2333:A_N 8.90199e-05
9 *2029:A1 *2030:B 4.99581e-05
10 *2029:A1 *2333:A_N 0
11 *2029:A1 *2335:B1 1.91597e-05
12 *2029:A1 *2337:A 1.08758e-05
13 *2029:A1 *419:10 0.000194408
14 *2029:A1 *839:72 0.000194045
15 *2029:A1 *840:99 7.68414e-06
16 *416:18 *2011:A 5.13114e-05
17 *416:18 *2333:B 8.65961e-05
18 *416:18 *431:6 5.41685e-05
19 *416:18 *431:14 1.34503e-05
20 *416:18 *826:120 1.17309e-05
21 *416:18 *830:70 8.57024e-05
22 *416:18 *840:93 0.000727506
23 *416:26 *2041:B 3.47837e-05
24 *416:26 *2250:A1 5.02217e-05
25 *416:26 *2334:A2 8.23457e-05
26 *416:26 *2334:B1 2.31329e-05
27 *416:26 *840:97 2.19562e-06
28 *2014:A *2027:A 8.35068e-05
29 *2014:B *2027:A 4.40028e-05
30 *2015:A *2027:A 0.000100881
31 *2026:B *2027:A 4.66108e-05
32 *2042:B1 *416:18 3.67779e-05
33 *2334:A1 *2029:A1 3.64998e-06
34 *2334:A1 *416:26 8.34281e-06
35 *395:32 *2027:A 0.000262687
36 *403:18 *416:18 0.000160635
*RES
1 *2025:X *416:18 19.22 
2 *416:18 *416:26 7.3 
3 *416:26 *2029:A1 10.79 
4 *416:26 *2027:A 13.58 
5 *416:18 *2332:A 1.6 
*END

*D_NET *417 0.00242615
*CONN
*I *2332:B I *D sky130_fd_sc_hd__or2_1
*I *2027:B I *D sky130_fd_sc_hd__and2_1
*I *2029:A2 I *D sky130_fd_sc_hd__a211o_1
*I *2026:X O *D sky130_fd_sc_hd__xor2_1
*CAP
1 *2332:B 0.000183121
2 *2027:B 0.000129894
3 *2029:A2 0.000162377
4 *2026:X 0
5 *417:8 0.000411346
6 *417:4 0.000302196
7 *2027:B *418:12 6.45236e-05
8 *2029:A2 *2030:B 5.33085e-05
9 *2029:A2 *2333:A_N 0
10 *2029:A2 *2335:A1 3.97053e-05
11 *2029:A2 *418:12 9.78012e-05
12 *2029:A2 *419:10 0.000255719
13 *2029:A2 *824:136 0.000139238
14 *2332:B *2333:B 8.23457e-05
15 *2332:B *418:12 2.5195e-05
16 *2332:B *419:10 0.000131409
17 *2015:A *2027:B 0
18 *2015:A *2029:A2 0
19 *2015:A *2332:B 4.77719e-05
20 *2015:A *417:8 5.88353e-05
21 *2026:B *2027:B 7.06865e-05
22 *2026:B *2029:A2 5.39961e-05
23 *2027:A *2027:B 7.18771e-05
24 *2028:A *2332:B 4.11518e-05
25 *239:30 *417:8 3.64998e-06
*RES
1 *2026:X *417:4 1.6 
2 *417:4 *417:8 3.485 
3 *417:8 *2029:A2 8.55 
4 *417:8 *2027:B 6.375 
5 *417:4 *2332:B 5.665 
*END

*D_NET *418 0.00168086
*CONN
*I *2028:B I *D sky130_fd_sc_hd__or2_1
*I *2333:A_N I *D sky130_fd_sc_hd__and3b_1
*I *2027:X O *D sky130_fd_sc_hd__and2_1
*CAP
1 *2028:B 0
2 *2333:A_N 0.000163738
3 *2027:X 0.000157664
4 *418:12 0.000321402
5 *2333:A_N *839:72 0.000175109
6 *418:12 *419:10 0.000195658
7 *2015:A *418:12 0.00018695
8 *2027:A *2333:A_N 8.90199e-05
9 *2027:B *418:12 6.45236e-05
10 *2029:A1 *2333:A_N 0
11 *2029:A2 *2333:A_N 0
12 *2029:A2 *418:12 9.78012e-05
13 *2029:C1 *2333:A_N 4.77757e-05
14 *2332:B *418:12 2.5195e-05
15 *2334:A1 *2333:A_N 1.96913e-05
16 *239:30 *418:12 4.66108e-05
17 *395:32 *2333:A_N 8.97228e-05
*RES
1 *2027:X *418:12 10.01 
2 *418:12 *2333:A_N 9.47 
3 *418:12 *2028:B 1.6 
*END

*D_NET *419 0.00376184
*CONN
*I *2337:A I *D sky130_fd_sc_hd__xnor2_1
*I *2030:B I *D sky130_fd_sc_hd__and2b_1
*I *2028:X O *D sky130_fd_sc_hd__or2_1
*CAP
1 *2337:A 0.000359085
2 *2030:B 0.000377345
3 *2028:X 0.000359879
4 *419:10 0.00109631
5 *2030:B *2047:C_N 2.92612e-05
6 *2030:B *824:136 9.31601e-05
7 *2337:A *2337:B 0.000196364
8 *2337:A *2338:B1 0.000133984
9 *2005:A *2030:B 1.53053e-05
10 *2029:A1 *2030:B 4.99581e-05
11 *2029:A1 *2337:A 1.08758e-05
12 *2029:A1 *419:10 0.000194408
13 *2029:A2 *2030:B 5.33085e-05
14 *2029:A2 *419:10 0.000255719
15 *2029:C1 *2337:A 3.50152e-06
16 *2030:A_N *2030:B 4.77719e-05
17 *2332:B *419:10 0.000131409
18 *2695:A *2337:A 0.000158536
19 *240:18 *2030:B 0
20 *418:12 *419:10 0.000195658
*RES
1 *2028:X *419:10 9.975 
2 *419:10 *2030:B 8.895 
3 *419:10 *2337:A 10.395 
*END

*D_NET *420 0.00058874
*CONN
*I *2047:C_N I *D sky130_fd_sc_hd__or3b_1
*I *2029:X O *D sky130_fd_sc_hd__a211o_1
*CAP
1 *2047:C_N 9.59602e-05
2 *2029:X 9.59602e-05
3 *2047:C_N *2337:B 0.000160125
4 *2047:C_N *824:136 9.16019e-05
5 *2005:A *2047:C_N 4.94474e-05
6 *2005:B *2047:C_N 3.59921e-05
7 *2030:A_N *2047:C_N 3.03925e-05
8 *2030:B *2047:C_N 2.92612e-05
*RES
1 *2029:X *2047:C_N 10.17 
*END

*D_NET *421 0.00106939
*CONN
*I *2341:B I *D sky130_fd_sc_hd__or3_1
*I *2340:A2 I *D sky130_fd_sc_hd__o21ai_2
*I *2030:X O *D sky130_fd_sc_hd__and2b_1
*CAP
1 *2341:B 0.000221483
2 *2340:A2 1.81298e-05
3 *2030:X 0.000132945
4 *421:12 0.000372557
5 *421:12 *824:106 1.41095e-05
6 *421:12 *824:119 7.21296e-06
7 *240:18 *2340:A2 0
8 *240:18 *2341:B 0
9 *240:18 *421:12 9.54469e-05
10 *397:6 *421:12 4.89295e-05
11 *397:14 *2340:A2 9.74931e-06
12 *397:14 *2341:B 9.81319e-05
13 *397:14 *421:12 4.40028e-05
14 *397:27 *2340:A2 0
15 *397:27 *2341:B 6.69608e-06
*RES
1 *2030:X *421:12 8.465 
2 *421:12 *2340:A2 1.96 
3 *421:12 *2341:B 4.735 
*END

*D_NET *422 0.00700899
*CONN
*I *2144:B1 I *D sky130_fd_sc_hd__a32o_1
*I *2146:A2 I *D sky130_fd_sc_hd__o221a_1
*I *2049:A2 I *D sky130_fd_sc_hd__o21ai_1
*I *2032:B I *D sky130_fd_sc_hd__nand2_1
*I *2033:B I *D sky130_fd_sc_hd__xor2_1
*I *2031:X O *D sky130_fd_sc_hd__o22a_2
*CAP
1 *2144:B1 0.000294689
2 *2146:A2 0
3 *2049:A2 0.000437356
4 *2032:B 5.36455e-05
5 *2033:B 0
6 *2031:X 5.28785e-05
7 *422:47 0.000431398
8 *422:14 6.79722e-05
9 *422:10 0.00137274
10 *422:8 0.00111065
11 *2032:B *2050:C1 0.00015806
12 *2032:B *441:6 5.43397e-05
13 *2049:A2 *426:10 1.00941e-05
14 *2049:A2 *651:46 0
15 *2144:B1 *2146:C1 7.02508e-06
16 *2144:B1 *425:50 2.10433e-05
17 *2144:B1 *452:24 7.81166e-05
18 *2144:B1 *836:24 8.41703e-06
19 *422:8 *831:8 5.83121e-06
20 *422:10 *1980:B1_N 2.25119e-05
21 *422:10 *2057:A2 0.000136182
22 *422:10 *2057:B1 5.46877e-05
23 *422:10 *425:16 0.00059388
24 *422:10 *425:50 9.67081e-06
25 *422:10 *427:8 0.000111459
26 *422:10 *457:24 9.03429e-05
27 *422:10 *830:8 0.000397634
28 *422:10 *830:14 0.000240288
29 *422:10 *830:108 6.72143e-05
30 *422:10 *836:62 2.16654e-05
31 *422:10 *839:125 0
32 *422:14 *2050:C1 8.65961e-05
33 *422:14 *441:6 5.30673e-05
34 *422:47 *2147:A2 4.55864e-06
35 *422:47 *452:24 2.9331e-05
36 *422:47 *819:143 0
37 *2018:A2_N *422:10 9.29751e-06
38 *2031:B2 *422:8 4.82919e-05
39 *2032:A *2032:B 1.85674e-05
40 *2033:A *2032:B 4.82863e-05
41 *2035:B *422:10 2.37321e-05
42 *2039:B *2144:B1 5.01597e-05
43 *2043:A1 *422:10 0.000152519
44 *2065:A1 *422:10 0
45 *127:10 *422:47 0
46 *242:23 *2049:A2 2.10433e-05
47 *244:51 *422:10 0
48 *351:6 *422:8 8.49205e-05
49 *354:10 *422:10 0
50 *375:10 *422:47 0
51 *379:14 *422:10 0.000298242
52 *379:40 *2144:B1 3.04245e-05
53 *403:12 *422:10 5.53591e-05
54 *407:12 *422:10 2.39522e-05
55 *407:42 *422:10 6.08534e-05
*RES
1 *2031:X *422:8 4.74 
2 *422:8 *422:10 22.545 
3 *422:10 *422:14 2.795 
4 *422:14 *2033:B 1.6 
5 *422:14 *2032:B 3.445 
6 *422:10 *2049:A2 5.5697 
7 *422:8 *422:47 1.89 
8 *422:47 *2146:A2 3.6 
9 *422:47 *2144:B1 5.6724 
*END

*D_NET *423 0.00137916
*CONN
*I *2050:C1 I *D sky130_fd_sc_hd__o311a_1
*I *2032:Y O *D sky130_fd_sc_hd__nand2_1
*CAP
1 *2050:C1 0.000186848
2 *2032:Y 0.000186848
3 *2050:C1 *2050:A1 2.78001e-05
4 *2050:C1 *2050:B1 7.47463e-05
5 *2050:C1 *424:10 4.66108e-05
6 *2050:C1 *441:6 2.45442e-05
7 *2032:A *2050:C1 0.000108886
8 *2032:B *2050:C1 0.00015806
9 *2049:A1 *2050:C1 0.000478219
10 *422:14 *2050:C1 8.65961e-05
*RES
1 *2032:Y *2050:C1 9.65 
*END

*D_NET *424 0.00186264
*CONN
*I *2038:C_N I *D sky130_fd_sc_hd__or3b_1
*I *2355:B1 I *D sky130_fd_sc_hd__o21ai_1
*I *2354:A I *D sky130_fd_sc_hd__or3_1
*I *2033:X O *D sky130_fd_sc_hd__xor2_1
*CAP
1 *2038:C_N 0
2 *2355:B1 3.22991e-05
3 *2354:A 0
4 *2033:X 7.95289e-05
5 *424:16 0.000182385
6 *424:10 0.000229615
7 *2355:B1 *2355:A1 9.21168e-05
8 *2355:B1 *2355:A2 0.000164874
9 *2355:B1 *426:33 2.75229e-05
10 *2355:B1 *659:21 3.74161e-05
11 *424:10 *2038:B 9.50342e-06
12 *424:10 *427:8 0.000170207
13 *424:10 *441:6 2.49909e-05
14 *424:16 *2038:B 7.47284e-05
15 *424:16 *2350:A1 7.00889e-06
16 *424:16 *2350:B1 2.79004e-05
17 *424:16 *2350:C1 0.000163923
18 *424:16 *2352:A1_N 2.25157e-05
19 *424:16 *426:33 0.00011577
20 *424:16 *659:21 0.000160635
21 *2050:C1 *424:10 4.66108e-05
22 *243:25 *424:10 9.25451e-05
23 *243:25 *424:16 0.000100544
*RES
1 *2033:X *424:10 6.195 
2 *424:10 *424:16 7.01 
3 *424:16 *2354:A 1.6 
4 *424:16 *2355:B1 3.43 
5 *424:10 *2038:C_N 3.6 
*END

*D_NET *425 0.0070026
*CONN
*I *2142:A2 I *D sky130_fd_sc_hd__a21oi_1
*I *2144:A3 I *D sky130_fd_sc_hd__a32o_1
*I *2036:A2 I *D sky130_fd_sc_hd__a21oi_1
*I *2035:C I *D sky130_fd_sc_hd__and3_1
*I *2034:X O *D sky130_fd_sc_hd__a21o_1
*CAP
1 *2142:A2 7.34085e-05
2 *2144:A3 7.57507e-05
3 *2036:A2 0
4 *2035:C 6.54875e-05
5 *2034:X 3.38648e-05
6 *425:50 0.0014599
7 *425:16 0.000443662
8 *425:8 0.00172278
9 *2035:C *438:12 6.37101e-05
10 *2144:A3 *2146:C1 7.95667e-05
11 *425:8 *452:60 4.82919e-05
12 *425:16 *438:12 0.000196376
13 *425:16 *839:108 0
14 *425:16 *839:125 0
15 *425:50 *2002:B 0.000175666
16 *425:50 *2143:B1 0
17 *425:50 *452:24 0.000585927
18 *425:50 *819:22 0.000405872
19 *425:50 *831:12 0.000111048
20 *425:50 *833:73 1.93765e-05
21 *425:50 *836:24 4.28767e-05
22 *425:50 *836:62 8.08185e-05
23 *425:50 *847:54 0
24 *2024:B *425:16 0
25 *2035:A *2035:C 4.82863e-05
26 *2036:B1 *425:16 6.38806e-05
27 *2039:B *425:50 0.000101732
28 *2142:A1 *425:50 1.34361e-05
29 *2142:B1 *2142:A2 1.08758e-05
30 *2144:A1 *2142:A2 0.000152814
31 *2144:A1 *425:50 5.33085e-05
32 *2144:B1 *425:50 2.10433e-05
33 *2146:A1 *2144:A3 0
34 *120:14 *2142:A2 3.57349e-05
35 *121:16 *2142:A2 8.97486e-05
36 *121:16 *425:50 2.97561e-05
37 *238:16 *425:16 0
38 *243:25 *2035:C 5.4155e-06
39 *379:40 *2144:A3 3.45588e-05
40 *379:40 *425:50 0
41 *403:12 *425:16 4.61196e-05
42 *403:12 *425:50 7.96104e-06
43 *409:38 *425:16 0
44 *422:10 *425:16 0.00059388
45 *422:10 *425:50 9.67081e-06
*RES
1 *2034:X *425:8 4.05 
2 *425:8 *425:16 11.18 
3 *425:16 *2035:C 3.265 
4 *425:16 *2036:A2 1.6 
5 *425:8 *425:50 9.70487 
6 *425:50 *2144:A3 5.46 
7 *425:50 *2142:A2 5.94 
*END

*D_NET *426 0.00291714
*CONN
*I *2049:B1 I *D sky130_fd_sc_hd__o21ai_1
*I *2037:A I *D sky130_fd_sc_hd__or2_1
*I *2355:A1 I *D sky130_fd_sc_hd__o21ai_1
*I *2354:B I *D sky130_fd_sc_hd__or3_1
*I *2038:A I *D sky130_fd_sc_hd__or3b_1
*I *2035:X O *D sky130_fd_sc_hd__and3_1
*CAP
1 *2049:B1 0
2 *2037:A 0
3 *2355:A1 0.000240076
4 *2354:B 0
5 *2038:A 0
6 *2035:X 0.000112016
7 *426:33 0.000472624
8 *426:25 0.000362808
9 *426:16 0.00032195
10 *426:10 0.000303706
11 *2355:A1 *2355:A2 3.23663e-05
12 *426:10 *438:12 4.82919e-05
13 *426:16 *2050:A3 0
14 *426:16 *429:12 0.000245854
15 *426:25 *2038:B 4.66742e-05
16 *426:33 *2350:B1 0.000140912
17 *2049:A2 *426:10 1.00941e-05
18 *2351:B1 *426:16 0.000113247
19 *2351:B1 *426:25 0.000124667
20 *2355:B1 *2355:A1 9.21168e-05
21 *2355:B1 *426:33 2.75229e-05
22 *242:23 *426:10 3.27107e-05
23 *242:23 *426:16 1.94723e-05
24 *243:25 *426:10 0
25 *243:25 *426:16 0
26 *244:38 *426:33 5.4256e-05
27 *424:16 *426:33 0.00011577
*RES
1 *2035:X *426:10 5.43 
2 *426:10 *426:16 6.23 
3 *426:16 *2038:A 1.6 
4 *426:16 *426:25 2.535 
5 *426:25 *426:33 7.81 
6 *426:33 *2354:B 1.6 
7 *426:33 *2355:A1 4.99 
8 *426:25 *2037:A 1.6 
9 *426:10 *2049:B1 3.6 
*END

*D_NET *427 0.00102005
*CONN
*I *2037:B I *D sky130_fd_sc_hd__or2_1
*I *2038:B I *D sky130_fd_sc_hd__or3b_1
*I *2036:Y O *D sky130_fd_sc_hd__a21oi_1
*CAP
1 *2037:B 0
2 *2038:B 8.51221e-05
3 *2036:Y 0.000137739
4 *427:8 0.000222861
5 *2038:B *2350:B1 7.47284e-05
6 *427:8 *2350:B1 5.16348e-05
7 *2035:B *427:8 4.43871e-06
8 *243:25 *427:8 3.09572e-05
9 *244:38 *427:8 0
10 *244:51 *427:8 0
11 *422:10 *427:8 0.000111459
12 *424:10 *2038:B 9.50342e-06
13 *424:10 *427:8 0.000170207
14 *424:16 *2038:B 7.47284e-05
15 *426:25 *2038:B 4.66742e-05
*RES
1 *2036:Y *427:8 7.02 
2 *427:8 *2038:B 5.265 
3 *427:8 *2037:B 3.6 
*END

*D_NET *428 0.00212147
*CONN
*I *2350:B1 I *D sky130_fd_sc_hd__a211oi_1
*I *2351:A1 I *D sky130_fd_sc_hd__a21o_1
*I *2037:X O *D sky130_fd_sc_hd__or2_1
*CAP
1 *2350:B1 6.8272e-05
2 *2351:A1 0.00044126
3 *2037:X 7.94854e-05
4 *428:6 0.000589018
5 *2350:B1 *2350:C1 8.53113e-06
6 *2038:B *2350:B1 7.47284e-05
7 *2351:B1 *2351:A1 0.000525703
8 *2351:B1 *428:6 0.000114024
9 *244:38 *2350:B1 0
10 *424:16 *2350:B1 2.79004e-05
11 *426:33 *2350:B1 0.000140912
12 *427:8 *2350:B1 5.16348e-05
*RES
1 *2037:X *428:6 2.74 
2 *428:6 *2351:A1 7.225 
3 *428:6 *2350:B1 7.745 
*END

*D_NET *429 0.00192809
*CONN
*I *2050:A1 I *D sky130_fd_sc_hd__o311a_1
*I *2046:A I *D sky130_fd_sc_hd__or4b_1
*I *2038:X O *D sky130_fd_sc_hd__or3b_1
*CAP
1 *2050:A1 0.000252469
2 *2046:A 0.000215402
3 *2038:X 0.000117129
4 *429:12 0.000584999
5 *2046:A *433:12 0.000118294
6 *2050:A1 *2050:B1 0.000138633
7 *429:12 *2050:A3 0
8 *429:12 *2352:A2_N 8.65905e-05
9 *2049:A1 *2046:A 2.47313e-05
10 *2049:A1 *2050:A1 2.19562e-06
11 *2050:C1 *2050:A1 2.78001e-05
12 *2351:B1 *429:12 1.34594e-05
13 *242:23 *429:12 0.000100528
14 *426:16 *429:12 0.000245854
*RES
1 *2038:X *429:12 8.885 
2 *429:12 *2046:A 5.17 
3 *429:12 *2050:A1 5.095 
*END

*D_NET *430 0.00390803
*CONN
*I *2066:A3 I *D sky130_fd_sc_hd__o31a_1
*I *2040:A2 I *D sky130_fd_sc_hd__o21ai_1
*I *2042:A2 I *D sky130_fd_sc_hd__o211a_1
*I *2039:Y O *D sky130_fd_sc_hd__nor2_1
*CAP
1 *2066:A3 0.00024179
2 *2040:A2 0
3 *2042:A2 0.000155033
4 *2039:Y 0.000164015
5 *430:16 0.000452173
6 *430:12 0.000702945
7 *2042:A2 *2042:A1 5.7344e-05
8 *2042:A2 *433:12 9.50342e-06
9 *2042:A2 *434:45 0
10 *2042:A2 *826:120 4.92935e-05
11 *2042:A2 *830:63 7.47284e-05
12 *2066:A3 *2001:B 4.82919e-05
13 *2066:A3 *2066:B1 4.89295e-05
14 *2066:A3 *833:73 8.49205e-05
15 *430:12 *434:45 9.30787e-05
16 *430:16 *2010:B 1.26548e-05
17 *430:16 *434:45 0
18 *430:16 *830:63 0.000274771
19 *430:16 *832:100 0.00019327
20 *430:16 *832:104 0.000370903
21 *2042:C1 *2042:A2 0.000128683
22 *2065:B1 *2066:A3 2.51225e-05
23 *2137:B1 *430:16 0.000116158
24 *2250:B2 *430:12 9.47454e-05
25 *392:12 *2066:A3 0.00016063
26 *403:18 *2042:A2 2.66939e-05
27 *403:18 *430:16 2.66935e-05
28 *403:48 *2066:A3 2.19562e-06
29 *403:48 *430:16 1.23331e-05
30 *404:23 *2066:A3 8.21861e-05
31 *404:23 *430:12 0.000198939
*RES
1 *2039:Y *430:12 8.555 
2 *430:12 *430:16 10.265 
3 *430:16 *2042:A2 7.5 
4 *430:16 *2040:A2 3.6 
5 *430:12 *2066:A3 5.965 
*END

*D_NET *431 0.00434333
*CONN
*I *2041:B I *D sky130_fd_sc_hd__and2b_1
*I *2143:A2 I *D sky130_fd_sc_hd__a21oi_1
*I *2140:A2_N I *D sky130_fd_sc_hd__a2bb2o_1
*I *2040:Y O *D sky130_fd_sc_hd__o21ai_1
*CAP
1 *2041:B 0.00017176
2 *2143:A2 0
3 *2140:A2_N 5.44842e-05
4 *2040:Y 0.000136997
5 *431:14 0.000674499
6 *431:6 0.000928772
7 *2041:B *2250:A1 0
8 *2041:B *2334:C1 0
9 *2041:B *434:45 0.000357262
10 *2140:A2_N *2140:B1 8.49205e-05
11 *2140:A2_N *2141:A2 4.66108e-05
12 *2140:A2_N *819:43 8.34281e-06
13 *431:6 *2011:A 7.00889e-06
14 *431:6 *830:70 4.66826e-05
15 *431:14 *2141:A1 0.000176969
16 *431:14 *2250:A1 0.000268754
17 *431:14 *2333:B 5.30673e-05
18 *431:14 *434:45 0
19 *431:14 *846:18 0
20 *2029:C1 *2041:B 0
21 *2039:A *431:14 5.92147e-05
22 *2039:B *431:14 4.70714e-05
23 *2135:A2 *431:14 0.000181376
24 *2139:B2 *2140:A2_N 1.46744e-05
25 *2140:A1_N *2140:A2_N 0.000122337
26 *2143:A1 *2140:A2_N 0.000110673
27 *2250:B2 *431:14 0.000489681
28 *2658:A *431:14 0.000151474
29 *118:61 *2140:A2_N 4.82919e-05
30 *416:18 *431:6 5.41685e-05
31 *416:18 *431:14 1.34503e-05
32 *416:26 *2041:B 3.47837e-05
*RES
1 *2040:Y *431:6 3.775 
2 *431:6 *431:14 19.27 
3 *431:14 *2140:A2_N 3.775 
4 *431:14 *2143:A2 1.6 
5 *431:6 *2041:B 9.785 
*END

*D_NET *432 0.0048583
*CONN
*I *2046:B I *D sky130_fd_sc_hd__or4b_1
*I *2345:A1 I *D sky130_fd_sc_hd__o211ai_1
*I *2344:B1 I *D sky130_fd_sc_hd__a211o_1
*I *2349:B1 I *D sky130_fd_sc_hd__a21o_1
*I *2350:C1 I *D sky130_fd_sc_hd__a211oi_1
*I *2050:A2 I *D sky130_fd_sc_hd__o311a_1
*I *2041:X O *D sky130_fd_sc_hd__and2b_1
*CAP
1 *2046:B 0
2 *2345:A1 0
3 *2344:B1 0
4 *2349:B1 0
5 *2350:C1 0.000174507
6 *2050:A2 8.41896e-05
7 *2041:X 0.000254098
8 *432:34 0.000562271
9 *432:26 0.000574363
10 *432:20 0.000372519
11 *432:14 0.000228552
12 *432:12 0.000380919
13 *2050:A2 *2050:A3 0.000289004
14 *2350:C1 *2350:A1 9.27255e-06
15 *2350:C1 *2350:A2 4.21973e-05
16 *2350:C1 *2352:A1_N 5.30673e-05
17 *432:12 *434:45 0
18 *432:12 *839:58 4.60584e-05
19 *432:12 *839:62 8.65961e-05
20 *432:14 *433:16 7.96171e-05
21 *432:14 *434:45 0
22 *432:14 *436:12 0
23 *432:20 *2045:B 2.75229e-05
24 *432:20 *2344:A1 0.000179329
25 *432:20 *433:16 1.73877e-05
26 *432:20 *433:22 1.5877e-05
27 *432:20 *434:55 6.02202e-05
28 *432:20 *651:34 1.07797e-05
29 *432:26 *2045:B 9.27255e-06
30 *432:26 *2048:B1 0.000195852
31 *432:26 *2350:A2 3.21081e-06
32 *432:26 *439:8 3.99879e-05
33 *432:34 *2350:A2 2.16917e-05
34 *432:34 *2351:A2 5.53249e-06
35 *432:34 *439:8 0.000347922
36 *2006:B *432:14 0
37 *2029:B1 *432:12 7.55313e-05
38 *2048:A1 *432:34 0
39 *2350:B1 *2350:C1 8.53113e-06
40 *242:23 *432:34 3.96467e-05
41 *243:25 *2050:A2 0.000289004
42 *243:25 *2350:C1 9.29751e-06
43 *244:38 *2350:C1 0
44 *397:27 *432:12 7.26629e-05
45 *397:27 *432:14 2.7881e-05
46 *424:16 *2350:C1 0.000163923
*RES
1 *2041:X *432:12 8.61 
2 *432:12 *432:14 2.655 
3 *432:14 *432:20 4.85 
4 *432:20 *432:26 4.095 
5 *432:26 *432:34 8.425 
6 *432:34 *2050:A2 9.02 
7 *432:34 *2350:C1 8.75 
8 *432:26 *2349:B1 1.6 
9 *432:20 *2344:B1 1.6 
10 *432:14 *2345:A1 3.6 
11 *432:12 *2046:B 3.6 
*END

*D_NET *433 0.00305017
*CONN
*I *2046:C I *D sky130_fd_sc_hd__or4b_1
*I *2345:A2 I *D sky130_fd_sc_hd__o211ai_1
*I *2344:C1 I *D sky130_fd_sc_hd__a211o_1
*I *2048:B1 I *D sky130_fd_sc_hd__a21oi_1
*I *2042:X O *D sky130_fd_sc_hd__o211a_1
*CAP
1 *2046:C 0
2 *2345:A2 0.000122507
3 *2344:C1 0
4 *2048:B1 5.10601e-05
5 *2042:X 0.000298572
6 *433:22 0.000171979
7 *433:16 0.000357657
8 *433:12 0.000412803
9 *2048:B1 *2045:B 4.9253e-06
10 *2048:B1 *2048:A2 2.47045e-05
11 *2048:B1 *439:8 4.9253e-06
12 *2345:A2 *2345:B1 5.83121e-06
13 *2345:A2 *434:55 4.66108e-05
14 *2345:A2 *435:6 5.55258e-05
15 *433:12 *2047:B 0.000123225
16 *433:12 *434:45 0.000215821
17 *433:16 *434:45 6.23206e-05
18 *433:16 *434:55 2.07184e-05
19 *433:22 *434:55 9.14049e-05
20 *2042:A2 *433:12 9.50342e-06
21 *2042:C1 *433:12 9.69126e-05
22 *2044:A *433:16 9.37731e-05
23 *2044:A *433:22 6.21553e-05
24 *2046:A *433:12 0.000118294
25 *2048:A1 *433:22 7.33689e-05
26 *241:43 *2048:B1 1.33293e-05
27 *242:23 *433:12 0.000203509
28 *432:14 *433:16 7.96171e-05
29 *432:20 *433:16 1.73877e-05
30 *432:20 *433:22 1.5877e-05
31 *432:26 *2048:B1 0.000195852
*RES
1 *2042:X *433:12 14.255 
2 *433:12 *433:16 4.91 
3 *433:16 *433:22 4.085 
4 *433:22 *2048:B1 3.445 
5 *433:22 *2344:C1 1.6 
6 *433:16 *2345:A2 5.085 
7 *433:12 *2046:C 1.6 
*END

*D_NET *434 0.00768505
*CONN
*I *2140:B1 I *D sky130_fd_sc_hd__a2bb2o_1
*I *2044:B I *D sky130_fd_sc_hd__nand2_1
*I *2048:A2 I *D sky130_fd_sc_hd__a21oi_1
*I *2045:B I *D sky130_fd_sc_hd__xor2_1
*I *2139:B1 I *D sky130_fd_sc_hd__o22a_1
*I *2043:X O *D sky130_fd_sc_hd__a221o_2
*CAP
1 *2140:B1 0.00021189
2 *2044:B 0
3 *2048:A2 4.7393e-05
4 *2045:B 0.000120122
5 *2139:B1 0
6 *2043:X 0.000260823
7 *434:55 0.000309512
8 *434:45 0.00122739
9 *434:37 0.00139869
10 *434:22 0.000362224
11 *2045:B *2347:A2 3.5421e-05
12 *2140:B1 *2143:B1 4.66742e-05
13 *2140:B1 *2145:A2 1.49518e-05
14 *2140:B1 *2250:C1 6.44676e-05
15 *2140:B1 *846:18 0.000111149
16 *2140:B1 *847:54 5.65694e-05
17 *434:22 *2141:A2 1.91597e-05
18 *434:22 *2249:A2 0.000393805
19 *434:22 *830:8 1.79536e-05
20 *434:22 *832:100 4.14843e-05
21 *434:22 *833:73 3.91137e-05
22 *434:37 *2141:A2 0.000120655
23 *434:45 *2138:A1 0.000157099
24 *434:45 *2351:A2 8.53113e-06
25 *434:45 *717:81 1.79483e-05
26 *434:45 *830:63 0.000132301
27 *434:45 *832:100 0
28 *434:55 *435:6 8.23457e-05
29 *2004:B1 *434:22 5.83121e-06
30 *2004:B2 *434:22 6.75843e-05
31 *2029:C1 *434:45 0
32 *2039:B *2140:B1 6.61062e-05
33 *2039:B *434:45 1.88602e-05
34 *2041:B *434:45 0.000357262
35 *2042:A2 *434:45 0
36 *2043:B1 *434:22 1.19928e-05
37 *2044:A *434:45 1.70935e-05
38 *2044:A *434:55 5.4155e-06
39 *2048:B1 *2045:B 4.9253e-06
40 *2048:B1 *2048:A2 2.47045e-05
41 *2137:B1 *434:45 4.40812e-05
42 *2139:A1 *434:37 0
43 *2139:B2 *2140:B1 0.000338043
44 *2139:B2 *434:37 8.41015e-06
45 *2140:A2_N *2140:B1 8.49205e-05
46 *2143:A1 *2140:B1 2.16917e-05
47 *2250:B2 *434:45 4.91396e-05
48 *2345:A2 *434:55 4.66108e-05
49 *2351:B1 *434:55 0
50 *1:15 *434:22 0.000152422
51 *241:43 *2045:B 0.000374483
52 *241:43 *2048:A2 4.66108e-05
53 *242:23 *434:45 0
54 *395:6 *434:22 1.83847e-05
55 *395:6 *434:37 3.83895e-05
56 *395:12 *434:37 4.05674e-06
57 *430:12 *434:45 9.30787e-05
58 *430:16 *434:45 0
59 *431:14 *434:45 0
60 *432:12 *434:45 0
61 *432:14 *434:45 0
62 *432:20 *2045:B 2.75229e-05
63 *432:20 *434:55 6.02202e-05
64 *432:26 *2045:B 9.27255e-06
65 *433:12 *434:45 0.000215821
66 *433:16 *434:45 6.23206e-05
67 *433:16 *434:55 2.07184e-05
68 *433:22 *434:55 9.14049e-05
*RES
1 *2043:X *434:22 8.84067 
2 *434:22 *2139:B1 1.6 
3 *434:22 *434:37 4.1825 
4 *434:37 *434:45 23.5325 
5 *434:45 *434:55 7.135 
6 *434:55 *2045:B 5.17 
7 *434:55 *2048:A2 2.665 
8 *434:45 *2044:B 1.6 
9 *434:37 *2140:B1 9.9225 
*END

*D_NET *435 0.000970308
*CONN
*I *2344:A1 I *D sky130_fd_sc_hd__a211o_1
*I *2345:B1 I *D sky130_fd_sc_hd__o211ai_1
*I *2044:Y O *D sky130_fd_sc_hd__nand2_1
*CAP
1 *2344:A1 5.53178e-05
2 *2345:B1 4.89096e-05
3 *2044:Y 8.75691e-05
4 *435:6 0.000191796
5 *2344:A1 *651:34 0.000181691
6 *2344:A1 *651:46 8.7152e-06
7 *2345:B1 *651:34 4.82863e-05
8 *2044:A *435:6 2.49909e-05
9 *2345:A2 *2345:B1 5.83121e-06
10 *2345:A2 *435:6 5.55258e-05
11 *432:20 *2344:A1 0.000179329
12 *434:55 *435:6 8.23457e-05
*RES
1 *2044:Y *435:6 3.43 
2 *435:6 *2345:B1 2.395 
3 *435:6 *2344:A1 7.745 
*END

*D_NET *436 0.00142999
*CONN
*I *2046:D_N I *D sky130_fd_sc_hd__or4b_1
*I *2341:C I *D sky130_fd_sc_hd__or3_1
*I *2340:B1 I *D sky130_fd_sc_hd__o21ai_2
*I *2045:X O *D sky130_fd_sc_hd__xor2_1
*CAP
1 *2046:D_N 7.32046e-05
2 *2341:C 2.04088e-05
3 *2340:B1 0
4 *2045:X 0.000257142
5 *436:19 0.00018333
6 *436:12 0.000346859
7 *2046:D_N *2047:B 1.61831e-05
8 *436:12 *2343:S 5.83121e-06
9 *436:12 *2347:A3 7.06865e-05
10 *436:12 *651:10 0.000135533
11 *436:19 *2342:A3 4.75991e-05
12 *241:32 *436:12 2.61093e-05
13 *397:14 *436:19 0.000122801
14 *397:27 *2046:D_N 7.54285e-05
15 *397:27 *2341:C 4.87465e-06
16 *397:27 *436:19 4.40028e-05
17 *432:14 *436:12 0
*RES
1 *2045:X *436:12 9.56 
2 *436:12 *2340:B1 1.6 
3 *436:12 *436:19 1.83 
4 *436:19 *2341:C 1.96 
5 *436:19 *2046:D_N 3.085 
*END

*D_NET *437 0.000946913
*CONN
*I *2047:B I *D sky130_fd_sc_hd__or3b_1
*I *2046:X O *D sky130_fd_sc_hd__or4b_1
*CAP
1 *2047:B 0.000278941
2 *2046:X 0.000278941
3 *2006:B *2047:B 9.35189e-05
4 *2046:D_N *2047:B 1.61831e-05
5 *397:27 *2047:B 0.000156105
6 *433:12 *2047:B 0.000123225
*RES
1 *2046:X *2047:B 12.225 
*END

*D_NET *438 0.00398971
*CONN
*I *2051:A I *D sky130_fd_sc_hd__and2_1
*I *2071:A1 I *D sky130_fd_sc_hd__a21o_1
*I *2047:X O *D sky130_fd_sc_hd__or3b_1
*CAP
1 *2051:A 0.000138399
2 *2071:A1 0
3 *2047:X 0.00116442
4 *438:12 0.00130282
5 *2051:A *2051:B 8.69098e-05
6 *2051:A *2071:A2 9.53428e-06
7 *2051:A *2071:B1 0.000123225
8 *2051:A *462:12 0.000200615
9 *438:12 *1963:A 5.05437e-05
10 *438:12 *2337:B 2.50702e-05
11 *438:12 *726:31 8.97564e-05
12 *438:12 *826:48 0.000164679
13 *438:12 *839:108 1.33293e-05
14 *438:12 *839:112 4.47209e-05
15 *2035:B *438:12 0.00016063
16 *2035:C *438:12 6.37101e-05
17 *2331:A0 *438:12 6.01238e-05
18 *2336:A *438:12 4.65607e-05
19 *425:16 *438:12 0.000196376
20 *426:10 *438:12 4.82919e-05
*RES
1 *2047:X *438:12 24.845 
2 *438:12 *2071:A1 1.6 
3 *438:12 *2051:A 5.17 
*END

*D_NET *439 0.00239988
*CONN
*I *2050:A3 I *D sky130_fd_sc_hd__o311a_1
*I *2350:A1 I *D sky130_fd_sc_hd__a211oi_1
*I *2349:A1 I *D sky130_fd_sc_hd__a21o_1
*I *2048:Y O *D sky130_fd_sc_hd__a21oi_1
*CAP
1 *2050:A3 0.000169352
2 *2350:A1 6.89183e-05
3 *2349:A1 0.000144311
4 *2048:Y 0.000129887
5 *439:12 0.000244382
6 *439:8 0.000330393
7 *2050:A3 *2352:A2_N 2.88519e-05
8 *2349:A1 *2350:A2 0.000138799
9 *2350:A1 *2350:A2 6.97118e-05
10 *2350:A1 *2352:A1_N 4.82919e-05
11 *439:8 *2350:A2 0.000237243
12 *439:12 *2352:A2_N 2.75707e-05
13 *2048:B1 *439:8 4.9253e-06
14 *2050:A2 *2050:A3 0.000289004
15 *2350:C1 *2350:A1 9.27255e-06
16 *242:23 *2050:A3 0
17 *243:10 *439:12 3.09233e-05
18 *243:25 *2050:A3 1.07797e-05
19 *243:25 *439:12 2.23407e-05
20 *424:16 *2350:A1 7.00889e-06
21 *426:16 *2050:A3 0
22 *429:12 *2050:A3 0
23 *432:26 *439:8 3.99879e-05
24 *432:34 *439:8 0.000347922
*RES
1 *2048:Y *439:8 7.845 
2 *439:8 *439:12 2.87 
3 *439:12 *2349:A1 4.12 
4 *439:12 *2350:A1 3.085 
5 *439:8 *2050:A3 7.275 
*END

*D_NET *440 0.000296954
*CONN
*I *2050:B1 I *D sky130_fd_sc_hd__o311a_1
*I *2049:Y O *D sky130_fd_sc_hd__o21ai_1
*CAP
1 *2050:B1 3.66164e-05
2 *2049:Y 3.66164e-05
3 *2049:A1 *2050:B1 1.03423e-05
4 *2050:A1 *2050:B1 0.000138633
5 *2050:C1 *2050:B1 7.47463e-05
*RES
1 *2049:Y *2050:B1 4.7 
*END

*D_NET *441 0.00206575
*CONN
*I *2051:B I *D sky130_fd_sc_hd__and2_1
*I *2071:A2 I *D sky130_fd_sc_hd__a21o_1
*I *2050:X O *D sky130_fd_sc_hd__o311a_1
*CAP
1 *2051:B 0.000137486
2 *2071:A2 1.85694e-05
3 *2050:X 0.000578229
4 *441:6 0.000734284
5 *2051:B *2071:B1 0.000123225
6 *2051:B *442:10 0.00015896
7 *2032:A *441:6 1.33293e-05
8 *2032:B *441:6 5.43397e-05
9 *2033:A *441:6 4.82863e-05
10 *2050:C1 *441:6 2.45442e-05
11 *2051:A *2051:B 8.69098e-05
12 *2051:A *2071:A2 9.53428e-06
13 *422:14 *441:6 5.30673e-05
14 *424:10 *441:6 2.49909e-05
*RES
1 *2050:X *441:6 9.985 
2 *441:6 *2071:A2 1.96 
3 *441:6 *2051:B 4.825 
*END

*D_NET *442 0.00166663
*CONN
*I *2360:A I *D sky130_fd_sc_hd__nor2_1
*I *2359:A I *D sky130_fd_sc_hd__nand2_1
*I *2051:X O *D sky130_fd_sc_hd__and2_1
*CAP
1 *2360:A 0
2 *2359:A 0.000202612
3 *2051:X 0.000150373
4 *442:10 0.000352985
5 *2359:A *2359:B 0.000183043
6 *2359:A *2362:B1 2.75145e-05
7 *2359:A *726:31 0.000316118
8 *2359:A *826:48 7.00066e-05
9 *442:10 *726:31 0.000116158
10 *442:10 *826:48 5.92269e-05
11 *2051:B *442:10 0.00015896
12 *2362:A1 *2359:A 0
13 *2366:A1 *2359:A 2.96334e-05
*RES
1 *2051:X *442:10 6.465 
2 *442:10 *2359:A 9.135 
3 *442:10 *2360:A 3.6 
*END

*D_NET *443 0.00909248
*CONN
*I *2053:B I *D sky130_fd_sc_hd__or2_1
*I *2054:B I *D sky130_fd_sc_hd__xnor2_1
*I *2074:A2 I *D sky130_fd_sc_hd__a22o_1
*I *2153:B1 I *D sky130_fd_sc_hd__o221a_1
*I *2150:A2 I *D sky130_fd_sc_hd__a221o_1
*I *2052:X O *D sky130_fd_sc_hd__o32a_2
*CAP
1 *2053:B 0
2 *2054:B 0.000219877
3 *2074:A2 3.22055e-05
4 *2153:B1 0
5 *2150:A2 0
6 *2052:X 0.000925258
7 *443:60 0.000399987
8 *443:52 0.00140589
9 *443:33 0.00133355
10 *443:22 0.00100082
11 *2054:B *2070:A 1.82667e-05
12 *2054:B *2075:A1_N 5.1211e-05
13 *2054:B *2075:A2_N 8.9995e-05
14 *2054:B *2075:B1 3.83041e-05
15 *2054:B *451:12 2.75145e-05
16 *2054:B *466:10 3.09088e-05
17 *2074:A2 *2075:A2_N 5.83121e-06
18 *2074:A2 *2075:B1 8.8266e-05
19 *443:22 *1978:A_N 0.00011496
20 *443:22 *2148:B 2.97004e-06
21 *443:22 *2472:D 4.66108e-05
22 *443:22 *2621:A 0.000120655
23 *443:22 *448:28 1.7396e-05
24 *443:22 *717:18 1.04129e-06
25 *443:22 *727:32 1.07797e-05
26 *443:22 *832:21 0
27 *443:22 *832:94 0.000416823
28 *443:22 *842:62 2.59981e-05
29 *443:22 *847:33 7.00751e-05
30 *443:33 *2156:A1 0.0001249
31 *443:33 *717:18 4.78802e-05
32 *443:52 *2156:A1 0.000134045
33 *443:52 *2195:B 2.97872e-06
34 *443:52 *2248:B 0
35 *443:52 *2278:C1 8.53256e-05
36 *443:52 *2279:B1 0.000290781
37 *443:52 *2377:B1 0.000421062
38 *443:52 *2608:A 0
39 *443:52 *2611:A 6.16226e-06
40 *443:52 *448:58 0
41 *443:52 *532:20 0.000117402
42 *443:52 *847:214 0
43 *443:60 *2377:B1 5.78711e-05
44 *443:60 *448:58 0
45 *443:60 *448:71 0
46 *2074:A1 *443:60 0
47 *2150:A1 *443:33 9.15458e-06
48 *2150:B2 *443:33 0
49 *2151:B1 *443:52 2.72225e-05
50 *2152:B1 *443:52 7.84003e-05
51 *2153:A2 *443:52 7.35374e-05
52 *2153:B2 *443:22 4.94465e-05
53 *2153:B2 *443:33 9.80278e-05
54 *2153:B2 *443:52 4.82863e-05
55 *2278:A2 *443:52 5.63183e-05
56 *2507:D *443:52 5.87938e-05
57 *2634:A *443:52 0.000107955
58 *110:32 *443:22 0.000535086
59 *248:29 *2054:B 8.40269e-05
60 *380:14 *443:52 7.82661e-05
61 *380:30 *443:52 4.36573e-06
*RES
1 *2052:X *443:22 24.0938 
2 *443:22 *2150:A2 1.6 
3 *443:22 *443:33 2.53125 
4 *443:33 *2153:B1 1.6 
5 *443:33 *443:52 28.43 
6 *443:52 *443:60 4.445 
7 *443:60 *2074:A2 2.395 
8 *443:60 *2054:B 6.31 
9 *443:52 *2053:B 3.6 
*END

*D_NET *444 0.000342289
*CONN
*I *2075:A1_N I *D sky130_fd_sc_hd__o2bb2a_1
*I *2053:X O *D sky130_fd_sc_hd__or2_1
*CAP
1 *2075:A1_N 7.07721e-05
2 *2053:X 7.07721e-05
3 *2075:A1_N *2075:A2_N 2.75229e-05
4 *2075:A1_N *2371:A1 0
5 *2075:A1_N *2377:B1 0.000117825
6 *2054:B *2075:A1_N 5.1211e-05
7 *2382:A1 *2075:A1_N 4.18603e-06
*RES
1 *2053:X *2075:A1_N 9.04125 
*END

*D_NET *445 0.00164802
*CONN
*I *2374:B1 I *D sky130_fd_sc_hd__a21oi_1
*I *2060:A_N I *D sky130_fd_sc_hd__nand2b_1
*I *2375:A1 I *D sky130_fd_sc_hd__a31o_1
*I *2054:Y O *D sky130_fd_sc_hd__xnor2_1
*CAP
1 *2374:B1 0.000102677
2 *2060:A_N 3.45208e-05
3 *2375:A1 0.000175212
4 *2054:Y 8.03995e-05
5 *445:23 0.000137198
6 *445:8 0.000255612
7 *2060:A_N *2374:A1 3.83194e-05
8 *2060:A_N *2374:A2 4.66108e-05
9 *2374:B1 *2374:A1 8.23457e-05
10 *2374:B1 *2374:A2 2.8694e-05
11 *2374:B1 *2376:A1_N 1.83847e-05
12 *2374:B1 *450:6 0
13 *2375:A1 *2370:B 2.54431e-05
14 *2375:A1 *2374:A2 0.000179329
15 *2375:A1 *449:10 3.49128e-05
16 *2375:A1 *674:27 2.85364e-05
17 *445:8 *2374:A2 2.07184e-05
18 *445:8 *2377:B1 0
19 *248:29 *2375:A1 0.000196782
20 *248:29 *445:8 0.000162325
*RES
1 *2054:Y *445:8 5.49 
2 *445:8 *2375:A1 7.5 
3 *445:8 *445:23 2 
4 *445:23 *2060:A_N 2.395 
5 *445:23 *2374:B1 3.445 
*END

*D_NET *446 0.000417457
*CONN
*I *2057:A2 I *D sky130_fd_sc_hd__o21ai_4
*I *2055:X O *D sky130_fd_sc_hd__o21ba_1
*CAP
1 *2057:A2 0.00011174
2 *2055:X 0.00011174
3 *2057:A2 *2057:B1 9.50342e-06
4 *2065:A1 *2057:A2 0
5 *409:10 *2057:A2 4.82919e-05
6 *422:10 *2057:A2 0.000136182
*RES
1 *2055:X *2057:A2 9.285 
*END

*D_NET *447 0.000631459
*CONN
*I *2057:B1 I *D sky130_fd_sc_hd__o21ai_4
*I *2056:X O *D sky130_fd_sc_hd__a211o_1
*CAP
1 *2057:B1 0.000131837
2 *2056:X 0.000131837
3 *2012:A *2057:B1 2.88519e-05
4 *2057:A2 *2057:B1 9.50342e-06
5 *2065:A1 *2057:B1 7.21296e-06
6 *2135:B2 *2057:B1 8.58063e-05
7 *350:23 *2057:B1 8.65961e-05
8 *352:8 *2057:B1 8.65961e-05
9 *403:12 *2057:B1 8.53113e-06
10 *422:10 *2057:B1 5.46877e-05
*RES
1 *2056:X *2057:B1 10.17 
*END

*D_NET *448 0.00942078
*CONN
*I *2059:B I *D sky130_fd_sc_hd__xor2_1
*I *2058:B I *D sky130_fd_sc_hd__nand2_1
*I *2074:B1 I *D sky130_fd_sc_hd__a22o_1
*I *2148:B I *D sky130_fd_sc_hd__or2_1
*I *2150:B1 I *D sky130_fd_sc_hd__a221o_1
*I *2057:Y O *D sky130_fd_sc_hd__o21ai_4
*CAP
1 *2059:B 2.2266e-05
2 *2058:B 0.000204352
3 *2074:B1 2.90594e-05
4 *2148:B 0.000207647
5 *2150:B1 1.17375e-05
6 *2057:Y 0.000913254
7 *448:71 0.000367368
8 *448:58 0.000998308
9 *448:28 0.000686058
10 *448:24 0.00220843
11 *2058:B *2369:A1 0
12 *2058:B *2369:A2 0
13 *2058:B *2369:B1 8.8266e-05
14 *2058:B *2369:C1 9.91257e-05
15 *2058:B *2370:B 6.65725e-05
16 *2058:B *449:10 1.23763e-05
17 *2058:B *823:58 0
18 *2074:B1 *2075:B1 2.75145e-05
19 *2148:B *802:31 1.37812e-05
20 *2148:B *802:35 4.43871e-06
21 *2148:B *842:62 0
22 *2150:B1 *717:18 2.75229e-05
23 *448:24 *930:DIODE 3.00381e-05
24 *448:24 *1961:A 0.000119756
25 *448:24 *1980:A1 2.30292e-05
26 *448:24 *2003:A 4.66742e-05
27 *448:24 *2003:B 0.000149802
28 *448:24 *717:81 0.000119762
29 *448:24 *826:38 0.000102141
30 *448:24 *842:8 2.75229e-05
31 *448:28 *826:22 1.67513e-05
32 *448:28 *842:36 0.000180658
33 *448:28 *842:62 0
34 *448:28 *847:80 0
35 *448:28 *847:86 0
36 *448:58 *930:DIODE 0.000194263
37 *448:58 *2279:A2 7.58604e-05
38 *448:58 *2326:A1_N 0.00022448
39 *448:58 *847:90 0
40 *448:71 *2377:B1 0
41 *448:71 *451:12 0
42 *2065:A1 *448:24 2.24833e-05
43 *2074:A1 *448:58 6.11019e-05
44 *2074:A1 *448:71 8.53113e-06
45 *2074:B2 *2058:B 1.71013e-05
46 *2074:B2 *2059:B 4.82919e-05
47 *2074:B2 *448:71 9.42302e-05
48 *2375:B1 *2058:B 4.28483e-05
49 *2375:B1 *448:58 4.72538e-05
50 *2375:B1 *448:71 5.98004e-06
51 *2546:D *448:58 9.37731e-05
52 *2629:A *448:28 4.48319e-05
53 *1:15 *2148:B 0.000126679
54 *1:15 *448:24 0
55 *1:15 *448:28 0.000516258
56 *110:32 *2150:B1 4.82919e-05
57 *236:10 *448:28 3.60648e-06
58 *247:23 *2058:B 0
59 *354:61 *448:58 0.000477548
60 *371:34 *448:24 1.7635e-05
61 *376:58 *2148:B 7.18547e-05
62 *380:14 *448:58 0.00019907
63 *409:38 *448:24 1.32824e-05
64 *411:25 *448:24 0.000140954
65 *443:22 *2148:B 2.97004e-06
66 *443:22 *448:28 1.7396e-05
67 *443:52 *448:58 0
68 *443:60 *448:58 0
69 *443:60 *448:71 0
*RES
1 *2057:Y *448:24 16.5039 
2 *448:24 *448:28 12.05 
3 *448:28 *2150:B1 4.05 
4 *448:28 *2148:B 7.41 
5 *448:24 *448:58 21.005 
6 *448:58 *2074:B1 4.05 
7 *448:58 *448:71 2.85 
8 *448:71 *2058:B 8.19 
9 *448:71 *2059:B 4.05 
*END

*D_NET *449 0.00107223
*CONN
*I *2375:A2 I *D sky130_fd_sc_hd__a31o_1
*I *2374:A1 I *D sky130_fd_sc_hd__a21oi_1
*I *2058:Y O *D sky130_fd_sc_hd__nand2_1
*CAP
1 *2375:A2 0
2 *2374:A1 0.000169962
3 *2058:Y 9.84069e-05
4 *449:10 0.000268369
5 *2374:A1 *2370:A 7.23602e-05
6 *2374:A1 *2374:A2 0.000112123
7 *449:10 *2370:B 0.000161498
8 *2058:B *449:10 1.23763e-05
9 *2060:A_N *2374:A1 3.83194e-05
10 *2374:B1 *2374:A1 8.23457e-05
11 *2375:A1 *449:10 3.49128e-05
12 *2375:B1 *2374:A1 2.15594e-05
*RES
1 *2058:Y *449:10 3.895 
2 *449:10 *2374:A1 8.465 
3 *449:10 *2375:A2 1.6 
*END

*D_NET *450 0.00183662
*CONN
*I *2370:A I *D sky130_fd_sc_hd__or2_1
*I *2060:B I *D sky130_fd_sc_hd__nand2b_1
*I *2369:B1 I *D sky130_fd_sc_hd__o211ai_2
*I *2059:X O *D sky130_fd_sc_hd__xor2_1
*CAP
1 *2370:A 0.000283559
2 *2060:B 0
3 *2369:B1 0.000161225
4 *2059:X 2.08101e-05
5 *450:23 0.000381306
6 *450:6 0.000279782
7 *2369:B1 *2370:B 8.65905e-05
8 *2370:A *2370:B 0.000191226
9 *2370:A *2374:A2 2.4997e-05
10 *2370:A *2376:A2_N 6.3124e-06
11 *2370:A *2377:B1 5.92191e-05
12 *2058:B *2369:B1 8.8266e-05
13 *2374:A1 *2370:A 7.23602e-05
14 *2374:B1 *450:6 0
15 *2375:B1 *2370:A 8.53113e-06
16 *247:23 *2369:B1 2.97004e-06
17 *247:38 *2369:B1 0.000132836
18 *247:38 *450:6 0
19 *247:38 *450:23 3.66286e-05
*RES
1 *2059:X *450:6 1.96 
2 *450:6 *2369:B1 9.08 
3 *450:6 *450:23 1.48125 
4 *450:23 *2060:B 1.6 
5 *450:23 *2370:A 9.96875 
*END

*D_NET *451 0.00231335
*CONN
*I *2075:B2 I *D sky130_fd_sc_hd__o2bb2a_1
*I *2070:A I *D sky130_fd_sc_hd__or3b_1
*I *2060:Y O *D sky130_fd_sc_hd__nand2b_1
*CAP
1 *2075:B2 0
2 *2070:A 0.000761619
3 *2060:Y 8.00617e-05
4 *451:12 0.00084168
5 *2070:A *2070:B 3.26889e-05
6 *2070:A *2070:C_N 4.80285e-05
7 *2070:A *2073:A 2.20732e-05
8 *2070:A *2073:B 8.49205e-05
9 *2070:A *2075:B1 0.000194325
10 *451:12 *2377:B1 9.5433e-05
11 *2054:B *2070:A 1.82667e-05
12 *2054:B *451:12 2.75145e-05
13 *354:40 *2070:A 0.000106738
14 *448:71 *451:12 0
*RES
1 *2060:Y *451:12 7.175 
2 *451:12 *2070:A 12.19 
3 *451:12 *2075:B2 1.6 
*END

*D_NET *452 0.0102043
*CONN
*I *2063:B I *D sky130_fd_sc_hd__nor2_1
*I *2062:B I *D sky130_fd_sc_hd__and2_1
*I *2147:A2 I *D sky130_fd_sc_hd__a22o_1
*I *2146:B1 I *D sky130_fd_sc_hd__o221a_1
*I *2061:X O *D sky130_fd_sc_hd__o21a_1
*CAP
1 *2063:B 2.46411e-05
2 *2062:B 0.000105847
3 *2147:A2 0.000610124
4 *2146:B1 0
5 *2061:X 0
6 *452:60 0.000983666
7 *452:24 0.00215744
8 *452:4 0.00240049
9 *2062:B *840:36 0.000204456
10 *2147:A2 *2149:B1 0.000664869
11 *2147:A2 *457:45 4.99619e-05
12 *452:60 *839:52 1.07797e-05
13 *452:60 *839:108 0
14 *452:60 *840:36 0.000401197
15 *452:60 *840:93 1.52945e-05
16 *2024:B *452:60 0
17 *2039:B *452:24 1.72799e-05
18 *2061:A2 *452:24 6.57653e-06
19 *2061:A2 *452:60 0.00015896
20 *2063:A *2062:B 0.000183738
21 *2063:A *2063:B 0.000122331
22 *2144:B1 *452:24 7.81166e-05
23 *2147:A1 *2147:A2 0.000115146
24 *2331:A0 *452:60 0.00011852
25 *2334:A1 *452:24 0
26 *122:12 *2147:A2 8.1526e-05
27 *126:33 *2147:A2 1.7396e-05
28 *127:10 *2147:A2 6.5337e-06
29 *127:10 *452:24 2.77052e-05
30 *354:40 *2063:B 0.000122331
31 *371:16 *452:60 0.000197016
32 *376:58 *2147:A2 7.42845e-05
33 *379:14 *452:24 3.79555e-05
34 *401:12 *452:24 0
35 *401:25 *452:60 0.000402771
36 *409:38 *452:60 0
37 *414:12 *452:60 0
38 *415:12 *452:60 0.000139238
39 *422:47 *2147:A2 4.55864e-06
40 *422:47 *452:24 2.9331e-05
41 *425:8 *452:60 4.82919e-05
42 *425:50 *452:24 0.000585927
*RES
1 *2061:X *452:4 1.6 
2 *452:4 *452:24 7.9584 
3 *452:24 *2146:B1 3.6 
4 *452:24 *2147:A2 17.695 
5 *452:4 *452:60 19.91 
6 *452:60 *2062:B 6.45 
7 *452:60 *2063:B 4.74 
*END

*D_NET *453 0.00386556
*CONN
*I *2072:A_N I *D sky130_fd_sc_hd__nand2b_1
*I *2364:A1 I *D sky130_fd_sc_hd__o21ai_1
*I *2365:A1 I *D sky130_fd_sc_hd__o31a_1
*I *2064:A I *D sky130_fd_sc_hd__or2_1
*I *2062:X O *D sky130_fd_sc_hd__and2_1
*CAP
1 *2072:A_N 0.000339203
2 *2364:A1 0.00020548
3 *2365:A1 0
4 *2064:A 0
5 *2062:X 0.000109152
6 *453:24 0.00081881
7 *453:15 0.000389711
8 *453:8 0.000224736
9 *2072:A_N *2072:B 6.07575e-06
10 *2072:A_N *2073:B 2.07184e-05
11 *2072:A_N *2368:A1 4.66108e-05
12 *2072:A_N *2369:A1 5.39961e-05
13 *2072:A_N *667:43 0.000372781
14 *2072:A_N *823:58 7.47145e-05
15 *2364:A1 *893:DIODE 0.000107838
16 *2364:A1 *2068:B 1.15688e-05
17 *2364:A1 *2364:A2 0.000558509
18 *2364:A1 *2365:B1 1.07797e-05
19 *2364:A1 *2367:A1 0
20 *2364:A1 *458:12 0.000140905
21 *2364:A1 *842:10 3.41502e-05
22 *453:8 *2365:A2 0
23 *453:15 *2359:B 2.76356e-05
24 *453:15 *455:25 1.47347e-05
25 *453:24 *2365:A2 9.53428e-06
26 *453:24 *667:23 4.66108e-05
27 *453:24 *667:30 0.0001947
28 *453:24 *667:43 4.66108e-05
*RES
1 *2062:X *453:8 3.1 
2 *453:8 *2064:A 1.6 
3 *453:8 *453:15 1.83 
4 *453:15 *2365:A1 1.6 
5 *453:15 *453:24 3.735 
6 *453:24 *2364:A1 12.335 
7 *453:24 *2072:A_N 10.715 
*END

*D_NET *454 0.000401735
*CONN
*I *2064:B I *D sky130_fd_sc_hd__or2_1
*I *2063:Y O *D sky130_fd_sc_hd__nor2_1
*CAP
1 *2064:B 7.73237e-05
2 *2063:Y 7.73237e-05
3 *2064:B *2361:B 4.82863e-05
4 *2064:B *826:48 0.000141592
5 *2064:B *840:36 5.72091e-05
*RES
1 *2063:Y *2064:B 9.285 
*END

*D_NET *455 0.00157755
*CONN
*I *2070:B I *D sky130_fd_sc_hd__or3b_1
*I *2360:B I *D sky130_fd_sc_hd__nor2_1
*I *2359:B I *D sky130_fd_sc_hd__nand2_1
*I *2064:X O *D sky130_fd_sc_hd__or2_1
*CAP
1 *2070:B 9.01437e-05
2 *2360:B 0
3 *2359:B 0.000147173
4 *2064:X 0
5 *455:25 0.000184854
6 *455:4 0.000241883
7 *2070:B *2361:B 5.83121e-06
8 *2070:B *667:23 7.10578e-05
9 *2359:B *2366:C1 9.50342e-06
10 *2359:B *726:31 1.86911e-05
11 *2359:B *826:48 0.000230876
12 *455:25 *457:70 0
13 *455:25 *667:23 3.47837e-05
14 *455:25 *726:31 0.000139245
15 *2070:A *2070:B 3.26889e-05
16 *2359:A *2359:B 0.000183043
17 *354:40 *2070:B 0.000145406
18 *453:15 *2359:B 2.76356e-05
19 *453:15 *455:25 1.47347e-05
*RES
1 *2064:X *455:4 1.6 
2 *455:4 *2359:B 9.05 
3 *455:4 *455:25 6.085 
4 *455:25 *2360:B 1.6 
5 *455:25 *2070:B 3.955 
*END

*D_NET *456 0.000500925
*CONN
*I *2066:B1 I *D sky130_fd_sc_hd__o31a_1
*I *2065:X O *D sky130_fd_sc_hd__a211o_1
*CAP
1 *2066:B1 7.91559e-05
2 *2065:X 7.91559e-05
3 *2066:B1 *2001:B 0
4 *2065:B1 *2066:B1 0.000134732
5 *2066:A2 *2066:B1 0.000158952
6 *2066:A3 *2066:B1 4.89295e-05
*RES
1 *2065:X *2066:B1 5.735 
*END

*D_NET *457 0.0114872
*CONN
*I *2068:B I *D sky130_fd_sc_hd__nand2_1
*I *2067:B I *D sky130_fd_sc_hd__or2_1
*I *2149:A2 I *D sky130_fd_sc_hd__o221a_1
*I *2147:B1 I *D sky130_fd_sc_hd__a22o_1
*I *2066:X O *D sky130_fd_sc_hd__o31a_1
*CAP
1 *2068:B 0.000171646
2 *2067:B 0
3 *2149:A2 0
4 *2147:B1 0
5 *2066:X 0.000863205
6 *457:70 0.00172376
7 *457:45 0.00186161
8 *457:24 0.00117269
9 *2068:B *2069:B 6.98779e-05
10 *2068:B *2366:A2 5.97622e-05
11 *2068:B *458:12 0.000100577
12 *2068:B *458:21 1.91597e-05
13 *2068:B *842:10 0.000114492
14 *457:24 *1985:B1_N 0.000196303
15 *457:24 *2016:B 9.34773e-06
16 *457:24 *2017:A_N 0.000175578
17 *457:24 *832:21 5.11148e-06
18 *457:24 *832:23 1.23244e-05
19 *457:24 *832:42 1.88123e-05
20 *457:24 *832:54 0
21 *457:24 *833:30 0.000118314
22 *457:24 *834:29 0
23 *457:45 *2149:B1 3.51884e-05
24 *457:45 *727:32 3.97211e-05
25 *457:45 *836:62 0
26 *457:70 *1978:A_N 0.000173183
27 *457:70 *2003:A 0.000538749
28 *457:70 *2070:C_N 0.000138969
29 *457:70 *2071:B1 6.02123e-05
30 *457:70 *2149:C1 0.000108031
31 *457:70 *2150:C1 0.000118527
32 *457:70 *2328:A1 0
33 *457:70 *2331:A1 0
34 *457:70 *2364:B1 7.23533e-05
35 *457:70 *2365:B1 0
36 *457:70 *2366:A2 6.90876e-05
37 *457:70 *2472:D 0.000113409
38 *457:70 *2621:A 0.000169473
39 *457:70 *667:23 0.000114492
40 *457:70 *717:33 0
41 *457:70 *726:21 2.42236e-05
42 *457:70 *726:31 0
43 *457:70 *826:48 0
44 *457:70 *835:39 0
45 *457:70 *836:62 0.000143898
46 *457:70 *839:18 0
47 *457:70 *839:184 2.7881e-05
48 *457:70 *839:195 1.34361e-05
49 *457:70 *840:18 0.000471877
50 *457:70 *840:26 0.000136884
51 *1989:B1 *457:24 0.000244224
52 *2018:A1_N *457:24 4.53904e-05
53 *2018:A2_N *457:24 0.000131008
54 *2018:B2 *457:24 0.000118294
55 *2022:B1 *457:24 8.61331e-05
56 *2023:B1 *457:70 0.000139933
57 *2055:B1_N *457:24 4.00541e-06
58 *2067:A *2068:B 6.97118e-05
59 *2147:A1 *457:45 4.82863e-05
60 *2147:A2 *457:45 4.99619e-05
61 *2147:B2 *457:24 2.92496e-05
62 *2147:B2 *457:45 0.000162311
63 *2150:B2 *457:70 4.70343e-05
64 *2327:A2 *457:70 9.70668e-05
65 *2330:A2 *457:70 0.000206817
66 *2364:A1 *2068:B 1.15688e-05
67 *109:18 *457:70 1.73877e-05
68 *110:32 *457:70 4.73534e-05
69 *126:33 *457:45 2.18187e-05
70 *371:34 *457:24 2.46089e-05
71 *376:10 *457:24 9.55716e-05
72 *376:58 *457:24 5.83373e-05
73 *376:58 *457:45 6.57653e-06
74 *376:58 *457:70 0.000105508
75 *409:38 *457:24 2.36616e-05
76 *411:12 *457:70 0.00024283
77 *422:10 *457:24 9.03429e-05
78 *455:25 *457:70 0
*RES
1 *2066:X *457:24 26.205 
2 *457:24 *2147:B1 1.6 
3 *457:24 *457:45 7.53433 
4 *457:45 *2149:A2 1.6 
5 *457:45 *457:70 38.98 
6 *457:70 *2067:B 1.6 
7 *457:70 *2068:B 9.62 
*END

*D_NET *458 0.00335519
*CONN
*I *2073:A I *D sky130_fd_sc_hd__nand2_1
*I *2369:C1 I *D sky130_fd_sc_hd__o211ai_2
*I *2368:B1 I *D sky130_fd_sc_hd__o21a_1
*I *2069:A I *D sky130_fd_sc_hd__and2_1
*I *2067:X O *D sky130_fd_sc_hd__or2_1
*CAP
1 *2073:A 0.000167048
2 *2369:C1 0.000413219
3 *2368:B1 0
4 *2069:A 0
5 *2067:X 5.43043e-05
6 *458:30 0.000595309
7 *458:21 8.74875e-05
8 *458:12 0.00012675
9 *2073:A *2073:B 1.88749e-05
10 *2073:A *2075:B1 3.00381e-05
11 *2073:A *2369:A2 5.23362e-05
12 *2073:A *823:58 9.42145e-05
13 *2073:A *847:108 8.30822e-05
14 *2369:C1 *2369:A2 0.000268671
15 *2369:C1 *2370:B 1.69567e-05
16 *2369:C1 *674:10 4.82863e-05
17 *2369:C1 *823:58 1.38422e-05
18 *458:12 *2069:B 1.19928e-05
19 *458:12 *667:43 4.82919e-05
20 *458:12 *842:10 2.4997e-05
21 *458:21 *2069:B 9.80943e-06
22 *458:21 *2072:B 3.63577e-05
23 *458:21 *2368:A1 4.00541e-06
24 *458:21 *667:43 0.000236355
25 *458:30 *2072:B 4.66108e-05
26 *458:30 *667:43 1.91597e-05
27 *2058:B *2369:C1 9.91257e-05
28 *2068:A *2369:C1 0.000180416
29 *2068:A *458:21 8.40269e-05
30 *2068:B *458:12 0.000100577
31 *2068:B *458:21 1.91597e-05
32 *2070:A *2073:A 2.20732e-05
33 *2364:A1 *458:12 0.000140905
34 *2697:A *2369:C1 2.75229e-05
35 *246:19 *2369:C1 5.10477e-05
36 *354:40 *2073:A 0.000122337
*RES
1 *2067:X *458:12 7.685 
2 *458:12 *2069:A 1.6 
3 *458:12 *458:21 2.535 
4 *458:21 *2368:B1 1.6 
5 *458:21 *458:30 2.45 
6 *458:30 *2369:C1 10.86 
7 *458:30 *2073:A 8.1 
*END

*D_NET *459 0.00110912
*CONN
*I *2072:B I *D sky130_fd_sc_hd__nand2b_1
*I *2069:B I *D sky130_fd_sc_hd__and2_1
*I *2068:Y O *D sky130_fd_sc_hd__nand2_1
*CAP
1 *2072:B 0.000223843
2 *2069:B 0.000169583
3 *2068:Y 0
4 *459:4 0.000393426
5 *2069:B *2365:A2 0
6 *2069:B *667:43 8.73389e-06
7 *2072:B *2368:A1 3.40163e-05
8 *2072:B *463:6 2.08258e-07
9 *2072:B *667:43 1.19928e-05
10 *2068:A *2072:B 8.65961e-05
11 *2068:B *2069:B 6.98779e-05
12 *2072:A_N *2072:B 6.07575e-06
13 *247:38 *2072:B 0
14 *458:12 *2069:B 1.19928e-05
15 *458:21 *2069:B 9.80943e-06
16 *458:21 *2072:B 3.63577e-05
17 *458:30 *2072:B 4.66108e-05
*RES
1 *2068:Y *459:4 1.6 
2 *459:4 *2069:B 4.06 
3 *459:4 *2072:B 5.27875 
*END

*D_NET *460 0.00246164
*CONN
*I *2070:C_N I *D sky130_fd_sc_hd__or3b_1
*I *2365:A2 I *D sky130_fd_sc_hd__o31a_1
*I *2364:B1 I *D sky130_fd_sc_hd__o21ai_1
*I *2069:X O *D sky130_fd_sc_hd__and2_1
*CAP
1 *2070:C_N 0.000123981
2 *2365:A2 3.33099e-05
3 *2364:B1 0.000315295
4 *2069:X 5.27787e-05
5 *460:8 0.000446517
6 *460:6 0.000274673
7 *2070:C_N *2364:A2 1.73877e-05
8 *2070:C_N *2365:B1 0.000109449
9 *2364:B1 *2364:A2 0
10 *2364:B1 *2366:B1 0.000121967
11 *2364:B1 *2366:B2 4.4073e-05
12 *2364:B1 *2367:B1 0.000186627
13 *2364:B1 *2544:CLK 5.42552e-05
14 *460:6 *2365:B1 5.05521e-05
15 *460:8 *2365:B1 2.75145e-05
16 *460:8 *667:23 1.1392e-05
17 *460:8 *667:30 7.68414e-06
18 *2069:B *2365:A2 0
19 *2070:A *2070:C_N 4.80285e-05
20 *2543:D *2364:B1 0.000182349
21 *2700:A *2364:B1 8.49205e-05
22 *354:40 *2070:C_N 4.80285e-05
23 *453:8 *2365:A2 0
24 *453:24 *2365:A2 9.53428e-06
25 *457:70 *2070:C_N 0.000138969
26 *457:70 *2364:B1 7.23533e-05
*RES
1 *2069:X *460:6 2.395 
2 *460:6 *460:8 1.14 
3 *460:8 *2364:B1 13.415 
4 *460:8 *2365:A2 2.215 
5 *460:6 *2070:C_N 9.305 
*END

*D_NET *461 0.000507552
*CONN
*I *2071:B1 I *D sky130_fd_sc_hd__a21o_1
*I *2070:X O *D sky130_fd_sc_hd__or3b_1
*CAP
1 *2071:B1 7.98854e-05
2 *2070:X 7.98854e-05
3 *2071:B1 *726:31 4.11194e-05
4 *2051:A *2071:B1 0.000123225
5 *2051:B *2071:B1 0.000123225
6 *457:70 *2071:B1 6.02123e-05
*RES
1 *2070:X *2071:B1 9.72 
*END

*D_NET *462 0.00488199
*CONN
*I *2378:A1 I *D sky130_fd_sc_hd__a21o_1
*I *2077:B I *D sky130_fd_sc_hd__nand3b_4
*I *2379:B I *D sky130_fd_sc_hd__nand3_1
*I *2071:X O *D sky130_fd_sc_hd__a21o_1
*CAP
1 *2378:A1 0
2 *2077:B 0.000154319
3 *2379:B 0
4 *2071:X 0.00114869
5 *462:18 0.000236348
6 *462:12 0.00123072
7 *2077:B *2379:C 4.87466e-05
8 *2077:B *467:18 0.000139238
9 *2077:B *468:8 0.000139238
10 *2077:B *837:81 4.88702e-05
11 *2077:B *837:113 0.000261321
12 *462:12 *2077:C 8.7152e-06
13 *462:12 *2384:A1_N 4.99619e-05
14 *462:12 *466:10 9.14049e-05
15 *462:12 *466:27 7.57315e-05
16 *462:18 *2371:A1 0
17 *462:18 *2379:C 0.000199229
18 *462:18 *837:81 5.5694e-05
19 *1999:A *462:12 0.000242646
20 *2051:A *462:12 0.000200615
21 *2074:A1 *462:12 9.51192e-05
22 *2379:A *462:18 0.000124007
23 *2382:B1 *462:12 5.05437e-05
24 *248:44 *462:12 0.000162738
25 *390:8 *462:12 0.000118081
*RES
1 *2071:X *462:12 24.5 
2 *462:12 *462:18 2.895 
3 *462:18 *2379:B 1.6 
4 *462:18 *2077:B 10.565 
5 *462:12 *2378:A1 1.6 
*END

*D_NET *463 0.00143375
*CONN
*I *2073:B I *D sky130_fd_sc_hd__nand2_1
*I *2369:A1 I *D sky130_fd_sc_hd__o211ai_2
*I *2368:A1 I *D sky130_fd_sc_hd__o21a_1
*I *2072:Y O *D sky130_fd_sc_hd__nand2b_1
*CAP
1 *2073:B 9.87102e-05
2 *2369:A1 8.03649e-05
3 *2368:A1 5.77825e-05
4 *2072:Y 8.33891e-05
5 *463:17 0.000179075
6 *463:6 0.000141172
7 *2073:B *2075:B1 4.82863e-05
8 *2073:B *823:58 4.31189e-05
9 *2369:A1 *823:58 0.000136523
10 *2058:B *2369:A1 0
11 *2070:A *2073:B 8.49205e-05
12 *2072:A_N *2073:B 2.07184e-05
13 *2072:A_N *2368:A1 4.66108e-05
14 *2072:A_N *2369:A1 5.39961e-05
15 *2072:B *2368:A1 3.40163e-05
16 *2072:B *463:6 2.08258e-07
17 *2073:A *2073:B 1.88749e-05
18 *2074:B2 *463:6 2.75229e-05
19 *2375:B1 *2073:B 0.000114492
20 *2375:B1 *2369:A1 0.000159964
21 *458:21 *2368:A1 4.00541e-06
*RES
1 *2072:Y *463:6 2.74 
2 *463:6 *2368:A1 2.755 
3 *463:6 *463:17 2 
4 *463:17 *2369:A1 6 
5 *463:17 *2073:B 6.39 
*END

*D_NET *464 0.000669286
*CONN
*I *2075:B1 I *D sky130_fd_sc_hd__o2bb2a_1
*I *2073:Y O *D sky130_fd_sc_hd__nand2_1
*CAP
1 *2075:B1 0.000121276
2 *2073:Y 0.000121276
3 *2054:B *2075:B1 3.83041e-05
4 *2070:A *2075:B1 0.000194325
5 *2073:A *2075:B1 3.00381e-05
6 *2073:B *2075:B1 4.82863e-05
7 *2074:A2 *2075:B1 8.8266e-05
8 *2074:B1 *2075:B1 2.75145e-05
*RES
1 *2073:Y *2075:B1 6.755 
*END

*D_NET *465 0.000472051
*CONN
*I *2075:A2_N I *D sky130_fd_sc_hd__o2bb2a_1
*I *2074:X O *D sky130_fd_sc_hd__a22o_1
*CAP
1 *2075:A2_N 0.000174351
2 *2074:X 0.000174351
3 *2054:B *2075:A2_N 8.9995e-05
4 *2074:A2 *2075:A2_N 5.83121e-06
5 *2075:A1_N *2075:A2_N 2.75229e-05
*RES
1 *2074:X *2075:A2_N 5.375 
*END

*D_NET *466 0.00353617
*CONN
*I *2077:C I *D sky130_fd_sc_hd__nand3b_4
*I *2378:A2 I *D sky130_fd_sc_hd__a21o_1
*I *2379:C I *D sky130_fd_sc_hd__nand3_1
*I *2075:X O *D sky130_fd_sc_hd__o2bb2a_1
*CAP
1 *2077:C 0.000200491
2 *2378:A2 0
3 *2379:C 0.000263838
4 *2075:X 0.000398149
5 *466:27 0.000218928
6 *466:10 0.000680423
7 *2077:C *681:38 0.000116853
8 *2077:C *844:47 0.000144833
9 *2379:C *837:81 8.73389e-06
10 *466:10 *844:51 0.000245199
11 *466:27 *844:47 7.9642e-06
12 *466:27 *844:51 6.66005e-05
13 *1992:A *2077:C 4.66108e-05
14 *1992:B *2077:C 4.82863e-05
15 *1999:A *2077:C 1.51394e-05
16 *1999:A *466:10 1.07797e-05
17 *1999:B *466:10 0
18 *2000:A *2077:C 0.000123436
19 *2054:B *466:10 3.09088e-05
20 *2076:A2 *2077:C 0.000259539
21 *2077:B *2379:C 4.87466e-05
22 *248:29 *466:10 6.97118e-05
23 *248:40 *466:10 7.35729e-05
24 *383:6 *2077:C 8.23457e-05
25 *462:12 *2077:C 8.7152e-06
26 *462:12 *466:10 9.14049e-05
27 *462:12 *466:27 7.57315e-05
28 *462:18 *2379:C 0.000199229
*RES
1 *2075:X *466:10 10.065 
2 *466:10 *2379:C 7.89 
3 *466:10 *466:27 0.87 
4 *466:27 *2378:A2 3.6 
5 *466:27 *2077:C 9.39 
*END

*D_NET *467 0.00853321
*CONN
*I *2078:A I *D sky130_fd_sc_hd__and2_1
*I *2083:A1 I *D sky130_fd_sc_hd__a2111o_1
*I *2409:A1 I *D sky130_fd_sc_hd__a211o_1
*I *2082:A1 I *D sky130_fd_sc_hd__a211o_1
*I *2080:A1 I *D sky130_fd_sc_hd__a21o_1
*I *2402:A1 I *D sky130_fd_sc_hd__a2111o_1
*I *2398:A1 I *D sky130_fd_sc_hd__a211o_1
*I *2394:A1 I *D sky130_fd_sc_hd__a21o_1
*I *2076:X O *D sky130_fd_sc_hd__a31o_2
*CAP
1 *2078:A 0
2 *2083:A1 0.000276803
3 *2409:A1 0.000202649
4 *2082:A1 1.85694e-05
5 *2080:A1 0.00039024
6 *2402:A1 4.03339e-05
7 *2398:A1 1.55346e-05
8 *2394:A1 0.000103056
9 *2076:X 0.000328689
10 *467:89 0.000490527
11 *467:78 0.000425982
12 *467:54 0.000477398
13 *467:52 0.000735667
14 *467:41 0.000489877
15 *467:22 0.00032931
16 *467:18 0.000373107
17 *2080:A1 *2080:A2 0.000335365
18 *2080:A1 *2410:B 1.47347e-05
19 *2080:A1 *468:27 4.66108e-05
20 *2080:A1 *468:40 0.000152328
21 *2082:A1 *2083:A2 9.53428e-06
22 *2082:A1 *843:56 0
23 *2083:A1 *2082:B1 3.09233e-05
24 *2083:A1 *2083:C1 5.7344e-05
25 *2083:A1 *2416:B 0
26 *2083:A1 *2417:B1 0.000268745
27 *2083:A1 *468:77 1.26626e-05
28 *2083:A1 *854:12 0
29 *2394:A1 *468:16 5.76508e-05
30 *2394:A1 *732:14 9.37731e-05
31 *2398:A1 *468:16 0
32 *2398:A1 *468:27 9.53428e-06
33 *2402:A1 *2402:A2 7.23533e-05
34 *2402:A1 *854:16 0
35 *2409:A1 *2082:B1 4.21314e-05
36 *2409:A1 *2409:A2 8.7373e-06
37 *2409:A1 *2409:B1 9.71067e-05
38 *2409:A1 *468:77 0.000109903
39 *2409:A1 *472:18 3.88371e-05
40 *467:18 *2395:B 1.34361e-05
41 *467:18 *468:8 0.00029225
42 *467:18 *732:10 0
43 *467:18 *824:22 0.000257708
44 *467:22 *468:8 9.50342e-06
45 *467:22 *468:16 0.000154488
46 *467:22 *732:14 0.000162332
47 *467:41 *468:16 0.000122331
48 *467:41 *468:23 9.46379e-05
49 *467:41 *468:27 1.91597e-05
50 *467:52 *468:27 0.000316424
51 *467:54 *2402:A2 2.92496e-05
52 *467:54 *468:44 0
53 *467:54 *854:16 0
54 *467:78 *2083:A2 2.75229e-05
55 *467:78 *468:44 0
56 *467:78 *468:77 0
57 *467:78 *843:56 0.000237249
58 *467:78 *854:12 7.75412e-05
59 *467:78 *854:16 0
60 *467:89 *2083:A2 2.75145e-05
61 *467:89 *843:56 3.66286e-05
62 *1993:B1 *467:18 1.54318e-05
63 *2077:B *467:18 0.000139238
64 *2394:B1 *2394:A1 5.83121e-06
65 *2395:A *467:18 0.000140905
66 *2398:B1 *467:52 4.66108e-05
67 *2411:B2 *2409:A1 1.88656e-05
68 *253:12 *467:78 5.72091e-05
69 *253:18 *467:18 4.66742e-05
70 *253:20 *2394:A1 8.09021e-06
71 *253:26 *2394:A1 2.03578e-05
*RES
1 *2076:X *467:18 14.81 
2 *467:18 *467:22 3.89 
3 *467:22 *2394:A1 5.52 
4 *467:22 *467:41 5.33 
5 *467:41 *2398:A1 1.96 
6 *467:41 *467:52 7.625 
7 *467:52 *467:54 0.87 
8 *467:54 *2402:A1 4.47 
9 *467:54 *2080:A1 8.88 
10 *467:52 *467:78 10.145 
11 *467:78 *2082:A1 1.96 
12 *467:78 *467:89 2.45 
13 *467:89 *2409:A1 7.70953 
14 *467:89 *2083:A1 7.755 
15 *467:18 *2078:A 1.6 
*END

*D_NET *468 0.00729126
*CONN
*I *2078:B I *D sky130_fd_sc_hd__and2_1
*I *2398:A2 I *D sky130_fd_sc_hd__a211o_1
*I *2080:A2 I *D sky130_fd_sc_hd__a21o_1
*I *2083:A2 I *D sky130_fd_sc_hd__a2111o_1
*I *2082:A2 I *D sky130_fd_sc_hd__a211o_1
*I *2409:A2 I *D sky130_fd_sc_hd__a211o_1
*I *2402:A2 I *D sky130_fd_sc_hd__a2111o_1
*I *2394:A2 I *D sky130_fd_sc_hd__a21o_1
*I *2077:Y O *D sky130_fd_sc_hd__nand3b_4
*CAP
1 *2078:B 0
2 *2398:A2 0
3 *2080:A2 0.000127963
4 *2083:A2 0.000290141
5 *2082:A2 0
6 *2409:A2 0.000270018
7 *2402:A2 8.98609e-05
8 *2394:A2 0
9 *2077:Y 0.000142407
10 *468:77 0.000429656
11 *468:44 0.000653298
12 *468:40 0.000430062
13 *468:27 0.000537622
14 *468:23 0.000457102
15 *468:16 0.000195363
16 *468:8 0.000270096
17 *2080:A2 *2410:B 8.88715e-05
18 *2083:A2 *2415:A2 5.33085e-05
19 *2083:A2 *677:82 0.000136884
20 *2083:A2 *843:56 6.05134e-05
21 *2402:A2 *2412:A2 0
22 *2402:A2 *854:16 0
23 *2409:A2 *2409:B1 3.93964e-06
24 *2409:A2 *472:18 6.27194e-06
25 *2409:A2 *677:82 2.59981e-05
26 *468:8 *2396:B1 0.000120186
27 *468:8 *732:10 0.000147739
28 *468:8 *732:14 8.6099e-05
29 *468:44 *2412:A2 0
30 *468:77 *854:12 0
31 *2077:B *468:8 0.000139238
32 *2080:A1 *2080:A2 0.000335365
33 *2080:A1 *468:27 4.66108e-05
34 *2080:A1 *468:40 0.000152328
35 *2082:A1 *2083:A2 9.53428e-06
36 *2083:A1 *468:77 1.26626e-05
37 *2394:A1 *468:16 5.76508e-05
38 *2394:B1 *468:16 4.82863e-05
39 *2395:A *468:8 7.90356e-06
40 *2395:A *468:16 1.71013e-05
41 *2398:A1 *468:16 0
42 *2398:A1 *468:27 9.53428e-06
43 *2398:B1 *468:27 4.66108e-05
44 *2402:A1 *2402:A2 7.23533e-05
45 *2409:A1 *2409:A2 8.7373e-06
46 *2409:A1 *468:77 0.000109903
47 *2409:C1 *2409:A2 0.000176219
48 *2410:A *2080:A2 1.34594e-05
49 *2411:B2 *2409:A2 4.9968e-05
50 *2411:B2 *468:44 0
51 *2411:B2 *468:77 0
52 *2413:A *2083:A2 0.000122337
53 *2414:B2 *2083:A2 4.65721e-05
54 *253:20 *468:16 9.24049e-05
55 *467:18 *468:8 0.00029225
56 *467:22 *468:8 9.50342e-06
57 *467:22 *468:16 0.000154488
58 *467:41 *468:16 0.000122331
59 *467:41 *468:23 9.46379e-05
60 *467:41 *468:27 1.91597e-05
61 *467:52 *468:27 0.000316424
62 *467:54 *2402:A2 2.92496e-05
63 *467:54 *468:44 0
64 *467:78 *2083:A2 2.75229e-05
65 *467:78 *468:44 0
66 *467:78 *468:77 0
67 *467:89 *2083:A2 2.75145e-05
*RES
1 *2077:Y *468:8 9.825 
2 *468:8 *468:16 5.99 
3 *468:16 *2394:A2 1.6 
4 *468:16 *468:23 1.485 
5 *468:23 *468:27 6.675 
6 *468:27 *2402:A2 7.235 
7 *468:27 *468:40 1.485 
8 *468:40 *468:44 5.93 
9 *468:44 *2409:A2 15.68 
10 *468:44 *468:77 4.91 
11 *468:77 *2082:A2 1.6 
12 *468:77 *2083:A2 11.15 
13 *468:40 *2080:A2 5.17 
14 *468:23 *2398:A2 1.6 
15 *468:8 *2078:B 3.6 
*END

*D_NET *469 0.000432497
*CONN
*I *2395:B I *D sky130_fd_sc_hd__xnor2_1
*I *2078:X O *D sky130_fd_sc_hd__and2_1
*CAP
1 *2395:B 7.68126e-05
2 *2078:X 7.68126e-05
3 *2395:B *824:22 0.000143266
4 *2395:A *2395:B 0.00011852
5 *253:18 *2395:B 3.64998e-06
6 *467:18 *2395:B 1.34361e-05
*RES
1 *2078:X *2395:B 9.285 
*END

*D_NET *470 0.0039797
*CONN
*I *2083:B1 I *D sky130_fd_sc_hd__a2111o_1
*I *2082:B1 I *D sky130_fd_sc_hd__a211o_1
*I *2409:B1 I *D sky130_fd_sc_hd__a211o_1
*I *2080:B1 I *D sky130_fd_sc_hd__a21o_1
*I *2079:X O *D sky130_fd_sc_hd__or4_2
*CAP
1 *2083:B1 7.68042e-05
2 *2082:B1 2.07195e-05
3 *2409:B1 9.55273e-05
4 *2080:B1 2.61242e-05
5 *2079:X 0.00029524
6 *470:29 0.000232346
7 *470:25 0.00055724
8 *470:10 0.000685702
9 *2080:B1 *2410:B 4.66108e-05
10 *2082:B1 *472:18 7.47215e-05
11 *2083:B1 *2413:B 5.16418e-05
12 *2083:B1 *677:82 9.1566e-05
13 *2409:B1 *472:18 6.08134e-05
14 *470:10 *2407:A2 0
15 *470:10 *2408:B1 0
16 *470:10 *2411:A2 5.83121e-06
17 *470:10 *2411:B1 7.55313e-05
18 *470:10 *2412:B2 0.00011852
19 *470:10 *843:28 0
20 *470:25 *2408:B1 0
21 *470:25 *2411:B1 3.31204e-05
22 *470:25 *2412:B2 0.000203769
23 *470:25 *677:82 0.000147108
24 *470:25 *843:56 0.00015639
25 *470:29 *843:56 0.00015639
26 *2079:A *470:10 4.82863e-05
27 *2083:A1 *2082:B1 3.09233e-05
28 *2409:A1 *2082:B1 4.21314e-05
29 *2409:A1 *2409:B1 9.71067e-05
30 *2409:A2 *2409:B1 3.93964e-06
31 *2409:C1 *2409:B1 4.58294e-05
32 *2411:A1 *470:10 0.000262108
33 *2411:B2 *2083:B1 0.000224487
34 *2411:B2 *2409:B1 1.31732e-05
35 *2414:A1 *470:25 0
36 *257:19 *470:25 0
37 *257:28 *470:25 0
*RES
1 *2079:X *470:10 9.21 
2 *470:10 *2080:B1 4.05 
3 *470:10 *470:25 9.2 
4 *470:25 *470:29 3.485 
5 *470:29 *2409:B1 6.5025 
6 *470:29 *2082:B1 4.47 
7 *470:25 *2083:B1 8.255 
*END

*D_NET *471 0.000703204
*CONN
*I *2410:B I *D sky130_fd_sc_hd__xnor2_1
*I *2080:X O *D sky130_fd_sc_hd__a21o_1
*CAP
1 *2410:B 0.000104711
2 *2080:X 0.000104711
3 *2080:A1 *2410:B 1.47347e-05
4 *2080:A2 *2410:B 8.88715e-05
5 *2080:B1 *2410:B 4.66108e-05
6 *2410:A *2410:B 0.000343566
*RES
1 *2080:X *2410:B 6.41 
*END

*D_NET *472 0.00129224
*CONN
*I *2083:C1 I *D sky130_fd_sc_hd__a2111o_1
*I *2082:C1 I *D sky130_fd_sc_hd__a211o_1
*I *2081:X O *D sky130_fd_sc_hd__or2_1
*CAP
1 *2083:C1 0.000114919
2 *2082:C1 0
3 *2081:X 0.000219175
4 *472:18 0.000334093
5 *2083:C1 *2416:B 0
6 *2083:C1 *2417:B1 2.05056e-05
7 *2083:C1 *2418:B2 4.41506e-05
8 *472:18 *2413:B 1.88602e-05
9 *472:18 *677:82 1.08732e-05
10 *472:18 *839:16 0
11 *2082:B1 *472:18 7.47215e-05
12 *2083:A1 *2083:C1 5.7344e-05
13 *2409:A1 *472:18 3.88371e-05
14 *2409:A2 *472:18 6.27194e-06
15 *2409:B1 *472:18 6.08134e-05
16 *2409:C1 *472:18 2.8185e-05
17 *2411:B2 *2083:C1 7.99972e-05
18 *2411:B2 *472:18 0.000107636
19 *2416:A *2083:C1 4.66108e-05
20 *259:12 *2083:C1 2.92496e-05
*RES
1 *2081:X *472:18 7.6028 
2 *472:18 *2082:C1 3.6 
3 *472:18 *2083:C1 6.54 
*END

*D_NET *473 0.000312478
*CONN
*I *2416:B I *D sky130_fd_sc_hd__xnor2_1
*I *2082:X O *D sky130_fd_sc_hd__a211o_1
*CAP
1 *2416:B 0.000132096
2 *2082:X 0.000132096
3 *2416:B *854:12 0
4 *2083:A1 *2416:B 0
5 *2083:C1 *2416:B 0
6 *2416:A *2416:B 4.82863e-05
*RES
1 *2082:X *2416:B 9.285 
*END

*D_NET *474 0.00164193
*CONN
*I *2084:B I *D sky130_fd_sc_hd__nor2_1
*I *2419:B I *D sky130_fd_sc_hd__xnor2_1
*I *2243:A2 I *D sky130_fd_sc_hd__o21a_1
*I *2083:X O *D sky130_fd_sc_hd__a2111o_1
*CAP
1 *2084:B 0.000102928
2 *2419:B 9.28864e-05
3 *2243:A2 3.60003e-05
4 *2083:X 0.000210251
5 *474:10 0.000128887
6 *474:8 0.000313179
7 *2084:B *2243:B1 1.65105e-05
8 *2084:B *677:65 6.92253e-05
9 *2084:B *825:119 9.37731e-05
10 *2084:B *854:12 0
11 *2243:A2 *825:105 1.17309e-05
12 *474:8 *2418:B2 0.000137777
13 *474:8 *677:69 1.34361e-05
14 *474:8 *825:119 0.000252275
15 *474:8 *854:12 0
16 *2243:A1 *2419:B 4.41506e-05
17 *2420:A1 *474:8 5.12017e-06
18 *2717:A *2084:B 0.000113797
*RES
1 *2083:X *474:8 8.55 
2 *474:8 *474:10 2 
3 *474:10 *2243:A2 2.05 
4 *474:10 *2419:B 3.115 
5 *474:8 *2084:B 6.255 
*END

*D_NET *475 0.000854692
*CONN
*I *2085:A2 I *D sky130_fd_sc_hd__a21o_1
*I *2084:Y O *D sky130_fd_sc_hd__nor2_1
*CAP
1 *2085:A2 0.000159337
2 *2084:Y 0.000159337
3 *2085:A2 *2085:A1 0.000242068
4 *2085:A2 *745:8 8.57024e-05
5 *2085:A2 *844:8 2.03321e-05
6 *2629:A *2085:A2 0.000118339
7 *2717:A *2085:A2 6.95753e-05
*RES
1 *2084:Y *2085:A2 11.415 
*END

*D_NET *476 0.00416484
*CONN
*I *2128:A2 I *D sky130_fd_sc_hd__o21ai_1
*I *2132:A3 I *D sky130_fd_sc_hd__a31o_1
*I *2127:A_N I *D sky130_fd_sc_hd__and3b_1
*I *2087:B I *D sky130_fd_sc_hd__and2_1
*I *2086:X O *D sky130_fd_sc_hd__and3_1
*CAP
1 *2128:A2 0.000449373
2 *2132:A3 0.00021793
3 *2127:A_N 0
4 *2087:B 0
5 *2086:X 0.000149275
6 *476:34 0.000734335
7 *476:25 0.000255687
8 *476:12 0.000337931
9 *2128:A2 *2128:A1 7.23602e-05
10 *2128:A2 *2128:B1 4.12825e-05
11 *2128:A2 *2641:A 3.80606e-05
12 *2128:A2 *2642:A 2.46089e-05
13 *2128:A2 *2704:A 4.9968e-05
14 *2128:A2 *480:55 6.36438e-07
15 *2132:A3 *2704:A 0.000176647
16 *2132:A3 *480:23 7.09911e-05
17 *2132:A3 *480:55 8.39764e-05
18 *476:25 *2122:A_N 0.000160635
19 *476:25 *2129:B 1.34594e-05
20 *476:25 *2133:B 4.62478e-05
21 *476:25 *477:10 3.45679e-05
22 *476:25 *480:27 6.77501e-05
23 *476:25 *480:55 0
24 *476:34 *2127:C 7.22354e-05
25 *476:34 *2133:B 7.10578e-05
26 *2086:C *2128:A2 4.66108e-05
27 *2086:C *476:34 0.000312182
28 *2087:A *476:25 0.000427094
29 *2088:A *2132:A3 1.22676e-05
30 *2126:A1 *476:25 8.08429e-05
31 *2452:D *476:12 0
32 *2452:D *476:25 0
33 *196:28 *2128:A2 2.66586e-05
34 *196:28 *476:34 2.5441e-05
35 *198:14 *2128:A2 1.19928e-05
36 *199:23 *2132:A3 5.27353e-05
37 *269:36 *476:12 0
*RES
1 *2086:X *476:12 7.43 
2 *476:12 *2087:B 1.6 
3 *476:12 *476:25 10.045 
4 *476:25 *2127:A_N 1.6 
5 *476:25 *476:34 4.865 
6 *476:34 *2132:A3 8.595 
7 *476:34 *2128:A2 13.675 
*END

*D_NET *477 0.00328095
*CONN
*I *2129:A I *D sky130_fd_sc_hd__nor2_1
*I *2131:A2 I *D sky130_fd_sc_hd__a21oi_1
*I *2130:A2 I *D sky130_fd_sc_hd__o21ai_1
*I *2088:C I *D sky130_fd_sc_hd__and3_1
*I *2087:X O *D sky130_fd_sc_hd__and2_1
*CAP
1 *2129:A 0
2 *2131:A2 9.69396e-05
3 *2130:A2 0
4 *2088:C 0
5 *2087:X 0.000232601
6 *477:31 0.000188646
7 *477:20 0.000753169
8 *477:10 0.000894064
9 *2131:A2 *2130:B1 5.14739e-05
10 *2131:A2 *2131:B1 4.99619e-05
11 *477:10 *2091:C 2.46089e-05
12 *477:10 *2129:B 0.000110653
13 *477:10 *720:63 0
14 *477:20 *2129:B 4.18603e-06
15 *477:20 *2130:B1 1.14714e-05
16 *477:20 *2451:CLK 0
17 *477:20 *2455:D 6.55328e-05
18 *477:20 *720:6 0.000237243
19 *477:20 *720:10 0.000237243
20 *477:20 *720:43 0
21 *477:20 *720:63 0
22 *477:31 *2130:B1 0.000161162
23 *2088:A *2131:A2 1.16578e-05
24 *2088:A *477:31 4.21973e-05
25 *2519:D *477:10 0
26 *2661:A *2131:A2 7.35729e-05
27 *476:25 *477:10 3.45679e-05
*RES
1 *2087:X *477:10 7.815 
2 *477:10 *477:20 11.99 
3 *477:20 *2088:C 1.6 
4 *477:20 *477:31 2.325 
5 *477:31 *2130:A2 1.6 
6 *477:31 *2131:A2 4.135 
7 *477:10 *2129:A 3.6 
*END

*D_NET *478 0.00295331
*CONN
*I *2122:A_N I *D sky130_fd_sc_hd__and2b_1
*I *2091:A I *D sky130_fd_sc_hd__and3_1
*I *2088:X O *D sky130_fd_sc_hd__and3_1
*CAP
1 *2122:A_N 0.000217897
2 *2091:A 0.000289098
3 *2088:X 0.000401788
4 *478:12 0.000908783
5 *2091:A *2450:CLK 4.43682e-05
6 *2122:A_N *2091:C 0.000204449
7 *2122:A_N *2129:B 6.38722e-05
8 *2122:A_N *480:23 0
9 *2122:A_N *480:27 4.66108e-05
10 *478:12 *2451:CLK 0
11 *478:12 *2453:D 0
12 *478:12 *480:23 0.000365327
13 *2450:D *2091:A 0.000238919
14 *2452:D *2122:A_N 1.1561e-05
15 *476:25 *2122:A_N 0.000160635
*RES
1 *2088:X *478:12 12.305 
2 *478:12 *2091:A 5.515 
3 *478:12 *2122:A_N 10.505 
*END

*D_NET *479 0.00319557
*CONN
*I *2091:B I *D sky130_fd_sc_hd__and3_1
*I *2089:Y O *D sky130_fd_sc_hd__nand2_1
*CAP
1 *2091:B 0.00118188
2 *2089:Y 0.00118188
3 *2091:B *2277:B1 0
4 *2091:B *2450:CLK 2.16917e-05
5 *2091:B *2517:CLK 7.35729e-05
6 *2091:B *481:8 3.00901e-05
7 *2091:B *845:30 0.000352072
8 *2516:D *2091:B 6.95739e-05
9 *2517:D *2091:B 0.000253954
10 *268:8 *2091:B 1.19928e-05
11 *376:96 *2091:B 1.88602e-05
*RES
1 *2089:Y *2091:B 22.32 
*END

*D_NET *480 0.00659143
*CONN
*I *2128:B1 I *D sky130_fd_sc_hd__o21ai_1
*I *2127:B I *D sky130_fd_sc_hd__and3b_1
*I *2122:B I *D sky130_fd_sc_hd__and2b_1
*I *2091:C I *D sky130_fd_sc_hd__and3_1
*I *2130:B1 I *D sky130_fd_sc_hd__o21ai_1
*I *2090:Y O *D sky130_fd_sc_hd__nor2_1
*CAP
1 *2128:B1 0.000501988
2 *2127:B 5.18103e-05
3 *2122:B 0
4 *2091:C 0.000440879
5 *2130:B1 0.000120747
6 *2090:Y 0.000179197
7 *480:55 0.000666313
8 *480:27 0.000565168
9 *480:23 0.000494184
10 *480:10 0.000557325
11 *2091:C *2129:B 0
12 *2091:C *2450:CLK 2.39229e-05
13 *2091:C *2519:RESET_B 1.27043e-05
14 *2091:C *720:63 4.05358e-05
15 *2128:B1 *2704:A 4.06799e-05
16 *480:10 *2453:D 0
17 *480:10 *855:33 9.37731e-05
18 *480:10 *855:48 1.17309e-05
19 *480:23 *2133:B 5.02217e-05
20 *480:23 *2452:RESET_B 8.59365e-05
21 *480:23 *2453:D 0
22 *480:23 *855:33 0.000455298
23 *480:27 *2129:B 0.000198939
24 *480:55 *2133:B 9.15582e-05
25 *2086:C *2127:B 4.82863e-05
26 *2087:A *480:27 7.40016e-05
27 *2088:A *480:23 0
28 *2088:B *2130:B1 0.000123225
29 *2090:A *480:10 1.83847e-05
30 *2090:B *480:10 4.9253e-06
31 *2122:A_N *2091:C 0.000204449
32 *2122:A_N *480:23 0
33 *2122:A_N *480:27 4.66108e-05
34 *2126:A1 *2127:B 0
35 *2128:A2 *2128:B1 4.12825e-05
36 *2128:A2 *480:55 6.36438e-07
37 *2131:A2 *2130:B1 5.14739e-05
38 *2132:A3 *480:23 7.09911e-05
39 *2132:A3 *480:55 8.39764e-05
40 *2449:D *2127:B 8.53113e-06
41 *2449:D *2128:B1 7.23533e-05
42 *2452:D *2091:C 0.000246729
43 *198:14 *2128:B1 0.000182343
44 *476:25 *480:27 6.77501e-05
45 *476:25 *480:55 0
46 *477:10 *2091:C 2.46089e-05
47 *477:20 *2130:B1 1.14714e-05
48 *477:31 *2130:B1 0.000161162
49 *478:12 *480:23 0.000365327
*RES
1 *2090:Y *480:10 6.21 
2 *480:10 *2130:B1 6.48 
3 *480:10 *480:23 8.265 
4 *480:23 *480:27 5.21 
5 *480:27 *2091:C 16.935 
6 *480:27 *2122:B 1.6 
7 *480:23 *480:55 2.7825 
8 *480:55 *2127:B 4.5375 
9 *480:55 *2128:B1 10.5075 
*END

*D_NET *481 0.00260606
*CONN
*I *2120:B I *D sky130_fd_sc_hd__and2_1
*I *2092:A_N I *D sky130_fd_sc_hd__and2b_1
*I *2091:X O *D sky130_fd_sc_hd__and3_1
*CAP
1 *2120:B 0.000105037
2 *2092:A_N 0.000135014
3 *2091:X 0.000558876
4 *481:8 0.000798926
5 *2092:A_N *845:10 4.82919e-05
6 *2092:A_N *845:30 1.07797e-05
7 *2120:B *856:45 8.63511e-05
8 *481:8 *2517:CLK 3.72916e-05
9 *2091:B *481:8 3.00901e-05
10 *2246:A1 *2120:B 3.45252e-05
11 *2517:D *481:8 0.000176035
12 *268:14 *2092:A_N 0.000284665
13 *268:32 *2092:A_N 5.23362e-05
14 *268:32 *2120:B 8.28738e-05
15 *271:8 *2092:A_N 0.00012819
16 *271:8 *2120:B 3.67779e-05
*RES
1 *2091:X *481:8 10.605 
2 *481:8 *2092:A_N 7.74 
3 *481:8 *2120:B 5.88 
*END

*D_NET *482 0.00359092
*CONN
*I *2100:A I *D sky130_fd_sc_hd__or2_1
*I *2393:A1 I *D sky130_fd_sc_hd__o32ai_1
*I *2373:A I *D sky130_fd_sc_hd__nor2_2
*I *2092:X O *D sky130_fd_sc_hd__and2b_1
*CAP
1 *2100:A 0
2 *2393:A1 0.000170258
3 *2373:A 0.000108806
4 *2092:X 0.000133208
5 *482:12 0.000408269
6 *482:10 0.000262413
7 *2373:A *2373:B 4.55864e-06
8 *2373:A *2393:A2 8.41015e-06
9 *2373:A *717:379 0.000334445
10 *2373:A *826:172 1.93765e-05
11 *2373:A *844:8 1.0911e-05
12 *2373:A *854:12 1.94811e-05
13 *2393:A1 *677:22 8.79572e-05
14 *2393:A1 *824:6 2.75229e-05
15 *2393:A1 *824:221 4.92062e-05
16 *2393:A1 *825:10 0.000225492
17 *2393:A1 *825:16 8.53307e-05
18 *2393:A1 *826:172 0.000117097
19 *482:10 *2249:A2 0.000150309
20 *482:10 *2615:A 7.70424e-07
21 *482:10 *507:19 3.25831e-05
22 *482:10 *829:21 9.16315e-05
23 *482:10 *829:36 1.1561e-05
24 *482:10 *854:84 0.0001947
25 *482:12 *925:DIODE 0.000141606
26 *482:12 *2393:A2 0.000101747
27 *482:12 *2615:A 9.54407e-05
28 *482:12 *826:172 0.000192583
29 *482:12 *829:21 2.42236e-05
30 *2245:A1 *482:10 4.82863e-05
31 *2629:A *2373:A 0.000325612
32 *252:10 *2393:A1 9.84128e-05
33 *252:12 *2393:A1 8.7152e-06
*RES
1 *2092:X *482:10 7.575 
2 *482:10 *482:12 4.44 
3 *482:12 *2373:A 5.82413 
4 *482:12 *2393:A1 12.67 
5 *482:10 *2100:A 3.6 
*END

*D_NET *483 0.00173071
*CONN
*I *2423:A I *D sky130_fd_sc_hd__and2_1
*I *2424:B I *D sky130_fd_sc_hd__xnor2_1
*I *2093:Y O *D sky130_fd_sc_hd__nand2_1
*CAP
1 *2423:A 0
2 *2424:B 0.000334633
3 *2093:Y 9.37877e-05
4 *483:8 0.000428421
5 *2424:B *2423:B 0.000223026
6 *2424:B *2424:A 4.82863e-05
7 *2424:B *2559:CLK 8.71001e-05
8 *2424:B *859:53 2.06083e-05
9 *483:8 *2423:B 8.65905e-05
10 *2093:A *483:8 4.60584e-05
11 *2097:A_N *2424:B 0.000159747
12 *2558:D *483:8 5.05521e-05
13 *2559:D *2424:B 5.39718e-05
14 *263:8 *2424:B 3.47498e-05
15 *263:45 *2424:B 6.31804e-05
*RES
1 *2093:Y *483:8 3.79 
2 *483:8 *2424:B 14.57 
3 *483:8 *2423:A 1.6 
*END

*D_NET *484 0.00191407
*CONN
*I *2429:A2 I *D sky130_fd_sc_hd__a21o_1
*I *2096:B I *D sky130_fd_sc_hd__nand2_1
*I *2094:X O *D sky130_fd_sc_hd__and4_1
*CAP
1 *2429:A2 9.71884e-06
2 *2096:B 0.000480317
3 *2094:X 0.000135624
4 *484:10 0.00062566
5 *2096:B *2098:B 0.000241483
6 *2096:B *2427:B 2.49909e-05
7 *2096:B *2428:A0 4.82863e-05
8 *2096:B *2560:CLK 0
9 *2429:A2 *2560:CLK 4.82919e-05
10 *484:10 *2644:A 0
11 *484:10 *489:25 0
12 *2094:A *2096:B 3.69334e-05
13 *2094:A *484:10 4.62478e-05
14 *2096:A *2096:B 3.24894e-05
15 *2429:B1 *2429:A2 4.82919e-05
16 *2560:D *2096:B 0
17 *264:31 *2096:B 8.77073e-05
18 *267:10 *2096:B 0
19 *267:12 *2096:B 4.80285e-05
*RES
1 *2094:X *484:10 5.685 
2 *484:10 *2096:B 12.48 
3 *484:10 *2429:A2 4.05 
*END

*D_NET *485 0.00308561
*CONN
*I *2426:A I *D sky130_fd_sc_hd__and2_1
*I *2428:A1 I *D sky130_fd_sc_hd__mux2_1
*I *2427:B I *D sky130_fd_sc_hd__nor2_1
*I *2095:Y O *D sky130_fd_sc_hd__nand4_1
*CAP
1 *2426:A 0.000101948
2 *2428:A1 0.000219305
3 *2427:B 1.65033e-05
4 *2095:Y 3.26144e-05
5 *485:12 0.000559297
6 *485:6 0.000458051
7 *2426:A *2100:B 0
8 *2426:A *2121:A2 0
9 *2428:A1 *2100:B 0.000339893
10 *2428:A1 *2428:A0 8.65905e-05
11 *2428:A1 *2616:A 0.000559153
12 *2428:A1 *489:25 0.000242779
13 *2428:A1 *858:10 8.40213e-05
14 *485:12 *2100:B 0.000114492
15 *485:12 *2616:A 0.000116158
16 *2095:A *2426:A 0
17 *2095:A *485:6 7.00889e-06
18 *2096:A *2427:B 4.66108e-05
19 *2096:B *2427:B 2.49909e-05
20 *2121:A1 *485:12 4.65515e-05
21 *264:31 *2426:A 0
22 *269:25 *485:6 1.12578e-05
23 *269:25 *485:12 1.83847e-05
*RES
1 *2095:Y *485:6 2.05 
2 *485:6 *485:12 6.59 
3 *485:12 *2427:B 4.05 
4 *485:12 *2428:A1 11.82 
5 *485:6 *2426:A 6.98 
*END

*D_NET *486 0.00174862
*CONN
*I *2430:A I *D sky130_fd_sc_hd__and2_1
*I *2099:B I *D sky130_fd_sc_hd__nor2_4
*I *2096:Y O *D sky130_fd_sc_hd__nand2_1
*CAP
1 *2430:A 0.000179252
2 *2099:B 0.000156851
3 *2096:Y 0.000315668
4 *486:10 0.00065177
5 *2099:B *2430:B 0.000197066
6 *2430:A *857:12 0
7 *486:10 *2428:A0 0
8 *486:10 *2504:RESET_B 0
9 *486:10 *857:12 0
10 *486:10 *857:14 0
11 *2096:A *486:10 1.7386e-05
12 *2099:A *2099:B 5.4155e-06
13 *2428:S *2099:B 2.76356e-05
14 *2428:S *2430:A 6.23375e-05
15 *2428:S *486:10 3.25997e-05
16 *2561:D *2430:A 4.11198e-05
17 *2561:D *486:10 2.97004e-06
18 *266:19 *2099:B 5.85534e-05
*RES
1 *2096:Y *486:10 8.415 
2 *486:10 *2099:B 7.17 
3 *486:10 *2430:A 6.975 
*END

*D_NET *487 0.000598854
*CONN
*I *2098:B I *D sky130_fd_sc_hd__nand2_1
*I *2097:X O *D sky130_fd_sc_hd__and4b_1
*CAP
1 *2098:B 0.000111451
2 *2097:X 0.000111451
3 *2098:B *2426:B 0.000134469
4 *2096:A *2098:B 0
5 *2096:B *2098:B 0.000241483
*RES
1 *2097:X *2098:B 6.44 
*END

*D_NET *488 0.000193669
*CONN
*I *2121:A2 I *D sky130_fd_sc_hd__a21o_1
*I *2098:Y O *D sky130_fd_sc_hd__nand2_1
*CAP
1 *2121:A2 7.16588e-05
2 *2098:Y 7.16588e-05
3 *2121:A2 *2100:B 4.61658e-05
4 *2121:A2 *2121:B1 4.18603e-06
5 *2095:A *2121:A2 0
6 *2426:A *2121:A2 0
*RES
1 *2098:Y *2121:A2 8.58 
*END

*D_NET *489 0.0106193
*CONN
*I *2433:S I *D sky130_fd_sc_hd__mux2_1
*I *2432:S I *D sky130_fd_sc_hd__mux2_1
*I *2435:S I *D sky130_fd_sc_hd__mux2_1
*I *2436:S I *D sky130_fd_sc_hd__mux2_1
*I *2437:S I *D sky130_fd_sc_hd__mux2_1
*I *2438:S I *D sky130_fd_sc_hd__mux2_1
*I *2434:S I *D sky130_fd_sc_hd__mux2_1
*I *2431:S I *D sky130_fd_sc_hd__mux2_1
*I *2100:B I *D sky130_fd_sc_hd__or2_1
*I *2099:Y O *D sky130_fd_sc_hd__nor2_4
*CAP
1 *2433:S 0.000167766
2 *2432:S 1.67644e-05
3 *2435:S 0
4 *2436:S 0
5 *2437:S 2.08101e-05
6 *2438:S 0.000530314
7 *2434:S 0
8 *2431:S 0
9 *2100:B 0.000533529
10 *2099:Y 0
11 *489:65 0.00102793
12 *489:57 0.000615237
13 *489:53 0.000419731
14 *489:40 0.000613328
15 *489:36 0.000393825
16 *489:29 0.000140278
17 *489:25 0.000800752
18 *489:6 0.00107127
19 *2100:B *2121:B1 0
20 *2100:B *2392:A2_N 2.16917e-05
21 *2100:B *2560:CLK 0
22 *2100:B *2616:A 0.000388296
23 *2100:B *2617:A 4.43871e-06
24 *2100:B *587:8 4.82919e-05
25 *2100:B *837:30 4.66108e-05
26 *2100:B *837:48 4.66108e-05
27 *2100:B *843:120 7.00889e-06
28 *2100:B *854:8 8.76033e-05
29 *2100:B *854:10 0.000174519
30 *2100:B *854:12 0.000159957
31 *2433:S *717:164 2.75229e-05
32 *2433:S *858:19 0
33 *2433:S *858:36 0
34 *2438:S *2437:A1 1.1392e-05
35 *2438:S *2570:D 0
36 *2438:S *858:71 0
37 *489:25 *2560:CLK 0
38 *489:25 *2563:D 9.5433e-05
39 *489:25 *2644:A 5.72004e-05
40 *489:25 *858:10 3.68682e-05
41 *489:25 *858:19 7.87939e-05
42 *489:40 *2432:A1 0
43 *489:53 *2435:A1 6.27114e-05
44 *489:53 *861:53 8.71001e-05
45 *489:57 *861:53 8.77073e-05
46 *489:57 *861:60 6.5265e-05
47 *489:65 *2119:A1 0
48 *489:65 *2119:B2 0
49 *489:65 *2437:A1 2.50702e-05
50 *489:65 *2568:D 8.87196e-05
51 *489:65 *2569:RESET_B 0.00010153
52 *489:65 *861:60 0.000111821
53 *2112:B2 *489:40 0
54 *2114:A1 *489:40 6.64979e-05
55 *2116:A1 *489:57 8.97486e-05
56 *2116:A2 *489:57 0
57 *2116:B1 *489:57 0
58 *2121:A2 *2100:B 4.61658e-05
59 *2426:A *2100:B 0
60 *2428:A1 *2100:B 0.000339893
61 *2428:A1 *489:25 0.000242779
62 *2431:A0 *2432:S 4.82919e-05
63 *2431:A0 *489:29 8.8266e-05
64 *2431:A0 *489:36 0.000124895
65 *2435:A0 *489:53 8.8266e-05
66 *2525:D *489:65 5.78448e-05
67 *2651:A *489:25 0
68 *2651:A *489:29 0.000119631
69 *2653:A *489:65 0.000113255
70 *2656:A *489:40 0
71 *2656:A *489:53 0
72 *2670:A *2438:S 1.4399e-05
73 *2681:A *489:65 0.000164874
74 *2692:A *2433:S 0
75 *2692:A *489:29 8.09157e-05
76 *2692:A *489:40 0.000159755
77 *2718:A *2438:S 0
78 *166:10 *489:40 1.01661e-05
79 *166:10 *489:53 8.55971e-05
80 *167:10 *489:57 6.55406e-05
81 *168:8 *489:57 1.26626e-05
82 *168:8 *489:65 6.81426e-05
83 *170:12 *2438:S 0
84 *267:10 *2100:B 0.000143508
85 *269:12 *2100:B 0
86 *484:10 *489:25 0
87 *485:12 *2100:B 0.000114492
*RES
1 *2099:Y *489:6 3.6 
2 *489:6 *2100:B 18.465 
3 *489:6 *489:25 11.115 
4 *489:25 *489:29 4.865 
5 *489:29 *2431:S 1.6 
6 *489:29 *489:36 1.14 
7 *489:36 *489:40 8.48 
8 *489:40 *2434:S 3.6 
9 *489:40 *489:53 8.015 
10 *489:53 *489:57 6.185 
11 *489:57 *489:65 12.515 
12 *489:65 *2438:S 13.43 
13 *489:65 *2437:S 1.96 
14 *489:57 *2436:S 3.6 
15 *489:53 *2435:S 1.6 
16 *489:36 *2432:S 2.05 
17 *489:25 *2433:S 6.45 
*END

*D_NET *490 0.0024814
*CONN
*I *2321:A2 I *D sky130_fd_sc_hd__a311o_1
*I *2101:Y O *D sky130_fd_sc_hd__nor2_1
*CAP
1 *2321:A2 0.000907832
2 *2101:Y 0.000907832
3 *2321:A2 *2301:A1 0.000253432
4 *2321:A2 *2307:B 3.16057e-06
5 *2321:A2 *2321:A3 2.98807e-05
6 *2321:A2 *618:10 1.5253e-05
7 *2321:A2 *637:10 2.10024e-05
8 *2321:A1 *2321:A2 8.7152e-06
9 *2321:C1 *2321:A2 0.000334294
*RES
1 *2101:Y *2321:A2 11.2743 
*END

*D_NET *491 0.000798408
*CONN
*I *2104:A I *D sky130_fd_sc_hd__nor2_1
*I *2302:A I *D sky130_fd_sc_hd__or3b_1
*I *2102:X O *D sky130_fd_sc_hd__or4_1
*CAP
1 *2104:A 8.11707e-05
2 *2302:A 4.31968e-05
3 *2102:X 5.23393e-05
4 *491:8 0.000176707
5 *2104:A *917:DIODE 5.54551e-05
6 *2104:A *2104:B 0.000100544
7 *2302:A *2302:B 5.83121e-06
8 *2302:A *492:10 1.91597e-05
9 *2302:A *623:18 4.66108e-05
10 *491:8 *917:DIODE 1.01155e-05
11 *491:8 *2104:B 1.70935e-05
12 *491:8 *2307:B 2.05571e-05
13 *491:8 *618:10 5.34699e-05
14 *491:8 *623:18 0.000116158
15 *491:8 *637:10 0
*RES
1 *2102:X *491:8 5.235 
2 *491:8 *2302:A 4.395 
3 *491:8 *2104:A 5.745 
*END

*D_NET *492 0.00133472
*CONN
*I *2299:A I *D sky130_fd_sc_hd__or3b_1
*I *2104:B I *D sky130_fd_sc_hd__nor2_1
*I *2103:X O *D sky130_fd_sc_hd__or4_1
*CAP
1 *2299:A 0
2 *2104:B 0.000101511
3 *2103:X 0.00021932
4 *492:10 0.000320831
5 *2104:B *2302:C_N 8.65961e-05
6 *2104:B *615:71 0
7 *2104:B *634:12 0.000159269
8 *492:10 *2299:C_N 0
9 *492:10 *2302:B 7.68414e-06
10 *492:10 *2302:C_N 2.70346e-05
11 *492:10 *618:10 4.82919e-05
12 *492:10 *623:18 0.00022738
13 *2104:A *2104:B 0.000100544
14 *2302:A *492:10 1.91597e-05
15 *491:8 *2104:B 1.70935e-05
*RES
1 *2103:X *492:10 5.875 
2 *492:10 *2104:B 8.795 
3 *492:10 *2299:A 1.6 
*END

*D_NET *493 0.00252261
*CONN
*I *2298:B1 I *D sky130_fd_sc_hd__o21a_1
*I *2316:B1 I *D sky130_fd_sc_hd__o21a_1
*I *2305:B I *D sky130_fd_sc_hd__and4_1
*I *2320:B1 I *D sky130_fd_sc_hd__o21a_1
*I *2110:C_N I *D sky130_fd_sc_hd__or4bb_2
*I *2104:Y O *D sky130_fd_sc_hd__nor2_1
*CAP
1 *2298:B1 1.03516e-05
2 *2316:B1 0
3 *2305:B 0
4 *2320:B1 9.94619e-05
5 *2110:C_N 0
6 *2104:Y 8.72014e-05
7 *493:27 0.00014457
8 *493:20 0.000235443
9 *493:14 0.000265317
10 *493:8 0.000172535
11 *2320:B1 *2320:A2 0.000157588
12 *2320:B1 *624:8 0
13 *2320:B1 *637:10 2.75229e-05
14 *2320:B1 *731:24 0
15 *493:14 *615:71 0.000162332
16 *493:14 *634:12 6.74079e-05
17 *493:20 *2111:A 4.00541e-06
18 *493:20 *2305:C 0.000161148
19 *493:20 *2316:A1 0.000122325
20 *493:20 *499:6 0.000273872
21 *493:27 *2111:A 8.88081e-05
22 *493:27 *2305:C 0.00015639
23 *493:27 *499:6 1.91597e-05
24 *2110:A *493:20 4.99619e-05
25 *128:26 *2320:B1 4.99619e-05
26 *133:39 *2298:B1 7.50953e-06
27 *133:39 *493:8 0.000159741
*RES
1 *2104:Y *493:8 3.445 
2 *493:8 *493:14 5.89 
3 *493:14 *493:20 4.965 
4 *493:20 *2110:C_N 1.6 
5 *493:20 *493:27 1.485 
6 *493:27 *2320:B1 7.94 
7 *493:27 *2305:B 1.6 
8 *493:14 *2316:B1 1.6 
9 *493:8 *2298:B1 1.8175 
*END

*D_NET *494 0.00257058
*CONN
*I *2108:A I *D sky130_fd_sc_hd__or2_1
*I *2297:A_N I *D sky130_fd_sc_hd__and4bb_1
*I *2319:B_N I *D sky130_fd_sc_hd__and4bb_1
*I *2105:X O *D sky130_fd_sc_hd__or2_1
*CAP
1 *2108:A 0
2 *2297:A_N 0
3 *2319:B_N 0.00018873
4 *2105:X 0.000100893
5 *494:18 0.000344254
6 *494:10 0.000256417
7 *2319:B_N *2319:C 1.56428e-05
8 *2319:B_N *2488:RESET_B 0
9 *2319:B_N *2490:RESET_B 0.000372415
10 *2319:B_N *615:71 6.0011e-05
11 *494:10 *2109:A 5.98163e-05
12 *494:10 *495:14 8.65905e-05
13 *494:18 *2320:A2 0
14 *494:18 *2490:RESET_B 4.82863e-05
15 *494:18 *495:12 4.94404e-05
16 *2105:A *494:10 0.000186358
17 *2105:B *494:10 5.57182e-05
18 *2106:B *2319:B_N 0.000203178
19 *2106:B *494:18 3.66286e-05
20 *2200:B1 *494:10 4.9253e-06
21 *2200:B1 *494:18 0
22 *2319:D *2319:B_N 0.000104286
23 *129:6 *2319:B_N 1.16578e-05
24 *129:25 *2319:B_N 0.000385333
25 *130:14 *494:18 0
*RES
1 *2105:X *494:10 4.84 
2 *494:10 *494:18 6.595 
3 *494:18 *2319:B_N 8.65 
4 *494:18 *2297:A_N 1.6 
5 *494:10 *2108:A 1.6 
*END

*D_NET *495 0.00240744
*CONN
*I *2108:B I *D sky130_fd_sc_hd__or2_1
*I *2315:B_N I *D sky130_fd_sc_hd__and4bb_1
*I *2107:B I *D sky130_fd_sc_hd__nor2_1
*I *2106:X O *D sky130_fd_sc_hd__or2_1
*CAP
1 *2108:B 0
2 *2315:B_N 2.08101e-05
3 *2107:B 0.000175859
4 *2106:X 0.000166555
5 *495:14 0.000233512
6 *495:12 0.000203399
7 *2107:B *2295:C 0.000363509
8 *2107:B *497:18 2.8185e-05
9 *2107:B *615:22 2.05056e-05
10 *495:12 *2320:A2 0
11 *2105:A *2107:B 8.82557e-05
12 *2105:A *495:14 8.96017e-05
13 *2105:B *2107:B 1.08758e-05
14 *2105:B *2315:B_N 0
15 *2105:B *495:14 0.000228937
16 *2107:A *2107:B 4.82863e-05
17 *130:14 *495:12 7.66083e-05
18 *130:16 *495:12 4.82919e-05
19 *131:6 *2107:B 2.75145e-05
20 *131:15 *2107:B 4.30304e-05
21 *140:29 *2107:B 1.91597e-05
22 *141:39 *2107:B 0.000378513
23 *494:10 *495:14 8.65905e-05
24 *494:18 *495:12 4.94404e-05
*RES
1 *2106:X *495:12 8.12 
2 *495:12 *495:14 2.175 
3 *495:14 *2107:B 7.57 
4 *495:14 *2315:B_N 1.96 
5 *495:12 *2108:B 1.6 
*END

*D_NET *496 0.00167819
*CONN
*I *2305:C I *D sky130_fd_sc_hd__and4_1
*I *2107:Y O *D sky130_fd_sc_hd__nor2_1
*CAP
1 *2305:C 0.000318552
2 *2107:Y 0.000318552
3 *2305:C *2111:A 2.16917e-05
4 *2305:C *2305:D 0.00030221
5 *2305:C *2316:A1 0.000122325
6 *2305:C *2316:A2 2.30292e-05
7 *2305:C *615:71 4.7043e-05
8 *2110:A *2305:C 4.66108e-05
9 *2110:B *2305:C 0.000160635
10 *493:20 *2305:C 0.000161148
11 *493:27 *2305:C 0.00015639
*RES
1 *2107:Y *2305:C 15.6 
*END

*D_NET *497 0.00366701
*CONN
*I *2109:A I *D sky130_fd_sc_hd__inv_2
*I *2299:B I *D sky130_fd_sc_hd__or3b_1
*I *2302:B I *D sky130_fd_sc_hd__or3b_1
*I *2108:X O *D sky130_fd_sc_hd__or2_1
*CAP
1 *2109:A 0.000312854
2 *2299:B 0
3 *2302:B 0.000119121
4 *2108:X 0
5 *497:18 0.000875983
6 *497:4 0.00106972
7 *2109:A *731:24 9.50342e-06
8 *2302:B *2302:C_N 4.21973e-05
9 *2302:B *634:12 4.82919e-05
10 *497:18 *2110:D_N 7.23533e-05
11 *497:18 *2295:C 7.23602e-05
12 *497:18 *2298:A2 2.82154e-05
13 *497:18 *2306:A 7.06865e-05
14 *497:18 *2312:A2 3.23391e-05
15 *497:18 *2320:A2 4.24292e-06
16 *497:18 *499:10 6.03272e-05
17 *497:18 *634:12 0.000370212
18 *2105:B *2109:A 0.000122155
19 *2105:B *497:18 4.47209e-05
20 *2107:B *497:18 2.8185e-05
21 *2302:A *2302:B 5.83121e-06
22 *2305:A *497:18 7.98967e-05
23 *2309:B *497:18 4.01019e-05
24 *128:10 *2109:A 0
25 *128:26 *497:18 1.15399e-05
26 *128:49 *497:18 3.20651e-05
27 *140:29 *497:18 4.66108e-05
28 *492:10 *2302:B 7.68414e-06
29 *494:10 *2109:A 5.98163e-05
*RES
1 *2108:X *497:4 1.6 
2 *497:4 *497:18 15.58 
3 *497:18 *2302:B 3.085 
4 *497:18 *2299:B 1.6 
5 *497:4 *2109:A 10.1 
*END

*D_NET *498 0.00261871
*CONN
*I *2295:C I *D sky130_fd_sc_hd__and3_1
*I *2110:D_N I *D sky130_fd_sc_hd__or4bb_2
*I *2109:Y O *D sky130_fd_sc_hd__inv_2
*CAP
1 *2295:C 0.000166094
2 *2110:D_N 2.70115e-05
3 *2109:Y 0.000402543
4 *498:8 0.000595649
5 *2110:D_N *2305:D 3.09233e-05
6 *2295:C *2297:D 5.02892e-05
7 *2295:C *2305:D 0.000105537
8 *2295:C *2320:A2 0
9 *498:8 *2111:A 5.33172e-05
10 *498:8 *2305:D 0.000270415
11 *498:8 *731:24 3.64998e-06
12 *2105:A *2295:C 8.23457e-05
13 *2107:B *2295:C 0.000363509
14 *2110:A *2110:D_N 1.53032e-05
15 *2110:A *2295:C 7.14699e-05
16 *2305:A *2295:C 8.12462e-06
17 *2491:D *498:8 3.83895e-05
18 *131:15 *2295:C 0.000182265
19 *140:16 *2295:C 3.63701e-06
20 *143:10 *498:8 3.52139e-06
21 *497:18 *2110:D_N 7.23533e-05
22 *497:18 *2295:C 7.23602e-05
*RES
1 *2109:Y *498:8 8.88 
2 *498:8 *2110:D_N 4.47 
3 *498:8 *2295:C 8.925 
*END

*D_NET *499 0.00432334
*CONN
*I *2111:A I *D sky130_fd_sc_hd__inv_2
*I *2312:B1 I *D sky130_fd_sc_hd__o32a_1
*I *2322:B1 I *D sky130_fd_sc_hd__o32a_1
*I *2301:B1 I *D sky130_fd_sc_hd__o21ai_1
*I *2325:B1 I *D sky130_fd_sc_hd__o32a_1
*I *2318:A2 I *D sky130_fd_sc_hd__o22a_1
*I *2110:X O *D sky130_fd_sc_hd__or4bb_2
*CAP
1 *2111:A 0.000218431
2 *2312:B1 2.61242e-05
3 *2322:B1 0
4 *2301:B1 1.79515e-05
5 *2325:B1 2.23845e-05
6 *2318:A2 0.000153774
7 *2110:X 0.000215555
8 *499:28 0.000275218
9 *499:22 0.000134106
10 *499:20 0.000189315
11 *499:10 0.000373026
12 *499:6 0.00060867
13 *2111:A *2305:D 1.61831e-05
14 *2301:B1 *2322:A3 4.87465e-06
15 *2318:A2 *2306:A 3.09164e-05
16 *2318:A2 *2318:B2 0.000181075
17 *2318:A2 *2322:A2 0
18 *2318:A2 *627:10 8.09021e-06
19 *2318:A2 *836:24 0
20 *2325:B1 *2306:D_N 4.82863e-05
21 *2325:B1 *2318:A1 1.91597e-05
22 *2325:B1 *2325:A2 8.40213e-05
23 *499:10 *2312:B2 8.53113e-06
24 *499:10 *2320:A2 6.10014e-05
25 *499:20 *2312:B2 4.39353e-05
26 *499:20 *2322:A3 3.40138e-05
27 *499:20 *2322:B2 0.00011668
28 *499:20 *620:8 5.83121e-06
29 *499:20 *836:24 6.95753e-05
30 *499:22 *2322:A3 1.91597e-05
31 *499:22 *620:8 2.49909e-05
32 *499:28 *2306:A 0.000195345
33 *499:28 *2318:B2 0.000185802
34 *499:28 *2322:A3 2.49909e-05
35 *499:28 *620:8 5.83121e-06
36 *2305:C *2111:A 2.16917e-05
37 *2317:A2 *2312:B1 4.66108e-05
38 *2317:A2 *499:10 0
39 *2491:D *2111:A 9.53428e-06
40 *2521:D *499:10 0
41 *2524:D *2318:A2 0
42 *128:26 *499:10 3.60648e-06
43 *128:49 *499:10 0.000157757
44 *128:49 *499:20 0.000113511
45 *143:10 *2111:A 4.82919e-05
46 *493:20 *2111:A 4.00541e-06
47 *493:20 *499:6 0.000273872
48 *493:27 *2111:A 8.88081e-05
49 *493:27 *499:6 1.91597e-05
50 *497:18 *499:10 6.03272e-05
51 *498:8 *2111:A 5.33172e-05
*RES
1 *2110:X *499:6 4.465 
2 *499:6 *499:10 5.675 
3 *499:10 *499:20 5.585 
4 *499:20 *499:22 0.45 
5 *499:22 *499:28 4.85 
6 *499:28 *2318:A2 6.45 
7 *499:28 *2325:B1 4.395 
8 *499:22 *2301:B1 1.96 
9 *499:20 *2322:B1 1.6 
10 *499:10 *2312:B1 4.05 
11 *499:6 *2111:A 5.635 
*END

*D_NET *500 0.00182374
*CONN
*I *2113:C1 I *D sky130_fd_sc_hd__a221o_1
*I *2112:X O *D sky130_fd_sc_hd__o22a_1
*CAP
1 *2113:C1 0.000443569
2 *2112:X 0.000443569
3 *2113:C1 *2114:C1 0.000413995
4 *2113:C1 *2564:D 0.000118513
5 *2113:C1 *2565:CLK 8.40213e-05
6 *2113:C1 *717:164 6.97943e-06
7 *2113:C1 *723:16 0
8 *2113:C1 *723:92 0
9 *2112:A2 *2113:C1 1.96006e-05
10 *2112:B1 *2113:C1 2.16833e-05
11 *2112:B2 *2113:C1 2.75229e-05
12 *2113:A1 *2113:C1 0.000180248
13 *2113:B2 *2113:C1 7.21296e-06
14 *2659:A *2113:C1 8.53113e-06
15 *173:14 *2113:C1 4.82919e-05
*RES
1 *2112:X *2113:C1 15.87 
*END

*D_NET *501 0.00222306
*CONN
*I *2114:C1 I *D sky130_fd_sc_hd__o221a_1
*I *2113:X O *D sky130_fd_sc_hd__a221o_1
*CAP
1 *2114:C1 0.000514312
2 *2113:X 0.000514312
3 *2114:C1 *2563:RESET_B 4.82863e-05
4 *2114:C1 *2565:CLK 4.24292e-06
5 *1971:A *2114:C1 0
6 *2112:A1 *2114:C1 8.44359e-05
7 *2113:A1 *2114:C1 5.05437e-05
8 *2113:A2 *2114:C1 6.8725e-06
9 *2113:B2 *2114:C1 0.000118292
10 *2113:C1 *2114:C1 0.000413995
11 *2114:B1 *2114:C1 2.03321e-05
12 *2650:A *2114:C1 0.000227529
13 *2659:A *2114:C1 0.000210329
14 *144:28 *2114:C1 9.5753e-06
*RES
1 *2113:X *2114:C1 18.27 
*END

*D_NET *502 0.0011954
*CONN
*I *2115:C1 I *D sky130_fd_sc_hd__a221o_1
*I *2114:X O *D sky130_fd_sc_hd__o221a_1
*CAP
1 *2115:C1 0.00030429
2 *2114:X 0.00030429
3 *2115:C1 *2566:RESET_B 6.95505e-05
4 *2115:C1 *861:53 0
5 *2114:A1 *2115:C1 5.30673e-05
6 *2114:A2 *2115:C1 0.000464203
7 *166:10 *2115:C1 0
*RES
1 *2114:X *2115:C1 13.8 
*END

*D_NET *503 0.000359735
*CONN
*I *2116:C1 I *D sky130_fd_sc_hd__o221a_1
*I *2115:X O *D sky130_fd_sc_hd__a221o_1
*CAP
1 *2116:C1 0.000125794
2 *2115:X 0.000125794
3 *2116:C1 *724:42 7.63125e-05
4 *2526:D *2116:C1 0
5 *360:8 *2116:C1 3.1835e-05
*RES
1 *2115:X *2116:C1 9.63 
*END

*D_NET *504 0.00080602
*CONN
*I *2117:C1 I *D sky130_fd_sc_hd__a221o_1
*I *2116:X O *D sky130_fd_sc_hd__o221a_1
*CAP
1 *2117:C1 8.38032e-05
2 *2116:X 8.38032e-05
3 *2116:A1 *2117:C1 0.000116158
4 *2116:A2 *2117:C1 0.000117825
5 *2117:B2 *2117:C1 0.000198293
6 *168:8 *2117:C1 0.000206137
*RES
1 *2116:X *2117:C1 10.875 
*END

*D_NET *505 0.00068526
*CONN
*I *2119:B1 I *D sky130_fd_sc_hd__a22o_1
*I *2117:X O *D sky130_fd_sc_hd__a221o_1
*CAP
1 *2119:B1 0.000149377
2 *2117:X 0.000149377
3 *2119:B1 *2119:B2 4.75576e-05
4 *2119:B1 *724:42 0.000178314
5 *2117:B2 *2119:B1 0
6 *2119:A2 *2119:B1 0.000160635
7 *168:8 *2119:B1 0
*RES
1 *2117:X *2119:B1 10.83 
*END

*D_NET *506 0.000454344
*CONN
*I *2119:B2 I *D sky130_fd_sc_hd__a22o_1
*I *2118:X O *D sky130_fd_sc_hd__o22a_1
*CAP
1 *2119:B2 0.000163507
2 *2118:X 0.000163507
3 *2119:B2 *2119:A1 4.18603e-06
4 *2119:B2 *724:42 9.3062e-06
5 *2117:A2 *2119:B2 5.81888e-05
6 *2118:B1 *2119:B2 8.09157e-06
7 *2119:B1 *2119:B2 4.75576e-05
8 *2525:D *2119:B2 0
9 *489:65 *2119:B2 0
*RES
1 *2118:X *2119:B2 9.72 
*END

*D_NET *507 0.0133233
*CONN
*I *2121:B1 I *D sky130_fd_sc_hd__a21o_1
*I *2245:B1_N I *D sky130_fd_sc_hd__o21ba_1
*I *2249:A2 I *D sky130_fd_sc_hd__a32o_1
*I *2246:B1_N I *D sky130_fd_sc_hd__o21bai_1
*I *2120:X O *D sky130_fd_sc_hd__and2_1
*CAP
1 *2121:B1 0.000112179
2 *2245:B1_N 0
3 *2249:A2 0.00344338
4 *2246:B1_N 6.27124e-05
5 *2120:X 0
6 *507:19 0.00363669
7 *507:8 0.000479068
8 *507:4 0.000335227
9 *2246:B1_N *2246:A2 0.00012657
10 *2246:B1_N *856:55 2.05056e-05
11 *2249:A2 *2278:A1 4.51417e-05
12 *2249:A2 *2613:A 2.60986e-05
13 *2249:A2 *2615:A 0.000101876
14 *2249:A2 *532:20 0
15 *2249:A2 *717:379 0
16 *2249:A2 *802:31 0
17 *2249:A2 *819:22 0.00021649
18 *2249:A2 *819:26 9.79957e-05
19 *2249:A2 *821:16 0.000424005
20 *2249:A2 *826:22 7.28759e-05
21 *2249:A2 *836:62 0.000185377
22 *507:8 *856:55 9.80943e-06
23 *507:19 *2246:A2 0
24 *507:19 *2613:A 0.000161573
25 *507:19 *2616:A 0
26 *507:19 *829:36 8.48367e-05
27 *2004:B1 *2249:A2 0.000295959
28 *2039:A *2249:A2 0.000429592
29 *2095:A *2121:B1 0
30 *2100:B *2121:B1 0
31 *2121:A2 *2121:B1 4.18603e-06
32 *2246:A1 *2121:B1 3.83041e-05
33 *2246:A1 *507:8 0.000399106
34 *2278:A2 *2249:A2 0.000717738
35 *2629:A *2249:A2 0
36 *1:15 *2249:A2 0.0007394
37 *269:12 *2121:B1 0.00013994
38 *372:16 *2249:A2 2.91013e-05
39 *372:33 *2249:A2 0.000181285
40 *376:77 *2249:A2 1.63614e-05
41 *376:96 *2249:A2 0.00011327
42 *434:22 *2249:A2 0.000393805
43 *482:10 *2249:A2 0.000150309
44 *482:10 *507:19 3.25831e-05
*RES
1 *2120:X *507:4 1.6 
2 *507:4 *507:8 4.26 
3 *507:8 *2246:B1_N 3.085 
4 *507:8 *507:19 6.44 
5 *507:19 *2249:A2 14.9069 
6 *507:19 *2245:B1_N 3.6 
7 *507:4 *2121:B1 7.94 
*END

*D_NET *508 0.00185652
*CONN
*I *2123:B I *D sky130_fd_sc_hd__and2b_1
*I *2124:B1 I *D sky130_fd_sc_hd__o21ai_1
*I *2133:A I *D sky130_fd_sc_hd__and2_1
*I *2122:X O *D sky130_fd_sc_hd__and2b_1
*CAP
1 *2123:B 6.61417e-05
2 *2124:B1 3.97419e-05
3 *2133:A 2.97903e-05
4 *2122:X 0.000124193
5 *508:21 0.000165351
6 *508:10 0.000213451
7 *2123:B *2125:B1 0.000163992
8 *2124:B1 *2449:CLK 2.05056e-05
9 *2133:A *2133:B 4.92062e-05
10 *2086:A *508:10 1.34361e-05
11 *2086:C *2133:A 0.000122337
12 *2087:A *508:10 8.8266e-05
13 *2124:A2 *2124:B1 5.83121e-06
14 *2125:A2 *2123:B 5.16418e-05
15 *2126:A1 *2123:B 1.52184e-05
16 *2126:A1 *508:10 6.99978e-05
17 *2126:A1 *508:21 8.5225e-05
18 *2452:D *508:10 7.4027e-05
19 *196:28 *2133:A 2.06853e-05
20 *196:28 *508:10 3.09233e-05
21 *196:28 *508:21 4.21314e-05
22 *196:39 *508:21 7.06865e-05
23 *196:50 *2123:B 0.00017354
24 *196:50 *508:21 5.4003e-05
25 *197:10 *2123:B 1.79098e-05
26 *197:16 *2124:B1 4.82919e-05
*RES
1 *2122:X *508:10 6.03 
2 *508:10 *2133:A 4.74 
3 *508:10 *508:21 1.89 
4 *508:21 *2124:B1 4.395 
5 *508:21 *2123:B 6.255 
*END

*D_NET *509 0.00112687
*CONN
*I *2125:B1 I *D sky130_fd_sc_hd__a21oi_1
*I *2124:Y O *D sky130_fd_sc_hd__o21ai_1
*CAP
1 *2125:B1 0.000216389
2 *2124:Y 0.000216389
3 *2125:B1 *2449:CLK 4.82863e-05
4 *2123:B *2125:B1 0.000163992
5 *2125:A2 *2125:B1 0.000194472
6 *2662:A *2125:B1 0
7 *197:10 *2125:B1 0.000287344
*RES
1 *2124:Y *2125:B1 12.855 
*END

*D_NET *510 0.00024626
*CONN
*I *2127:C I *D sky130_fd_sc_hd__and3b_1
*I *2126:X O *D sky130_fd_sc_hd__a21o_1
*CAP
1 *2127:C 2.50091e-05
2 *2126:X 2.50091e-05
3 *196:28 *2127:C 0.000124007
4 *476:34 *2127:C 7.22354e-05
*RES
1 *2126:X *2127:C 4.34 
*END

*D_NET *511 0.0017591
*CONN
*I *2704:A I *D sky130_fd_sc_hd__dlygate4sd3_1
*I *2128:Y O *D sky130_fd_sc_hd__o21ai_1
*CAP
1 *2704:A 0.000511882
2 *2128:Y 0.000511882
3 *2704:A *855:8 0
4 *2087:A *2704:A 4.66108e-05
5 *2126:A1 *2704:A 7.23602e-05
6 *2128:A2 *2704:A 4.9968e-05
7 *2128:B1 *2704:A 4.06799e-05
8 *2132:A3 *2704:A 0.000176647
9 *196:12 *2704:A 2.84137e-05
10 *198:14 *2704:A 0.000305435
11 *199:23 *2704:A 1.52184e-05
*RES
1 *2128:Y *2704:A 15.9 
*END

*D_NET *512 9.40065e-05
*CONN
*I *2131:B1 I *D sky130_fd_sc_hd__a21oi_1
*I *2130:Y O *D sky130_fd_sc_hd__o21ai_1
*CAP
1 *2131:B1 2.20223e-05
2 *2130:Y 2.20223e-05
3 *2131:A2 *2131:B1 4.99619e-05
*RES
1 *2130:Y *2131:B1 3.65 
*END

*D_NET *513 0.00122707
*CONN
*I *2133:B I *D sky130_fd_sc_hd__and2_1
*I *2132:X O *D sky130_fd_sc_hd__a31o_1
*CAP
1 *2133:B 0.000277509
2 *2132:X 0.000277509
3 *2133:B *2519:RESET_B 8.65905e-05
4 *2086:C *2133:B 9.80032e-06
5 *2133:A *2133:B 4.92062e-05
6 *196:28 *2133:B 0.000267369
7 *476:25 *2133:B 4.62478e-05
8 *476:34 *2133:B 7.10578e-05
9 *480:23 *2133:B 5.02217e-05
10 *480:55 *2133:B 9.15582e-05
*RES
1 *2132:X *2133:B 13.695 
*END

*D_NET *514 0.000584098
*CONN
*I *2138:B1 I *D sky130_fd_sc_hd__a31o_1
*I *2134:X O *D sky130_fd_sc_hd__a32o_1
*CAP
1 *2138:B1 7.73731e-05
2 *2134:X 7.73731e-05
3 *2138:B1 *2138:A2 0.00015896
4 *2138:B1 *2138:A3 4.08514e-05
5 *2134:A2 *2138:B1 0.000229541
6 *404:23 *2138:B1 0
*RES
1 *2134:X *2138:B1 5.735 
*END

*D_NET *515 0.000765919
*CONN
*I *2138:A1 I *D sky130_fd_sc_hd__a31o_1
*I *2135:X O *D sky130_fd_sc_hd__a221o_1
*CAP
1 *2138:A1 0.00013778
2 *2135:X 0.00013778
3 *2138:A1 *717:83 4.82919e-05
4 *2250:B2 *2138:A1 0.000284969
5 *434:45 *2138:A1 0.000157099
*RES
1 *2135:X *2138:A1 11.07 
*END

*D_NET *516 0.00245421
*CONN
*I *2138:A2 I *D sky130_fd_sc_hd__a31o_1
*I *2136:X O *D sky130_fd_sc_hd__or2_1
*CAP
1 *2138:A2 0.000279814
2 *2136:X 0.000279814
3 *2138:A2 *2138:A3 4.66108e-05
4 *2138:A2 *2250:A1 9.54551e-05
5 *2138:A2 *2589:A 0.000193017
6 *2134:A2 *2138:A2 1.91597e-05
7 *2136:B *2138:A2 0.000265759
8 *2137:B1 *2138:A2 0.000107825
9 *2138:B1 *2138:A2 0.00015896
10 *115:20 *2138:A2 4.66108e-05
11 *115:36 *2138:A2 4.66108e-05
12 *115:51 *2138:A2 4.66108e-05
13 *116:50 *2138:A2 0.000646704
14 *404:23 *2138:A2 8.43862e-05
15 *404:33 *2138:A2 0.000136877
*RES
1 *2136:X *2138:A2 18.015 
*END

*D_NET *517 0.000414506
*CONN
*I *2138:A3 I *D sky130_fd_sc_hd__a31o_1
*I *2137:X O *D sky130_fd_sc_hd__a21o_1
*CAP
1 *2138:A3 5.12417e-05
2 *2137:X 5.12417e-05
3 *2134:A2 *2138:A3 2.8185e-05
4 *2138:A2 *2138:A3 4.66108e-05
5 *2138:B1 *2138:A3 4.08514e-05
6 *404:23 *2138:A3 0.000196376
*RES
1 *2137:X *2138:A3 5.03 
*END

*D_NET *518 0.0019567
*CONN
*I *2141:A1 I *D sky130_fd_sc_hd__a21o_1
*I *2138:X O *D sky130_fd_sc_hd__a31o_1
*CAP
1 *2141:A1 0.000471129
2 *2138:X 0.000471129
3 *2141:A1 *2141:A2 7.45892e-05
4 *2141:A1 *2141:B1 1.52352e-05
5 *2141:A1 *2145:A2 4.43871e-06
6 *2141:A1 *2250:A1 0.000261594
7 *2141:A1 *819:43 7.89034e-05
8 *2140:A1_N *2141:A1 0.000153816
9 *2143:A1 *2141:A1 4.66108e-05
10 *2658:A *2141:A1 0.000151474
11 *118:61 *2141:A1 2.15594e-05
12 *365:12 *2141:A1 2.92496e-05
13 *431:14 *2141:A1 0.000176969
*RES
1 *2138:X *2141:A1 16.635 
*END

*D_NET *519 0.00261833
*CONN
*I *2141:A2 I *D sky130_fd_sc_hd__a21o_1
*I *2139:X O *D sky130_fd_sc_hd__o22a_1
*CAP
1 *2141:A2 0.000633056
2 *2139:X 0.000633056
3 *2141:A2 *2141:B1 5.8069e-05
4 *2141:A2 *2249:B1 6.08203e-05
5 *2141:A2 *2252:C1 3.74448e-05
6 *2141:A2 *819:43 0.000226855
7 *2139:A1 *2141:A2 0.000372475
8 *2140:A1_N *2141:A2 2.82992e-05
9 *2140:A2_N *2141:A2 4.66108e-05
10 *2141:A1 *2141:A2 7.45892e-05
11 *117:44 *2141:A2 0.000291365
12 *118:61 *2141:A2 8.53113e-06
13 *395:6 *2141:A2 3.81908e-06
14 *395:12 *2141:A2 3.52139e-06
15 *434:22 *2141:A2 1.91597e-05
16 *434:37 *2141:A2 0.000120655
*RES
1 *2139:X *2141:A2 18.54 
*END

*D_NET *520 0.000362108
*CONN
*I *2141:B1 I *D sky130_fd_sc_hd__a21o_1
*I *2140:X O *D sky130_fd_sc_hd__a2bb2o_1
*CAP
1 *2141:B1 8.72567e-05
2 *2140:X 8.72567e-05
3 *2141:B1 *2145:A1 4.82863e-05
4 *2141:B1 *2252:C1 6.60042e-05
5 *2141:A1 *2141:B1 1.52352e-05
6 *2141:A2 *2141:B1 5.8069e-05
7 *262:10 *2141:B1 0
*RES
1 *2140:X *2141:B1 5.405 
*END

*D_NET *521 0.00170697
*CONN
*I *2145:A1 I *D sky130_fd_sc_hd__a21o_1
*I *2141:X O *D sky130_fd_sc_hd__a21o_1
*CAP
1 *2145:A1 0.000484607
2 *2141:X 0.000484607
3 *2145:A1 *2252:C1 0.000125483
4 *2145:A1 *2253:B1 5.14218e-05
5 *2145:A1 *846:18 0.000490938
6 *2141:B1 *2145:A1 4.82863e-05
7 *2677:A *2145:A1 2.16309e-05
*RES
1 *2141:X *2145:A1 14.82 
*END

*D_NET *522 0.000907518
*CONN
*I *2143:B1 I *D sky130_fd_sc_hd__a21oi_1
*I *2142:Y O *D sky130_fd_sc_hd__a21oi_1
*CAP
1 *2143:B1 0.000229194
2 *2142:Y 0.000229194
3 *2143:B1 *847:54 0.000270653
4 *2139:B2 *2143:B1 4.01778e-05
5 *2140:B1 *2143:B1 4.66742e-05
6 *2142:A1 *2143:B1 9.16237e-05
7 *425:50 *2143:B1 0
*RES
1 *2142:Y *2143:B1 12.195 
*END

*D_NET *523 0.000376235
*CONN
*I *2145:A2 I *D sky130_fd_sc_hd__a21o_1
*I *2143:Y O *D sky130_fd_sc_hd__a21oi_1
*CAP
1 *2145:A2 0.000134362
2 *2143:Y 0.000134362
3 *2145:A2 *847:54 0
4 *2140:B1 *2145:A2 1.49518e-05
5 *2141:A1 *2145:A2 4.43871e-06
6 *2143:A1 *2145:A2 4.99619e-05
7 *365:12 *2145:A2 3.81581e-05
*RES
1 *2143:Y *2145:A2 9.34875 
*END

*D_NET *524 0.00023778
*CONN
*I *2145:B1 I *D sky130_fd_sc_hd__a21o_1
*I *2144:X O *D sky130_fd_sc_hd__a32o_1
*CAP
1 *2145:B1 7.74675e-05
2 *2144:X 7.74675e-05
3 *2145:B1 *2146:C1 3.45588e-05
4 *2145:B1 *846:18 4.82863e-05
*RES
1 *2144:X *2145:B1 4.685 
*END

*D_NET *525 0.00107269
*CONN
*I *2146:C1 I *D sky130_fd_sc_hd__o221a_1
*I *2145:X O *D sky130_fd_sc_hd__a21o_1
*CAP
1 *2146:C1 0.000401703
2 *2145:X 0.000401703
3 *2144:A3 *2146:C1 7.95667e-05
4 *2144:B1 *2146:C1 7.02508e-06
5 *2145:B1 *2146:C1 3.45588e-05
6 *2146:A1 *2146:C1 0.000143991
7 *379:40 *2146:C1 4.13891e-06
*RES
1 *2145:X *2146:C1 8.765 
*END

*D_NET *526 0.00162052
*CONN
*I *2149:B1 I *D sky130_fd_sc_hd__o221a_1
*I *2146:X O *D sky130_fd_sc_hd__o221a_1
*CAP
1 *2149:B1 0.000197106
2 *2146:X 0.000197106
3 *2149:B1 *2149:B2 0.000133541
4 *2149:B1 *2149:C1 6.1883e-05
5 *1984:A *2149:B1 4.66742e-05
6 *2147:A1 *2149:B1 0.000258213
7 *2147:A2 *2149:B1 0.000664869
8 *2147:B2 *2149:B1 1.12578e-05
9 *376:58 *2149:B1 1.46828e-05
10 *457:45 *2149:B1 3.51884e-05
*RES
1 *2146:X *2149:B1 11.03 
*END

*D_NET *527 0.000402694
*CONN
*I *2149:B2 I *D sky130_fd_sc_hd__o221a_1
*I *2147:X O *D sky130_fd_sc_hd__a22o_1
*CAP
1 *2149:B2 4.53297e-05
2 *2147:X 4.53297e-05
3 *2149:B2 *2149:C1 1.61831e-05
4 *2149:B1 *2149:B2 0.000133541
5 *376:58 *2149:B2 0.000162311
*RES
1 *2147:X *2149:B2 5.045 
*END

*D_NET *528 0.000717496
*CONN
*I *2149:C1 I *D sky130_fd_sc_hd__o221a_1
*I *2148:X O *D sky130_fd_sc_hd__or2_1
*CAP
1 *2149:C1 0.000145054
2 *2148:X 0.000145054
3 *2147:A1 *2149:C1 0
4 *2147:B2 *2149:C1 0.000232018
5 *2149:B1 *2149:C1 6.1883e-05
6 *2149:B2 *2149:C1 1.61831e-05
7 *376:58 *2149:C1 9.27255e-06
8 *457:70 *2149:C1 0.000108031
*RES
1 *2148:X *2149:C1 6.875 
*END

*D_NET *529 0.00104294
*CONN
*I *2150:C1 I *D sky130_fd_sc_hd__a221o_1
*I *2149:X O *D sky130_fd_sc_hd__o221a_1
*CAP
1 *2150:C1 0.00012874
2 *2149:X 0.00012874
3 *2150:B2 *2150:C1 0.000198046
4 *110:32 *2150:C1 0.000468885
5 *457:70 *2150:C1 0.000118527
*RES
1 *2149:X *2150:C1 11.79 
*END

*D_NET *530 0.00145418
*CONN
*I *2156:A1 I *D sky130_fd_sc_hd__a21oi_1
*I *2150:X O *D sky130_fd_sc_hd__a221o_1
*CAP
1 *2156:A1 0.000550458
2 *2150:X 0.000550458
3 *2156:A1 *2156:A2 4.41506e-05
4 *2156:A1 *2195:B 2.86265e-06
5 *2156:A1 *802:8 3.1562e-06
6 *2194:A *2156:A1 4.41506e-05
7 *443:33 *2156:A1 0.0001249
8 *443:52 *2156:A1 0.000134045
*RES
1 *2150:X *2156:A1 10.445 
*END

*D_NET *531 0.00151395
*CONN
*I *2154:A_N I *D sky130_fd_sc_hd__and2b_1
*I *2155:B1 I *D sky130_fd_sc_hd__a221o_1
*I *2151:X O *D sky130_fd_sc_hd__a22o_1
*CAP
1 *2154:A_N 2.27087e-05
2 *2155:B1 0.000282714
3 *2151:X 6.68781e-05
4 *531:10 0.000372301
5 *2154:A_N *2154:B 4.66108e-05
6 *2154:A_N *2193:B 5.83121e-06
7 *2155:B1 *2155:B2 0
8 *2155:B1 *2193:B 0.000119762
9 *2155:B1 *2193:C 1.94892e-05
10 *2155:B1 *842:62 0
11 *531:10 *2194:B 0
12 *2151:A1 *2155:B1 5.16348e-05
13 *2151:A2 *2155:B1 8.23457e-05
14 *2151:A2 *531:10 0
15 *2151:B1 *2155:B1 3.59508e-05
16 *2151:B1 *531:10 2.72174e-06
17 *2151:B2 *531:10 0
18 *2153:A1 *2155:B1 6.40489e-05
19 *2470:D *2154:A_N 1.01687e-05
20 *2470:D *2155:B1 1.09258e-05
21 *372:10 *2155:B1 3.25831e-05
22 *372:16 *2155:B1 3.46196e-05
23 *376:77 *2155:B1 0.000225821
24 *380:14 *2155:B1 1.16475e-05
25 *380:30 *2155:B1 1.51915e-05
*RES
1 *2151:X *531:10 2.8525 
2 *531:10 *2155:B1 11.6075 
3 *531:10 *2154:A_N 2.2225 
*END

*D_NET *532 0.00172693
*CONN
*I *2153:C1 I *D sky130_fd_sc_hd__o221a_1
*I *2155:B2 I *D sky130_fd_sc_hd__a221o_1
*I *2152:X O *D sky130_fd_sc_hd__o22a_1
*CAP
1 *2153:C1 2.60666e-05
2 *2155:B2 8.42076e-05
3 *2152:X 0.000273699
4 *532:20 0.000383974
5 *2153:C1 *842:62 7.84247e-05
6 *2155:B2 *842:62 0.000106285
7 *532:20 *802:31 8.91266e-05
8 *2152:B2 *532:20 4.00541e-06
9 *2155:A1 *2155:B2 0
10 *2155:A1 *532:20 3.63489e-05
11 *2155:B1 *2155:B2 0
12 *2249:A2 *532:20 0
13 *2278:B2 *2155:B2 2.583e-05
14 *114:8 *2155:B2 5.96644e-05
15 *376:77 *2153:C1 3.2874e-05
16 *376:77 *2155:B2 1.52532e-05
17 *376:77 *532:20 0.000216261
18 *380:8 *2155:B2 5.08025e-05
19 *380:14 *532:20 7.03893e-05
20 *380:30 *532:20 5.63183e-05
21 *443:52 *532:20 0.000117402
*RES
1 *2152:X *532:20 7.34663 
2 *532:20 *2155:B2 6.01125 
3 *532:20 *2153:C1 4.5975 
*END

*D_NET *533 0.000738942
*CONN
*I *2154:B I *D sky130_fd_sc_hd__and2b_1
*I *2153:X O *D sky130_fd_sc_hd__o221a_1
*CAP
1 *2154:B 0.000136293
2 *2153:X 0.000136293
3 *2154:B *2191:B 5.83121e-06
4 *2154:B *2193:B 0.00011958
5 *2151:B1 *2154:B 6.83447e-05
6 *2153:A1 *2154:B 4.07479e-05
7 *2154:A_N *2154:B 4.66108e-05
8 *2470:D *2154:B 0.00015639
9 *2634:A *2154:B 2.88506e-05
*RES
1 *2153:X *2154:B 10.575 
*END

*D_NET *534 0.000408068
*CONN
*I *2156:A2 I *D sky130_fd_sc_hd__a21oi_1
*I *2154:X O *D sky130_fd_sc_hd__and2b_1
*CAP
1 *2156:A2 8.58915e-05
2 *2154:X 8.58915e-05
3 *2156:A2 *2194:B 5.47022e-05
4 *2156:A2 *2195:B 4.9253e-06
5 *2156:A2 *802:8 1.56428e-05
6 *2156:A2 *802:31 0.000102798
7 *2152:B2 *2156:A2 5.53549e-06
8 *2156:A1 *2156:A2 4.41506e-05
9 *2194:A *2156:A2 8.53113e-06
*RES
1 *2154:X *2156:A2 9.375 
*END

*D_NET *535 0.00137274
*CONN
*I *2156:B1 I *D sky130_fd_sc_hd__a21oi_1
*I *2155:X O *D sky130_fd_sc_hd__a221o_1
*CAP
1 *2156:B1 0.000424174
2 *2155:X 0.000424174
3 *2156:B1 *2604:A 5.4003e-05
4 *2156:B1 *733:32 4.04277e-05
5 *2156:B1 *821:31 0
6 *2156:B1 *821:44 0
7 *2155:A1 *2156:B1 0.00018955
8 *113:12 *2156:B1 0.000122331
9 *113:14 *2156:B1 0.000118081
*RES
1 *2155:X *2156:B1 12.735 
*END

*D_NET *536 0.00398252
*CONN
*I *2605:A I *D sky130_fd_sc_hd__clkbuf_1
*I *2604:A I *D sky130_fd_sc_hd__clkbuf_2
*I *2156:Y O *D sky130_fd_sc_hd__a21oi_1
*CAP
1 *2605:A 0.000104404
2 *2604:A 0.00116581
3 *2156:Y 0
4 *536:4 0.00127021
5 *2604:A *2187:C 0
6 *2604:A *2504:CLK 0.000137578
7 *2604:A *717:134 0.000185127
8 *2604:A *733:32 0.000429843
9 *2604:A *791:8 0
10 *2604:A *802:8 4.82863e-05
11 *2604:A *818:50 0
12 *2604:A *818:62 0.000183036
13 *2604:A *821:44 0
14 *2604:A *821:54 0
15 *2604:A *822:30 0
16 *2605:A *802:8 2.16917e-05
17 *2156:B1 *2604:A 5.4003e-05
18 *2634:A *2604:A 0
19 *110:14 *2604:A 7.22354e-05
20 *110:22 *2604:A 0.000124895
21 *112:10 *2604:A 4.54719e-05
22 *112:16 *2604:A 0.000139933
*RES
1 *2156:Y *536:4 1.6 
2 *536:4 *2604:A 31.5 
3 *536:4 *2605:A 3.46 
*END

*D_NET *537 0.000915667
*CONN
*I *2160:B I *D sky130_fd_sc_hd__and3_1
*I *2158:X O *D sky130_fd_sc_hd__or2_1
*CAP
1 *2160:B 0.000179763
2 *2158:X 0.000179763
3 *2160:B *2160:C 3.18219e-05
4 *2162:A1 *2160:B 0
5 *2458:D *2160:B 4.75576e-05
6 *108:38 *2160:B 0.000160635
7 *108:40 *2160:B 8.40213e-05
8 *108:67 *2160:B 0
9 *115:20 *2160:B 0.000232105
*RES
1 *2158:X *2160:B 11.775 
*END

*D_NET *538 0.00131301
*CONN
*I *2160:C I *D sky130_fd_sc_hd__and3_1
*I *2159:Y O *D sky130_fd_sc_hd__nand2_1
*CAP
1 *2160:C 0.000246664
2 *2159:Y 0.000246664
3 *2160:C *2157:A 0.000278111
4 *2160:C *2160:A 4.82919e-05
5 *2160:C *846:34 1.07797e-05
6 *2159:A *2160:C 0.00012657
7 *2159:B *2160:C 2.30292e-05
8 *2160:B *2160:C 3.18219e-05
9 *2162:A1 *2160:C 0.000113797
10 *108:38 *2160:C 3.66286e-05
11 *108:40 *2160:C 0.000150653
*RES
1 *2159:Y *2160:C 13.245 
*END

*D_NET *539 0.00377643
*CONN
*I *2165:B I *D sky130_fd_sc_hd__or2_1
*I *2164:B I *D sky130_fd_sc_hd__and2_1
*I *2170:A3 I *D sky130_fd_sc_hd__a31o_1
*I *2163:A_N I *D sky130_fd_sc_hd__and3b_1
*I *2161:X O *D sky130_fd_sc_hd__and3_1
*CAP
1 *2165:B 2.72536e-05
2 *2164:B 0.00011563
3 *2170:A3 0
4 *2163:A_N 0.000210562
5 *2161:X 0
6 *539:36 0.000319753
7 *539:23 0.000732878
8 *539:4 0.000766571
9 *2163:A_N *2163:B 4.99619e-05
10 *2164:B *2169:C 0.000212603
11 *2164:B *541:8 1.85674e-05
12 *2165:B *2169:C 2.05056e-05
13 *539:23 *2251:B1 0.000162404
14 *539:23 *2252:A1 0
15 *539:23 *725:32 0
16 *539:23 *725:45 0
17 *539:23 *725:73 0
18 *539:23 *725:84 0
19 *539:23 *841:65 0
20 *539:23 *846:18 0.000139238
21 *539:23 *846:22 0.000210846
22 *539:23 *846:34 0
23 *539:36 *2171:B 0.000142469
24 *539:36 *841:65 0
25 *2161:A *2163:A_N 0
26 *2161:C *539:23 8.77771e-05
27 *2162:A2 *2163:A_N 4.82919e-05
28 *2162:A2 *539:23 7.70304e-06
29 *2162:B1 *2163:A_N 4.35456e-05
30 *2164:A *539:36 8.53113e-06
31 *2165:A *2164:B 4.66108e-05
32 *2170:A2 *539:36 1.53032e-05
33 *115:51 *539:23 5.062e-06
34 *117:10 *539:23 5.4003e-05
35 *117:10 *539:36 0.000129047
36 *117:68 *539:36 0.000201312
*RES
1 *2161:X *539:4 1.6 
2 *539:4 *2163:A_N 5.245 
3 *539:4 *539:23 13.235 
4 *539:23 *2170:A3 3.6 
5 *539:23 *539:36 6.38 
6 *539:36 *2164:B 4.96 
7 *539:36 *2165:B 2.05 
*END

*D_NET *540 0.000367011
*CONN
*I *2163:B I *D sky130_fd_sc_hd__and3b_1
*I *2162:X O *D sky130_fd_sc_hd__a21o_1
*CAP
1 *2163:B 0.000143167
2 *2162:X 0.000143167
3 *2163:B *791:61 2.66586e-05
4 *2163:B *791:67 4.05674e-06
5 *2163:A_N *2163:B 4.99619e-05
*RES
1 *2162:X *2163:B 5.03 
*END

*D_NET *541 0.00291181
*CONN
*I *2169:C I *D sky130_fd_sc_hd__and3_1
*I *2167:A2 I *D sky130_fd_sc_hd__o21ai_1
*I *2168:A2 I *D sky130_fd_sc_hd__a21oi_1
*I *2166:A_N I *D sky130_fd_sc_hd__and3b_1
*I *2164:X O *D sky130_fd_sc_hd__and2_1
*CAP
1 *2169:C 0.000296469
2 *2167:A2 0
3 *2168:A2 0.000226677
4 *2166:A_N 0.000160083
5 *2164:X 0
6 *541:21 0.000259158
7 *541:8 0.00025614
8 *541:4 0.000360044
9 *2166:A_N *2166:B 0
10 *2166:A_N *2167:B1 0
11 *2166:A_N *725:84 0.000208477
12 *2166:A_N *791:55 0
13 *2166:A_N *850:62 9.26907e-06
14 *2166:A_N *850:69 3.48476e-05
15 *2168:A2 *2167:B1 8.65961e-05
16 *2168:A2 *2168:B1 0
17 *2168:A2 *735:8 0
18 *2168:A2 *850:69 0
19 *2169:C *2171:A_N 1.9872e-05
20 *2169:C *544:21 2.41865e-05
21 *2169:C *822:77 7.17012e-05
22 *2164:B *2169:C 0.000212603
23 *2164:B *541:8 1.85674e-05
24 *2165:B *2169:C 2.05056e-05
25 *2167:A1 *2169:C 0.000387891
26 *2167:A1 *541:8 4.88721e-05
27 *2167:A1 *541:21 5.58436e-05
28 *2461:D *2168:A2 2.24423e-05
29 *2462:D *2169:C 4.66108e-05
30 *117:10 *2166:A_N 0
31 *118:40 *2169:C 8.49503e-05
*RES
1 *2164:X *541:4 1.6 
2 *541:4 *541:8 1.41 
3 *541:8 *2166:A_N 9.02 
4 *541:8 *541:21 0.87 
5 *541:21 *2168:A2 9.32 
6 *541:21 *2167:A2 1.6 
7 *541:4 *2169:C 9.205 
*END

*D_NET *542 0.00128338
*CONN
*I *2166:B I *D sky130_fd_sc_hd__and3b_1
*I *2165:X O *D sky130_fd_sc_hd__or2_1
*CAP
1 *2166:B 0.000495052
2 *2165:X 0.000495052
3 *2166:B *850:69 0
4 *2166:A_N *2166:B 0
5 *2170:B1 *2166:B 4.99619e-05
6 *117:10 *2166:B 7.23602e-05
7 *117:68 *2166:B 0.000170953
*RES
1 *2165:X *2166:B 14.01 
*END

*D_NET *543 0.000299114
*CONN
*I *2168:B1 I *D sky130_fd_sc_hd__a21oi_1
*I *2167:Y O *D sky130_fd_sc_hd__o21ai_1
*CAP
1 *2168:B1 0.000121909
2 *2167:Y 0.000121909
3 *2168:B1 *2168:A1 4.82863e-05
4 *2168:B1 *850:69 0
5 *2168:A2 *2168:B1 0
6 *2461:D *2168:B1 7.00889e-06
*RES
1 *2167:Y *2168:B1 9.285 
*END

*D_NET *544 0.0038124
*CONN
*I *2172:B I *D sky130_fd_sc_hd__and2_1
*I *2173:A2 I *D sky130_fd_sc_hd__o21ai_1
*I *2178:A3 I *D sky130_fd_sc_hd__a31o_1
*I *2171:A_N I *D sky130_fd_sc_hd__and3b_1
*I *2169:X O *D sky130_fd_sc_hd__and3_1
*CAP
1 *2172:B 0
2 *2173:A2 0
3 *2178:A3 0.000155394
4 *2171:A_N 9.36896e-06
5 *2169:X 0
6 *544:33 0.000375739
7 *544:21 0.00070108
8 *544:4 0.000490104
9 *2178:A3 *2463:RESET_B 0.00030358
10 *2178:A3 *546:14 6.10014e-05
11 *2178:A3 *549:31 0.000421068
12 *2178:A3 *791:29 3.83194e-05
13 *2178:A3 *836:24 0.000116165
14 *544:21 *2174:B 0.000192218
15 *544:21 *2255:A1 8.53113e-06
16 *544:21 *2255:A2 2.76356e-05
17 *544:21 *546:12 8.65905e-05
18 *544:21 *819:80 0.000138271
19 *544:21 *822:50 7.65948e-05
20 *544:21 *822:77 1.47788e-05
21 *544:33 *546:14 2.9886e-05
22 *544:33 *836:24 4.13769e-05
23 *544:33 *850:88 0
24 *2169:C *2171:A_N 1.9872e-05
25 *2169:C *544:21 2.41865e-05
26 *2178:A1 *2178:A3 1.91597e-05
27 *2178:A2 *2178:A3 0.000133243
28 *2258:B2 *544:21 0.00015829
29 *118:40 *2171:A_N 4.89295e-05
30 *118:40 *544:21 8.52845e-05
31 *118:61 *544:21 3.57349e-05
*RES
1 *2169:X *544:4 1.6 
2 *544:4 *2171:A_N 2.05 
3 *544:4 *544:21 14.725 
4 *544:21 *544:33 4.30433 
5 *544:33 *2178:A3 9.57 
6 *544:33 *2173:A2 3.6 
7 *544:21 *2172:B 1.6 
*END

*D_NET *545 0.0011866
*CONN
*I *2171:B I *D sky130_fd_sc_hd__and3b_1
*I *2170:X O *D sky130_fd_sc_hd__a31o_1
*CAP
1 *2171:B 0.000260904
2 *2170:X 0.000260904
3 *2171:B *850:69 0
4 *2164:A *2171:B 3.60648e-06
5 *2167:A1 *2171:B 4.66108e-05
6 *2170:A2 *2171:B 0.000330359
7 *118:12 *2171:B 2.07184e-05
8 *118:40 *2171:B 0.000121023
9 *539:36 *2171:B 0.000142469
*RES
1 *2170:X *2171:B 12.87 
*END

*D_NET *546 0.00359511
*CONN
*I *2177:C I *D sky130_fd_sc_hd__and3_1
*I *2176:A2 I *D sky130_fd_sc_hd__a21oi_1
*I *2174:A I *D sky130_fd_sc_hd__nor2_1
*I *2175:A2 I *D sky130_fd_sc_hd__o21ai_1
*I *2172:X O *D sky130_fd_sc_hd__and2_1
*CAP
1 *2177:C 0.000122546
2 *2176:A2 0
3 *2174:A 0.000129198
4 *2175:A2 3.40535e-05
5 *2172:X 0.000134184
6 *546:31 0.000488139
7 *546:14 0.000586336
8 *546:12 0.000450071
9 *2174:A *2464:CLK 2.30292e-05
10 *2174:A *791:47 0.000238919
11 *2174:A *822:77 0
12 *2174:A *850:44 0.000198945
13 *2174:A *850:62 1.79483e-05
14 *2175:A2 *791:33 3.67779e-05
15 *2177:C *2173:B1 5.52406e-06
16 *2177:C *2174:B 7.68414e-06
17 *546:12 *2173:B1 3.64998e-06
18 *546:12 *2174:B 7.67415e-06
19 *546:12 *791:29 0
20 *546:12 *850:88 0
21 *546:14 *2173:B1 4.79946e-05
22 *546:14 *791:33 0.000163285
23 *546:14 *836:24 9.75085e-05
24 *546:31 *2464:CLK 6.13413e-05
25 *546:31 *791:47 3.66286e-05
26 *2172:A *2177:C 4.66108e-05
27 *2178:A3 *546:14 6.10014e-05
28 *2464:D *546:31 0.000152329
29 *118:61 *2174:A 0.000115232
30 *119:27 *2174:A 0
31 *120:40 *2177:C 6.43935e-05
32 *120:46 *2177:C 6.35271e-05
33 *120:46 *546:14 4.10092e-05
34 *121:12 *2175:A2 3.86529e-05
35 *121:12 *546:14 4.43871e-06
36 *544:21 *546:12 8.65905e-05
37 *544:33 *546:14 2.9886e-05
*RES
1 *2172:X *546:12 5.7675 
2 *546:12 *546:14 5.0775 
3 *546:14 *2175:A2 4.47 
4 *546:14 *546:31 7.22 
5 *546:31 *2174:A 9.665 
6 *546:31 *2176:A2 1.6 
7 *546:12 *2177:C 5.8875 
*END

*D_NET *547 0.00156542
*CONN
*I *2174:B I *D sky130_fd_sc_hd__nor2_1
*I *2173:Y O *D sky130_fd_sc_hd__o21ai_1
*CAP
1 *2174:B 0.000543747
2 *2173:Y 0.000543747
3 *2174:B *2173:B1 6.98332e-05
4 *2174:B *2463:CLK 7.23602e-05
5 *2174:B *850:44 1.94351e-05
6 *2174:B *850:88 3.98865e-05
7 *2177:C *2174:B 7.68414e-06
8 *118:61 *2174:B 6.18286e-05
9 *120:46 *2174:B 7.00889e-06
10 *544:21 *2174:B 0.000192218
11 *546:12 *2174:B 7.67415e-06
*RES
1 *2173:Y *2174:B 15.27 
*END

*D_NET *548 0.000914627
*CONN
*I *2176:B1 I *D sky130_fd_sc_hd__a21oi_1
*I *2175:Y O *D sky130_fd_sc_hd__o21ai_1
*CAP
1 *2176:B1 0.000341702
2 *2175:Y 0.000341702
3 *2176:B1 *791:33 0
4 *2176:B1 *791:47 0.000231223
*RES
1 *2175:Y *2176:B1 11.7 
*END

*D_NET *549 0.00430226
*CONN
*I *2186:A3 I *D sky130_fd_sc_hd__a31o_1
*I *2180:B I *D sky130_fd_sc_hd__and2_1
*I *2181:A2 I *D sky130_fd_sc_hd__o21ai_1
*I *2179:A_N I *D sky130_fd_sc_hd__and3b_1
*I *2177:X O *D sky130_fd_sc_hd__and3_1
*CAP
1 *2186:A3 0.000156145
2 *2180:B 1.07263e-05
3 *2181:A2 0
4 *2179:A_N 0.000112383
5 *2177:X 3.47078e-05
6 *549:38 0.000198541
7 *549:31 0.000249952
8 *549:8 0.000365374
9 *2179:A_N *836:24 0.00035991
10 *2186:A3 *2184:A1 3.7712e-05
11 *2186:A3 *2468:CLK 8.97564e-05
12 *2186:A3 *551:44 4.01778e-05
13 *2186:A3 *791:23 0.000201502
14 *549:8 *836:24 8.5242e-05
15 *549:31 *2181:B1 2.81017e-05
16 *549:31 *2184:A1 0.000159409
17 *549:31 *791:23 2.7441e-05
18 *549:31 *791:29 0.000832612
19 *549:38 *2184:A1 8.95933e-05
20 *549:38 *791:23 9.66021e-05
21 *2178:A1 *549:31 1.61831e-05
22 *2178:A2 *549:31 2.30292e-05
23 *2178:A3 *549:31 0.000421068
24 *2178:B1 *549:31 0.00023468
25 *2180:A *2186:A3 0.000124895
26 *110:26 *2186:A3 6.23375e-05
27 *127:10 *2179:A_N 0.000194735
28 *127:10 *549:8 4.94404e-05
*RES
1 *2177:X *549:8 4.725 
2 *549:8 *2179:A_N 7.785 
3 *549:8 *549:31 12.02 
4 *549:31 *2181:A2 1.6 
5 *549:31 *549:38 1.485 
6 *549:38 *2180:B 1.96 
7 *549:38 *2186:A3 10.7 
*END

*D_NET *550 0.000763323
*CONN
*I *2179:B I *D sky130_fd_sc_hd__and3b_1
*I *2178:X O *D sky130_fd_sc_hd__a31o_1
*CAP
1 *2179:B 0.000295098
2 *2178:X 0.000295098
3 *2179:B *2179:C 6.77162e-05
4 *2179:B *819:143 0
5 *2179:B *850:14 0
6 *2178:A2 *2179:B 8.53113e-06
7 *121:45 *2179:B 9.68787e-05
*RES
1 *2178:X *2179:B 11.94 
*END

*D_NET *551 0.00364302
*CONN
*I *2185:C I *D sky130_fd_sc_hd__and3_1
*I *2183:A2 I *D sky130_fd_sc_hd__o21ai_1
*I *2182:A I *D sky130_fd_sc_hd__nor2_1
*I *2184:A2 I *D sky130_fd_sc_hd__a21oi_1
*I *2180:X O *D sky130_fd_sc_hd__and2_1
*CAP
1 *2185:C 8.79581e-05
2 *2183:A2 0.000118513
3 *2182:A 9.58163e-05
4 *2184:A2 0
5 *2180:X 0
6 *551:44 0.000629649
7 *551:22 0.000442556
8 *551:4 0.000769918
9 *2182:A *2182:B 6.19383e-05
10 *2182:A *2184:B1 1.10085e-05
11 *2183:A2 *802:41 0.000122331
12 *2185:C *2466:RESET_B 4.60584e-05
13 *551:22 *2182:B 0.0002315
14 *551:22 *2184:A1 8.65961e-05
15 *551:22 *2184:B1 2.11651e-05
16 *551:22 *2467:CLK 1.34103e-05
17 *551:22 *834:29 4.04174e-05
18 *551:44 *2184:A1 0.000200615
19 *551:44 *2466:RESET_B 5.8052e-05
20 *551:44 *2469:CLK 9.54399e-05
21 *2180:A *551:44 4.35348e-05
22 *2183:A1 *2183:A2 8.49205e-05
23 *2185:A *2185:C 4.82919e-05
24 *2185:B *2185:C 8.80347e-07
25 *2186:A3 *551:44 4.01778e-05
26 *2466:D *2182:A 1.17409e-05
27 *2467:D *551:22 7.91584e-06
28 *109:10 *551:44 0
29 *109:12 *2183:A2 0
30 *109:62 *551:44 0
31 *110:26 *551:44 0.000187401
32 *110:32 *2183:A2 7.44375e-05
33 *110:32 *551:44 1.07797e-05
34 *126:33 *551:22 0
*RES
1 *2180:X *551:4 1.6 
2 *551:4 *551:22 8.82433 
3 *551:22 *2184:A2 1.6 
4 *551:22 *2182:A 3.46 
5 *551:4 *551:44 9.74 
6 *551:44 *2183:A2 6.375 
7 *551:44 *2185:C 4.8 
*END

*D_NET *552 0.0011688
*CONN
*I *2182:B I *D sky130_fd_sc_hd__nor2_1
*I *2181:Y O *D sky130_fd_sc_hd__o21ai_1
*CAP
1 *2182:B 0.000353175
2 *2181:Y 0.000353175
3 *2182:B *2184:A1 2.46007e-05
4 *2182:B *2184:B1 0
5 *2182:B *819:143 6.72027e-05
6 *2182:B *834:29 3.31079e-05
7 *2182:A *2182:B 6.19383e-05
8 *2466:D *2182:B 5.83121e-06
9 *2467:D *2182:B 3.82728e-05
10 *551:22 *2182:B 0.0002315
*RES
1 *2181:Y *2182:B 12.1559 
*END

*D_NET *553 0.00150484
*CONN
*I *2184:B1 I *D sky130_fd_sc_hd__a21oi_1
*I *2183:Y O *D sky130_fd_sc_hd__o21ai_1
*CAP
1 *2184:B1 0.000445903
2 *2183:Y 0.000445903
3 *2184:B1 *2184:A1 8.7152e-06
4 *2184:B1 *2465:RESET_B 0.00011852
5 *2184:B1 *727:32 0.000185405
6 *2184:B1 *834:29 8.69042e-06
7 *2182:A *2184:B1 1.10085e-05
8 *2182:B *2184:B1 0
9 *2467:D *2184:B1 0.000129922
10 *123:36 *2184:B1 5.92191e-05
11 *126:33 *2184:B1 7.03934e-05
12 *551:22 *2184:B1 2.11651e-05
*RES
1 *2183:Y *2184:B1 20.665 
*END

*D_NET *554 0.00167862
*CONN
*I *2187:A_N I *D sky130_fd_sc_hd__and3b_1
*I *2189:A2 I *D sky130_fd_sc_hd__o21ai_1
*I *2188:B I *D sky130_fd_sc_hd__and2_1
*I *2185:X O *D sky130_fd_sc_hd__and3_1
*CAP
1 *2187:A_N 6.24743e-05
2 *2189:A2 0
3 *2188:B 0.00017223
4 *2185:X 0.0001923
5 *554:10 0.000189792
6 *554:8 0.000272337
7 *2187:A_N *2190:B 9.71067e-05
8 *2187:A_N *2469:CLK 4.66108e-05
9 *2187:A_N *717:18 3.09233e-05
10 *2187:A_N *717:134 8.59365e-05
11 *2187:A_N *822:30 0
12 *2188:B *2189:B1 0.000163992
13 *2188:B *2190:A 7.00889e-06
14 *2188:B *2193:C 2.75229e-05
15 *2188:B *717:18 0.000162332
16 *554:8 *2189:B1 4.82863e-05
17 *554:10 *2189:B1 2.14129e-05
18 *554:10 *717:18 5.39961e-05
19 *554:10 *822:30 0
20 *2572:A *554:8 4.43591e-05
*RES
1 *2185:X *554:8 6.465 
2 *554:8 *554:10 0.615 
3 *554:10 *2188:B 7.32 
4 *554:10 *2189:A2 3.6 
5 *554:8 *2187:A_N 5.43 
*END

*D_NET *555 0.00135077
*CONN
*I *2187:B I *D sky130_fd_sc_hd__and3b_1
*I *2186:X O *D sky130_fd_sc_hd__a31o_1
*CAP
1 *2187:B 0.000339724
2 *2186:X 0.000339724
3 *2187:B *2187:C 5.18691e-05
4 *2187:B *2190:B 0
5 *2187:B *2469:CLK 7.35813e-05
6 *2187:B *717:134 0
7 *2187:B *791:8 3.23391e-05
8 *2187:B *822:30 0.000360604
9 *2186:A1 *2187:B 1.56428e-05
10 *2268:B2 *2187:B 4.01778e-05
11 *2468:D *2187:B 9.71067e-05
*RES
1 *2186:X *2187:B 14.01 
*END

*D_NET *556 0.00208414
*CONN
*I *2191:B I *D sky130_fd_sc_hd__nand2_1
*I *2192:B I *D sky130_fd_sc_hd__or2_1
*I *2190:A I *D sky130_fd_sc_hd__nor2_1
*I *2188:X O *D sky130_fd_sc_hd__and2_1
*CAP
1 *2191:B 0.000213003
2 *2192:B 0
3 *2190:A 0.000247447
4 *2188:X 0
5 *556:25 0.000353473
6 *556:4 0.000387916
7 *2190:A *2193:C 2.26018e-05
8 *2190:A *842:62 8.35042e-05
9 *2191:B *2193:B 1.16578e-05
10 *2191:B *2470:CLK 5.61451e-05
11 *2191:B *558:8 0.00012657
12 *2191:B *733:32 0
13 *556:25 *2193:C 3.45588e-05
14 *2151:A1 *556:25 2.50702e-05
15 *2153:A1 *2190:A 0
16 *2154:B *2191:B 5.83121e-06
17 *2188:B *2190:A 7.00889e-06
18 *2470:D *2191:B 9.37944e-05
19 *2634:A *2190:A 0
20 *2634:A *2191:B 0.000247553
21 *111:10 *2190:A 6.88971e-05
22 *111:25 *2190:A 6.55328e-05
23 *112:52 *2191:B 2.8585e-06
24 *112:52 *556:25 3.07153e-05
*RES
1 *2188:X *556:4 1.6 
2 *556:4 *2190:A 10.625 
3 *556:4 *556:25 2.535 
4 *556:25 *2192:B 1.6 
5 *556:25 *2191:B 10.805 
*END

*D_NET *557 0.000526557
*CONN
*I *2190:B I *D sky130_fd_sc_hd__nor2_1
*I *2189:Y O *D sky130_fd_sc_hd__o21ai_1
*CAP
1 *2190:B 0.000109633
2 *2189:Y 0.000109633
3 *2190:B *2469:CLK 0.000120655
4 *2190:B *717:134 2.23407e-05
5 *2190:B *822:30 0
6 *2190:B *852:36 6.71882e-05
7 *2187:A_N *2190:B 9.71067e-05
8 *2187:B *2190:B 0
*RES
1 *2189:Y *2190:B 9.975 
*END

*D_NET *558 0.00198537
*CONN
*I *2194:B I *D sky130_fd_sc_hd__xnor2_1
*I *2193:B I *D sky130_fd_sc_hd__and3_1
*I *2191:Y O *D sky130_fd_sc_hd__nand2_1
*CAP
1 *2194:B 7.23785e-05
2 *2193:B 0.000295106
3 *2191:Y 9.60511e-05
4 *558:8 0.000463536
5 *2193:B *2193:C 9.28801e-06
6 *2151:A2 *2193:B 2.1433e-05
7 *2151:B2 *2193:B 5.42126e-05
8 *2152:B2 *558:8 1.08758e-05
9 *2153:A1 *2193:B 3.22964e-05
10 *2154:A_N *2193:B 5.83121e-06
11 *2154:B *2193:B 0.00011958
12 *2155:B1 *2193:B 0.000119762
13 *2156:A2 *2194:B 5.47022e-05
14 *2191:B *2193:B 1.16578e-05
15 *2191:B *558:8 0.00012657
16 *2194:A *2194:B 3.09164e-05
17 *2470:D *2193:B 0.000232999
18 *2634:A *2193:B 5.1807e-05
19 *2634:A *2194:B 0.000135766
20 *376:58 *2193:B 4.05982e-05
21 *531:10 *2194:B 0
*RES
1 *2191:Y *558:8 3.445 
2 *558:8 *2193:B 12.32 
3 *558:8 *2194:B 7.595 
*END

*D_NET *559 0.000850283
*CONN
*I *2193:C I *D sky130_fd_sc_hd__and3_1
*I *2192:X O *D sky130_fd_sc_hd__or2_1
*CAP
1 *2193:C 0.000199987
2 *2192:X 0.000199987
3 *2193:C *842:62 2.68721e-05
4 *2151:A1 *2193:C 4.66108e-05
5 *2151:B2 *2193:C 0.000189198
6 *2153:A1 *2193:C 0
7 *2155:B1 *2193:C 1.94892e-05
8 *2188:B *2193:C 2.75229e-05
9 *2190:A *2193:C 2.26018e-05
10 *2193:B *2193:C 9.28801e-06
11 *376:58 *2193:C 7.41665e-05
12 *556:25 *2193:C 3.45588e-05
*RES
1 *2192:X *2193:C 11.85 
*END

*D_NET *560 0.000877408
*CONN
*I *2195:B I *D sky130_fd_sc_hd__and2_1
*I *2194:Y O *D sky130_fd_sc_hd__xnor2_1
*CAP
1 *2195:B 0.000200051
2 *2194:Y 0.000200051
3 *2195:B *2195:A 1.92644e-05
4 *2195:B *2278:C1 1.23268e-05
5 *2152:A2 *2195:B 9.5799e-06
6 *2152:B2 *2195:B 5.39961e-05
7 *2156:A1 *2195:B 2.86265e-06
8 *2156:A2 *2195:B 4.9253e-06
9 *2194:A *2195:B 0.000103333
10 *2471:D *2195:B 3.12669e-05
11 *2634:A *2195:B 0.000236772
12 *443:52 *2195:B 2.97872e-06
*RES
1 *2194:Y *2195:B 11.415 
*END

*D_NET *561 0.00198768
*CONN
*I *2199:A I *D sky130_fd_sc_hd__or3_1
*I *2196:X O *D sky130_fd_sc_hd__or4_1
*CAP
1 *2199:A 0.000663605
2 *2196:X 0.000663605
3 *2199:A *2196:D 0.000158532
4 *2199:A *2487:D 0.000215582
5 *2199:A *2489:D 0
6 *2199:A *2490:D 9.03081e-05
7 *2199:A *729:92 0
8 *2199:A *848:70 0.000196048
*RES
1 *2196:X *2199:A 18.675 
*END

*D_NET *562 0.000728227
*CONN
*I *2199:B I *D sky130_fd_sc_hd__or3_1
*I *2197:X O *D sky130_fd_sc_hd__or4_1
*CAP
1 *2199:B 0.00024952
2 *2197:X 0.00024952
3 *2199:B *737:10 4.99619e-05
4 *936:DIODE *2199:B 0.000163204
5 *33:27 *2199:B 1.60203e-05
*RES
1 *2197:X *2199:B 6.41 
*END

*D_NET *563 0.00290536
*CONN
*I *2199:C I *D sky130_fd_sc_hd__or3_1
*I *2198:X O *D sky130_fd_sc_hd__or4_1
*CAP
1 *2199:C 0.000937864
2 *2198:X 0.000937864
3 *2199:C *2480:D 0.000164874
4 *2199:C *2486:RESET_B 7.53115e-05
5 *2199:C *728:119 3.5434e-05
6 *2199:C *848:26 0.000119134
7 *2199:C *848:36 7.26629e-05
8 *2199:C *848:46 0.000125626
9 *2303:A *2199:C 2.59981e-05
10 *2303:D_N *2199:C 0
11 *137:21 *2199:C 0.000116853
12 *137:34 *2199:C 0.000152127
13 *138:10 *2199:C 0.000141606
*RES
1 *2198:X *2199:C 25.275 
*END

*D_NET *564 0.00426962
*CONN
*I *2200:A3 I *D sky130_fd_sc_hd__o31a_1
*I *2199:X O *D sky130_fd_sc_hd__or3_1
*CAP
1 *2200:A3 0.00182576
2 *2199:X 0.00182576
3 *2200:A3 *2486:RESET_B 2.3038e-05
4 *2200:A3 *2489:D 1.37226e-05
5 *2200:A3 *2490:RESET_B 0.000133246
6 *2200:B1 *2200:A3 1.92979e-05
7 *128:10 *2200:A3 1.00941e-05
8 *140:16 *2200:A3 0.000418691
*RES
1 *2199:X *2200:A3 12.0461 
*END

*D_NET *565 0.00706307
*CONN
*I *2216:C1 I *D sky130_fd_sc_hd__a221o_1
*I *2214:C1 I *D sky130_fd_sc_hd__a221o_1
*I *2212:C1 I *D sky130_fd_sc_hd__a221o_1
*I *2206:C1 I *D sky130_fd_sc_hd__a221o_1
*I *2208:C1 I *D sky130_fd_sc_hd__a221o_1
*I *2203:B1 I *D sky130_fd_sc_hd__a21o_1
*I *2210:C1 I *D sky130_fd_sc_hd__a221o_1
*I *2201:X O *D sky130_fd_sc_hd__and3_2
*CAP
1 *2216:C1 2.84945e-05
2 *2214:C1 2.61242e-05
3 *2212:C1 0
4 *2206:C1 0
5 *2208:C1 0.000301898
6 *2203:B1 0.000374414
7 *2210:C1 7.57834e-05
8 *2201:X 0.000134033
9 *565:47 0.000699793
10 *565:45 0.000177562
11 *565:32 0.000570357
12 *565:20 0.000457609
13 *565:14 0.000245958
14 *565:8 0.000265244
15 *2203:B1 *2203:A1 4.82863e-05
16 *2203:B1 *2206:B2 0.000339112
17 *2203:B1 *2281:A2 0
18 *2203:B1 *2515:RESET_B 2.65337e-05
19 *2203:B1 *717:142 8.28341e-05
20 *2203:B1 *857:47 0.000170452
21 *2203:B1 *857:59 2.46265e-06
22 *2203:B1 *857:85 0
23 *2208:C1 *2208:A2 4.82863e-05
24 *2208:C1 *2208:B1 9.46111e-06
25 *2208:C1 *2208:B2 1.10848e-05
26 *2210:C1 *2285:A1 0.00011852
27 *2210:C1 *717:218 0.000150083
28 *2216:C1 *2216:B2 7.33772e-05
29 *565:8 *566:25 4.35348e-05
30 *565:14 *2216:B2 7.06865e-05
31 *565:20 *2212:B2 9.50342e-06
32 *565:20 *2214:B2 1.40205e-05
33 *565:32 *2212:B1 1.08758e-05
34 *565:32 *2212:B2 0.000101863
35 *565:32 *2214:B2 8.40269e-05
36 *565:32 *2285:A1 0.000245893
37 *565:32 *567:24 0.000507943
38 *565:32 *567:28 0.000152452
39 *565:32 *717:218 1.52776e-05
40 *565:45 *2206:B2 9.50342e-06
41 *565:45 *567:28 0.000148379
42 *565:45 *717:142 5.65627e-05
43 *565:45 *717:160 6.89704e-05
44 *565:45 *717:218 7.48496e-05
45 *565:45 *721:8 0
46 *565:47 *2206:B2 7.23602e-05
47 *565:47 *2208:A2 4.9968e-05
48 *565:47 *717:142 7.1301e-06
49 *2204:B *2216:C1 2.62115e-05
50 *2204:B *565:8 0.0001249
51 *2206:A1 *2208:C1 3.96737e-05
52 *2212:A1 *565:32 9.80032e-06
53 *2214:A1 *2214:C1 4.66108e-05
54 *2441:D *565:45 7.06865e-05
55 *2709:A *2203:B1 6.01999e-05
56 *144:28 *2203:B1 0.000223186
57 *218:14 *565:32 0.000109441
58 *221:48 *565:14 5.39422e-05
59 *221:48 *565:20 0.000116853
60 *222:66 *565:32 0
61 *222:75 *565:20 0
62 *222:75 *565:32 0
63 *222:88 *565:14 0
*RES
1 *2201:X *565:8 5.43 
2 *565:8 *565:14 2.19 
3 *565:14 *565:20 2.445 
4 *565:20 *565:32 13.8325 
5 *565:32 *2210:C1 5.8125 
6 *565:32 *565:45 4.3125 
7 *565:45 *565:47 0.87 
8 *565:47 *2203:B1 13.665 
9 *565:47 *2208:C1 7.335 
10 *565:45 *2206:C1 3.6 
11 *565:20 *2212:C1 3.6 
12 *565:14 *2214:C1 4.05 
13 *565:8 *2216:C1 4.47 
*END

*D_NET *566 0.00811623
*CONN
*I *2216:A2 I *D sky130_fd_sc_hd__a221o_1
*I *2214:A2 I *D sky130_fd_sc_hd__a221o_1
*I *2212:A2 I *D sky130_fd_sc_hd__a221o_1
*I *2206:A2 I *D sky130_fd_sc_hd__a221o_1
*I *2208:A2 I *D sky130_fd_sc_hd__a221o_1
*I *2203:A2 I *D sky130_fd_sc_hd__a21o_1
*I *2210:A2 I *D sky130_fd_sc_hd__a221o_1
*I *2223:A2 I *D sky130_fd_sc_hd__o31a_1
*I *2202:X O *D sky130_fd_sc_hd__and2_2
*CAP
1 *2216:A2 7.04645e-05
2 *2214:A2 2.23148e-05
3 *2212:A2 2.23148e-05
4 *2206:A2 0
5 *2208:A2 0.000185408
6 *2203:A2 0.000241716
7 *2210:A2 0
8 *2223:A2 0.000304798
9 *2202:X 0
10 *566:59 0.00024959
11 *566:46 0.000762965
12 *566:35 0.000737414
13 *566:29 0.00039273
14 *566:27 0.00019009
15 *566:25 0.000538017
16 *566:4 0.000694644
17 *2203:A2 *2294:A1 5.53249e-06
18 *2203:A2 *2441:RESET_B 0
19 *2203:A2 *721:8 2.92496e-05
20 *2203:A2 *721:10 0.000186099
21 *2203:A2 *721:12 0.000198272
22 *2203:A2 *721:14 0.000159964
23 *2203:A2 *721:16 9.50342e-06
24 *2203:A2 *805:10 5.36866e-05
25 *2208:A2 *2208:B1 6.57019e-05
26 *2208:A2 *717:142 5.16348e-05
27 *2216:A2 *567:20 4.34724e-05
28 *2223:A2 *2219:B1 0
29 *2223:A2 *2223:A3 0.00012454
30 *2223:A2 *2223:B1 8.40269e-05
31 *2223:A2 *575:6 0.000197264
32 *566:25 *2216:B2 1.10062e-05
33 *566:25 *567:20 7.89884e-05
34 *566:27 *567:20 7.07801e-05
35 *566:29 *2444:CLK 0
36 *566:29 *567:20 3.05373e-05
37 *566:29 *567:22 5.7344e-05
38 *566:35 *567:22 1.71013e-05
39 *566:35 *567:24 0.000196406
40 *566:35 *722:8 0
41 *566:35 *722:12 0
42 *566:35 *722:80 0
43 *566:46 *2441:RESET_B 0
44 *566:46 *567:28 0
45 *566:46 *721:8 0.000128353
46 *566:59 *2440:CLK 4.66108e-05
47 *1975:A *566:25 8.65961e-05
48 *1976:A *566:25 7.57202e-05
49 *2201:A *566:25 6.52265e-05
50 *2201:C *566:25 8.65905e-05
51 *2204:B *566:25 0.000198939
52 *2206:A1 *2208:A2 0.000285917
53 *2208:C1 *2208:A2 4.82863e-05
54 *2210:A1 *566:35 0.000187759
55 *2217:B *2216:A2 1.85235e-05
56 *2218:A *2223:A2 0.000119756
57 *2224:A1 *2223:A2 3.09233e-05
58 *2224:A1 *566:25 0.0001249
59 *2439:D *2203:A2 0
60 *2440:D *566:59 4.66742e-05
61 *2442:D *566:35 6.55328e-05
62 *2445:D *2216:A2 2.75145e-05
63 *2508:D *2203:A2 3.68682e-05
64 *144:28 *2203:A2 7.23602e-05
65 *221:48 *2216:A2 0
66 *221:48 *566:25 1.03423e-05
67 *222:88 *2223:A2 0
68 *366:19 *566:25 0.000162311
69 *367:10 *566:25 1.34503e-05
70 *565:8 *566:25 4.35348e-05
71 *565:47 *2208:A2 4.9968e-05
*RES
1 *2202:X *566:4 1.6 
2 *566:4 *2223:A2 11.825 
3 *566:4 *566:25 10.415 
4 *566:25 *566:27 1.635 
5 *566:27 *566:29 1.89 
6 *566:29 *566:35 8.7575 
7 *566:35 *2210:A2 1.6 
8 *566:35 *566:46 9.6275 
9 *566:46 *2203:A2 10.08 
10 *566:46 *566:59 3.3125 
11 *566:59 *2208:A2 9.8075 
12 *566:59 *2206:A2 1.6 
13 *566:29 *2212:A2 3.8775 
14 *566:27 *2214:A2 3.8775 
15 *566:25 *2216:A2 5.4375 
*END

*D_NET *567 0.0041439
*CONN
*I *2216:B1 I *D sky130_fd_sc_hd__a221o_1
*I *2214:B1 I *D sky130_fd_sc_hd__a221o_1
*I *2212:B1 I *D sky130_fd_sc_hd__a221o_1
*I *2210:B1 I *D sky130_fd_sc_hd__a221o_1
*I *2206:B1 I *D sky130_fd_sc_hd__a221o_1
*I *2208:B1 I *D sky130_fd_sc_hd__a221o_1
*I *2204:Y O *D sky130_fd_sc_hd__nor2_2
*CAP
1 *2216:B1 0
2 *2214:B1 5.80443e-05
3 *2212:B1 4.40851e-05
4 *2210:B1 0
5 *2206:B1 2.37813e-05
6 *2208:B1 0.000178064
7 *2204:Y 8.09602e-05
8 *567:28 0.000452249
9 *567:24 0.000394683
10 *567:22 0.000243627
11 *567:20 0.000300109
12 *567:10 0.000267761
13 *2208:B1 *2206:B2 1.12643e-05
14 *567:20 *2214:B2 2.4997e-05
15 *567:22 *2214:B2 7.18895e-05
16 *567:24 *2212:B2 4.24292e-06
17 *567:24 *2214:B2 4.43871e-06
18 *567:28 *721:8 0
19 *2204:B *567:10 0
20 *2206:A1 *2206:B1 2.30292e-05
21 *2206:A1 *2208:B1 6.49856e-05
22 *2208:A2 *2208:B1 6.57019e-05
23 *2208:C1 *2208:B1 9.46111e-06
24 *2210:A1 *567:24 0.000187759
25 *2210:A1 *567:28 9.50342e-06
26 *2212:A1 *2212:B1 2.75145e-05
27 *2214:A1 *2214:B1 1.83756e-05
28 *2216:A2 *567:20 4.34724e-05
29 *2217:B *567:10 2.87867e-05
30 *2217:B *567:20 1.93494e-05
31 *2441:D *2208:B1 8.57024e-05
32 *2441:D *567:28 7.06865e-05
33 *2444:D *2214:B1 0
34 *221:48 *567:10 2.8531e-05
35 *221:48 *567:20 3.00381e-05
36 *565:32 *2212:B1 1.08758e-05
37 *565:32 *567:24 0.000507943
38 *565:32 *567:28 0.000152452
39 *565:45 *567:28 0.000148379
40 *566:25 *567:20 7.89884e-05
41 *566:27 *567:20 7.07801e-05
42 *566:29 *567:20 3.05373e-05
43 *566:29 *567:22 5.7344e-05
44 *566:35 *567:22 1.71013e-05
45 *566:35 *567:24 0.000196406
46 *566:46 *567:28 0
*RES
1 *2204:Y *567:10 6.98 
2 *567:10 *567:20 6.26 
3 *567:20 *567:22 1.635 
4 *567:22 *567:24 6.225 
5 *567:24 *567:28 7.715 
6 *567:28 *2208:B1 4.945 
7 *567:28 *2206:B1 2.05 
8 *567:24 *2210:B1 3.6 
9 *567:22 *2212:B1 4.41 
10 *567:20 *2214:B1 4.41 
11 *567:10 *2216:B1 1.6 
*END

*D_NET *568 0.0011095
*CONN
*I *2206:B2 I *D sky130_fd_sc_hd__a221o_1
*I *2205:X O *D sky130_fd_sc_hd__xor2_1
*CAP
1 *2206:B2 0.000246015
2 *2205:X 0.000246015
3 *2206:B2 *2281:A2 0
4 *2206:B2 *2281:B1 0.000124007
5 *2206:B2 *721:10 0
6 *2206:B2 *721:12 0
7 *2203:B1 *2206:B2 0.000339112
8 *2206:A1 *2206:B2 1.12643e-05
9 *2208:B1 *2206:B2 1.12643e-05
10 *2709:A *2206:B2 4.99619e-05
11 *565:45 *2206:B2 9.50342e-06
12 *565:47 *2206:B2 7.23602e-05
*RES
1 *2205:X *2206:B2 13.1438 
*END

*D_NET *569 0.000772908
*CONN
*I *2208:B2 I *D sky130_fd_sc_hd__a221o_1
*I *2207:X O *D sky130_fd_sc_hd__xor2_1
*CAP
1 *2208:B2 9.16124e-05
2 *2207:X 9.16124e-05
3 *2208:B2 *717:142 0
4 *2205:B *2208:B2 0.000185398
5 *2208:A1 *2208:B2 0.000163992
6 *2208:C1 *2208:B2 1.10848e-05
7 *217:29 *2208:B2 0.000110683
8 *222:34 *2208:B2 0.000118527
*RES
1 *2207:X *2208:B2 10.86 
*END

*D_NET *570 0.000280847
*CONN
*I *2210:B2 I *D sky130_fd_sc_hd__a221o_1
*I *2209:X O *D sky130_fd_sc_hd__xor2_1
*CAP
1 *2210:B2 0.000140423
2 *2209:X 0.000140423
*RES
1 *2209:X *2210:B2 5.15375 
*END

*D_NET *571 0.000631003
*CONN
*I *2212:B2 I *D sky130_fd_sc_hd__a221o_1
*I *2211:X O *D sky130_fd_sc_hd__xor2_1
*CAP
1 *2212:B2 0.000183507
2 *2211:X 0.000183507
3 *2212:B2 *2214:B2 4.05138e-05
4 *2212:A1 *2212:B2 1.12643e-05
5 *218:14 *2212:B2 9.66021e-05
6 *222:66 *2212:B2 0
7 *565:20 *2212:B2 9.50342e-06
8 *565:32 *2212:B2 0.000101863
9 *567:24 *2212:B2 4.24292e-06
*RES
1 *2211:X *2212:B2 10.4288 
*END

*D_NET *572 0.000746239
*CONN
*I *2214:B2 I *D sky130_fd_sc_hd__a221o_1
*I *2213:X O *D sky130_fd_sc_hd__xor2_1
*CAP
1 *2214:B2 0.000155936
2 *2213:X 0.000155936
3 *2212:A1 *2214:B2 0.000105853
4 *2212:B2 *2214:B2 4.05138e-05
5 *2214:A1 *2214:B2 2.49708e-05
6 *221:48 *2214:B2 6.36578e-05
7 *565:20 *2214:B2 1.40205e-05
8 *565:32 *2214:B2 8.40269e-05
9 *567:20 *2214:B2 2.4997e-05
10 *567:22 *2214:B2 7.18895e-05
11 *567:24 *2214:B2 4.43871e-06
*RES
1 *2213:X *2214:B2 11.415 
*END

*D_NET *573 0.000696528
*CONN
*I *2216:B2 I *D sky130_fd_sc_hd__a221o_1
*I *2215:X O *D sky130_fd_sc_hd__xor2_1
*CAP
1 *2216:B2 0.00016682
2 *2215:X 0.00016682
3 *2214:A1 *2216:B2 7.35729e-05
4 *2216:C1 *2216:B2 7.33772e-05
5 *221:48 *2216:B2 0.000134245
6 *565:14 *2216:B2 7.06865e-05
7 *566:25 *2216:B2 1.10062e-05
*RES
1 *2215:X *2216:B2 10.0837 
*END

*D_NET *574 0.00114634
*CONN
*I *2220:A2 I *D sky130_fd_sc_hd__o21a_1
*I *2219:A2 I *D sky130_fd_sc_hd__a21oi_1
*I *2217:Y O *D sky130_fd_sc_hd__nand2b_1
*CAP
1 *2220:A2 8.47581e-06
2 *2219:A2 4.6035e-05
3 *2217:Y 0.00026356
4 *574:6 0.000318071
5 *2219:A2 *2220:B1 4.92062e-05
6 *2220:A2 *2220:B1 5.4155e-06
7 *574:6 *2220:B1 5.30673e-05
8 *574:6 *2445:CLK 8.22163e-05
9 *2204:B *574:6 0.0001249
10 *2217:A_N *574:6 7.66083e-05
11 *2217:B *574:6 1.12643e-05
12 *2219:A1 *2219:A2 4.82863e-05
13 *211:95 *574:6 5.92345e-05
*RES
1 *2217:Y *574:6 6.535 
2 *574:6 *2219:A2 2.755 
3 *574:6 *2220:A2 1.96 
*END

*D_NET *575 0.00209629
*CONN
*I *2219:B1 I *D sky130_fd_sc_hd__a21oi_1
*I *2223:A3 I *D sky130_fd_sc_hd__o31a_1
*I *2218:Y O *D sky130_fd_sc_hd__nor2_1
*CAP
1 *2219:B1 0.000303475
2 *2223:A3 0.00033745
3 *2218:Y 0.000158078
4 *575:6 0.000799004
5 *2223:A3 *2223:B1 3.70572e-05
6 *2201:A *2219:B1 4.34477e-05
7 *2204:B *2219:B1 0
8 *2218:A *2223:A3 4.47209e-05
9 *2218:B *2223:A3 4.82863e-05
10 *2220:A1 *2219:B1 0
11 *2223:A2 *2219:B1 0
12 *2223:A2 *2223:A3 0.00012454
13 *2223:A2 *575:6 0.000197264
14 *2224:A1 *2219:B1 0
15 *211:10 *2219:B1 2.97004e-06
16 *222:88 *2219:B1 0
17 *367:10 *2219:B1 0
*RES
1 *2218:Y *575:6 3.775 
2 *575:6 *2223:A3 7.675 
3 *575:6 *2219:B1 9.905 
*END

*D_NET *576 0.000388777
*CONN
*I *2220:B1 I *D sky130_fd_sc_hd__o21a_1
*I *2219:Y O *D sky130_fd_sc_hd__a21oi_1
*CAP
1 *2220:B1 0.000132452
2 *2219:Y 0.000132452
3 *2219:A1 *2220:B1 1.61831e-05
4 *2219:A2 *2220:B1 4.92062e-05
5 *2220:A2 *2220:B1 5.4155e-06
6 *211:95 *2220:B1 0
7 *574:6 *2220:B1 5.30673e-05
*RES
1 *2219:Y *2220:B1 5.81 
*END

*D_NET *577 0.002441
*CONN
*I *2225:S I *D sky130_fd_sc_hd__mux2_1
*I *2223:B1 I *D sky130_fd_sc_hd__o31a_1
*I *2221:X O *D sky130_fd_sc_hd__or2_1
*CAP
1 *2225:S 0.000202193
2 *2223:B1 0.000345359
3 *2221:X 0.00018558
4 *577:12 0.000733132
5 *2223:B1 *2490:RESET_B 0
6 *2223:B1 *853:71 0
7 *2225:S *2475:CLK 5.69721e-05
8 *2225:S *2490:RESET_B 0
9 *577:12 *2476:CLK 4.99619e-05
10 *577:12 *2476:RESET_B 0.000116135
11 *2218:A *2223:B1 0
12 *2221:A *577:12 5.60943e-05
13 *2222:A *2223:B1 2.75538e-05
14 *2222:A *2225:S 2.63378e-05
15 *2222:B *2223:B1 4.82863e-05
16 *2223:A2 *2223:B1 8.40269e-05
17 *2223:A3 *2223:B1 3.70572e-05
18 *2225:A0 *2225:S 0.000140912
19 *2225:A1 *2225:S 3.21634e-05
20 *2474:D *2223:B1 0.000117825
21 *2476:D *577:12 3.02303e-05
22 *210:12 *2223:B1 2.46089e-05
23 *368:10 *2223:B1 0.00012657
*RES
1 *2221:X *577:12 7.62 
2 *577:12 *2223:B1 10.32 
3 *577:12 *2225:S 7.965 
*END

*D_NET *578 0.00119446
*CONN
*I *2224:S I *D sky130_fd_sc_hd__mux2_1
*I *2222:X O *D sky130_fd_sc_hd__and2_1
*CAP
1 *2224:S 0.000339391
2 *2222:X 0.000339391
3 *2222:B *2224:S 0.000105533
4 *2225:A0 *2224:S 0.000188169
5 *2225:A1 *2224:S 3.65039e-05
6 *2475:D *2224:S 0.00015311
7 *211:25 *2224:S 3.23663e-05
*RES
1 *2222:X *2224:S 14.385 
*END

*D_NET *579 0.00317716
*CONN
*I *2227:B I *D sky130_fd_sc_hd__and2_1
*I *2234:B I *D sky130_fd_sc_hd__nor2_1
*I *2233:A I *D sky130_fd_sc_hd__nor2_1
*I *2226:X O *D sky130_fd_sc_hd__and3_1
*CAP
1 *2227:B 0.000111432
2 *2234:B 0.000128906
3 *2233:A 3.93768e-05
4 *2226:X 0.000148463
5 *579:14 0.000509447
6 *579:10 0.00060106
7 *2227:B *580:12 4.66108e-05
8 *2227:B *861:82 0.000137571
9 *2233:A *2233:B 5.4155e-06
10 *2234:B *2233:B 1.80451e-05
11 *2234:B *2234:A 1.24714e-05
12 *579:10 *717:200 5.8218e-05
13 *579:10 *861:29 0
14 *1972:A *579:10 0.000128353
15 *2113:B2 *579:10 7.30547e-05
16 *2230:B1 *2227:B 0.000301886
17 *2230:B1 *579:10 8.53113e-06
18 *2528:D *2233:A 2.16917e-05
19 *2528:D *2234:B 1.61831e-05
20 *2694:A *579:10 2.49909e-05
21 *2698:A *2227:B 9.42224e-05
22 *2698:A *579:10 2.23407e-05
23 *171:54 *2233:A 1.08758e-05
24 *171:54 *579:14 7.35693e-05
25 *172:18 *579:10 7.5416e-05
26 *174:25 *2227:B 4.66108e-05
27 *363:10 *579:10 0.000114492
28 *364:16 *579:14 0.000347922
*RES
1 *2226:X *579:10 7.47 
2 *579:10 *579:14 6.59 
3 *579:14 *2233:A 2.77 
4 *579:14 *2234:B 3.7 
5 *579:10 *2227:B 7.725 
*END

*D_NET *580 0.00312203
*CONN
*I *2235:A I *D sky130_fd_sc_hd__nor2_1
*I *2237:A2 I *D sky130_fd_sc_hd__a21oi_1
*I *2228:C I *D sky130_fd_sc_hd__and3_1
*I *2236:B I *D sky130_fd_sc_hd__xnor2_1
*I *2227:X O *D sky130_fd_sc_hd__and2_1
*CAP
1 *2235:A 0.000320663
2 *2237:A2 0.000115732
3 *2228:C 0
4 *2236:B 5.40687e-05
5 *2227:X 0
6 *580:27 0.000318089
7 *580:12 0.000350947
8 *580:4 0.000415184
9 *2235:A *2235:B 0
10 *2235:A *2529:CLK 0.000209149
11 *2235:A *862:59 7.54567e-05
12 *2236:B *2530:CLK 4.66108e-05
13 *580:12 *2529:CLK 0.000120655
14 *580:12 *2530:CLK 0.000139933
15 *580:27 *2530:CLK 2.07184e-05
16 *1966:A *2237:A2 3.29376e-05
17 *1966:A *580:27 8.09332e-05
18 *1968:A *2237:A2 1.61831e-05
19 *2227:B *580:12 4.66108e-05
20 *2228:A *2237:A2 3.26889e-05
21 *2230:B1 *580:12 0.000160651
22 *2230:B1 *580:27 0.000292053
23 *2526:D *580:12 1.26548e-05
24 *2526:D *580:27 0.000147967
25 *2529:D *2235:A 0
26 *174:25 *2235:A 5.22973e-05
27 *174:25 *580:12 4.36661e-05
28 *176:14 *2237:A2 1.61831e-05
*RES
1 *2227:X *580:4 1.6 
2 *580:4 *580:12 5.39 
3 *580:12 *2236:B 4.395 
4 *580:12 *580:27 6.8075 
5 *580:27 *2228:C 1.6 
6 *580:27 *2237:A2 3.4525 
7 *580:4 *2235:A 12.455 
*END

*D_NET *581 0.00361201
*CONN
*I *2238:A I *D sky130_fd_sc_hd__nor2_1
*I *2239:B I *D sky130_fd_sc_hd__nor2_1
*I *2229:B I *D sky130_fd_sc_hd__and2_1
*I *2230:A3 I *D sky130_fd_sc_hd__a31o_1
*I *2228:X O *D sky130_fd_sc_hd__and3_1
*CAP
1 *2238:A 0.000537273
2 *2239:B 0.00025674
3 *2229:B 0
4 *2230:A3 0
5 *2228:X 0
6 *581:19 0.000442546
7 *581:10 0.000306429
8 *581:4 0.000657896
9 *2238:A *2238:B 2.28015e-05
10 *2238:A *2693:A 4.82919e-05
11 *2239:B *2240:A 0
12 *2239:B *2240:B 3.40435e-05
13 *2239:B *2532:RESET_B 0
14 *581:10 *861:82 0
15 *581:19 *2532:RESET_B 0
16 *581:19 *861:82 0
17 *1968:A *2238:A 0.000145515
18 *1968:A *581:10 0.000124007
19 *2230:B1 *581:10 6.55406e-05
20 *2239:A *2239:B 0.000409518
21 *2239:A *581:19 9.50342e-06
22 *2526:D *581:10 9.5433e-05
23 *176:14 *2238:A 9.34967e-05
24 *177:14 *581:19 0.000362972
25 *357:10 *581:10 0
26 *357:19 *581:10 0
27 *357:19 *581:19 0
*RES
1 *2228:X *581:4 1.6 
2 *581:4 *581:10 4.775 
3 *581:10 *2230:A3 3.6 
4 *581:10 *581:19 4.44 
5 *581:19 *2229:B 3.6 
6 *581:19 *2239:B 8.805 
7 *581:4 *2238:A 8.905 
*END

*D_NET *582 0.00136785
*CONN
*I *2240:A I *D sky130_fd_sc_hd__nor2_1
*I *2241:B I *D sky130_fd_sc_hd__xnor2_1
*I *2229:X O *D sky130_fd_sc_hd__and2_1
*CAP
1 *2240:A 0.000313199
2 *2241:B 0.000249867
3 *2229:X 0
4 *582:4 0.000563067
5 *2240:A *2532:RESET_B 8.07672e-05
6 *2240:A *724:68 4.64851e-05
7 *2241:B *724:68 5.17188e-05
8 *2239:B *2240:A 0
9 *2532:D *2240:A 0
10 *177:8 *2240:A 1.61831e-05
11 *177:8 *2241:B 4.65607e-05
*RES
1 *2229:X *582:4 1.6 
2 *582:4 *2241:B 4.99 
3 *582:4 *2240:A 9.845 
*END

*D_NET *583 0.000275175
*CONN
*I *2233:B I *D sky130_fd_sc_hd__nor2_1
*I *2232:Y O *D sky130_fd_sc_hd__a21oi_1
*CAP
1 *2233:B 9.59137e-05
2 *2232:Y 9.59137e-05
3 *2233:B *2234:A 2.3887e-05
4 *2232:A2 *2233:B 3.59997e-05
5 *2233:A *2233:B 5.4155e-06
6 *2234:B *2233:B 1.80451e-05
7 *171:54 *2233:B 0
*RES
1 *2232:Y *2233:B 9.0675 
*END

*D_NET *584 0.000371393
*CONN
*I *2235:B I *D sky130_fd_sc_hd__nor2_1
*I *2234:Y O *D sky130_fd_sc_hd__nor2_1
*CAP
1 *2235:B 0.000135345
2 *2234:Y 0.000135345
3 *2235:B *912:DIODE 4.99619e-05
4 *2235:B *862:59 0
5 *2235:A *2235:B 0
6 *2529:D *2235:B 5.07419e-05
*RES
1 *2234:Y *2235:B 9.72 
*END

*D_NET *585 0.000126224
*CONN
*I *2693:A I *D sky130_fd_sc_hd__dlygate4sd3_1
*I *2237:Y O *D sky130_fd_sc_hd__a21oi_1
*CAP
1 *2693:A 3.89659e-05
2 *2237:Y 3.89659e-05
3 *2228:A *2693:A 0
4 *2238:A *2693:A 4.82919e-05
*RES
1 *2237:Y *2693:A 4.01 
*END

*D_NET *586 0.000257407
*CONN
*I *2240:B I *D sky130_fd_sc_hd__nor2_1
*I *2239:Y O *D sky130_fd_sc_hd__nor2_1
*CAP
1 *2240:B 0.000101128
2 *2239:Y 0.000101128
3 *2239:B *2240:B 3.40435e-05
4 *2532:D *2240:B 2.11084e-05
*RES
1 *2239:Y *2240:B 5.045 
*END

*D_NET *587 0.0114692
*CONN
*I *2616:A I *D sky130_fd_sc_hd__buf_2
*I *2617:A I *D sky130_fd_sc_hd__buf_2
*I *2244:Y O *D sky130_fd_sc_hd__nor2_1
*CAP
1 *2616:A 0.00386665
2 *2617:A 0.000137857
3 *2244:Y 3.38648e-05
4 *587:8 0.00403837
5 *2616:A *2263:A1 0.000311797
6 *2616:A *2265:A1 0.000117825
7 *2616:A *2265:A2 0.000110315
8 *2616:A *2428:A0 0.000491728
9 *2616:A *2499:RESET_B 0
10 *2616:A *2504:RESET_B 0
11 *2616:A *2635:A 0
12 *2616:A *2636:A 0
13 *2616:A *730:46 6.63558e-05
14 *2616:A *829:21 0.000110683
15 *2616:A *829:36 0.000247567
16 *2616:A *853:16 0
17 *2617:A *2393:A2 7.30547e-05
18 *2617:A *829:21 0.000178321
19 *2617:A *837:30 0.000207557
20 *2617:A *854:12 2.97122e-05
21 *2100:B *2616:A 0.000388296
22 *2100:B *2617:A 4.43871e-06
23 *2100:B *587:8 4.82919e-05
24 *2181:A1 *2616:A 4.97278e-05
25 *2264:A2 *2616:A 0.000118446
26 *2428:A1 *2616:A 0.000559153
27 *2705:A *2616:A 0
28 *126:33 *2616:A 0.00016307
29 *485:12 *2616:A 0.000116158
30 *507:19 *2616:A 0
*RES
1 *2244:Y *587:8 4.05 
2 *587:8 *2617:A 7.41 
3 *587:8 *2616:A 35.6722 
*END

*D_NET *588 0.000852408
*CONN
*I *2615:A I *D sky130_fd_sc_hd__buf_2
*I *2245:X O *D sky130_fd_sc_hd__o21ba_1
*CAP
1 *2615:A 0.000151139
2 *2245:X 0.000151139
3 *2615:A *2613:A 0.000308741
4 *2615:A *826:172 3.09164e-05
5 *2615:A *854:84 1.23839e-05
6 *2249:A2 *2615:A 0.000101876
7 *482:10 *2615:A 7.70424e-07
8 *482:12 *2615:A 9.54407e-05
*RES
1 *2245:X *2615:A 11.325 
*END

*D_NET *589 0.00174252
*CONN
*I *2613:A I *D sky130_fd_sc_hd__clkbuf_4
*I *2246:Y O *D sky130_fd_sc_hd__o21bai_1
*CAP
1 *2613:A 0.000394828
2 *2246:Y 0.000394828
3 *2613:A *2246:A2 0
4 *2613:A *825:10 9.40874e-05
5 *2613:A *826:172 7.09926e-05
6 *2249:A2 *2613:A 2.60986e-05
7 *2506:D *2613:A 0
8 *2516:D *2613:A 0.000291372
9 *2615:A *2613:A 0.000308741
10 *376:104 *2613:A 0
11 *507:19 *2613:A 0.000161573
*RES
1 *2246:Y *2613:A 16.485 
*END

*D_NET *590 0.00133501
*CONN
*I *2611:A I *D sky130_fd_sc_hd__buf_2
*I *2247:Y O *D sky130_fd_sc_hd__nor2_1
*CAP
1 *2611:A 0.000172122
2 *2247:Y 0.000172122
3 *2611:A *2247:A 0.000211122
4 *2611:A *2607:A 1.91597e-05
5 *2611:A *819:18 9.27326e-05
6 *2611:A *822:18 0.000257474
7 *2611:A *822:30 2.0514e-05
8 *2611:A *826:22 0.000255617
9 *2611:A *842:62 4.82919e-05
10 *372:10 *2611:A 4.10051e-05
11 *380:14 *2611:A 3.86814e-05
12 *443:52 *2611:A 6.16226e-06
*RES
1 *2247:Y *2611:A 12.1726 
*END

*D_NET *591 0.000681475
*CONN
*I *2608:A I *D sky130_fd_sc_hd__buf_2
*I *2248:Y O *D sky130_fd_sc_hd__nand2_1
*CAP
1 *2608:A 0.000159364
2 *2248:Y 0.000159364
3 *2608:A *932:DIODE 1.42329e-05
4 *2608:A *2247:A 0.000228721
5 *2608:A *2607:A 3.34252e-05
6 *2608:A *818:6 3.07153e-05
7 *2608:A *818:31 7.67415e-06
8 *2608:A *822:18 3.79595e-05
9 *2608:A *826:22 5.83121e-06
10 *2608:A *847:214 4.18603e-06
11 *443:52 *2608:A 0
*RES
1 *2248:Y *2608:A 10.965 
*END

*D_NET *592 0.00239462
*CONN
*I *2251:B1 I *D sky130_fd_sc_hd__o21a_1
*I *2250:X O *D sky130_fd_sc_hd__a221o_1
*CAP
1 *2251:B1 0.000786266
2 *2250:X 0.000786266
3 *2251:B1 *2250:B1 0.000410433
4 *2251:B1 *2251:A2 3.64998e-06
5 *2251:B1 *2252:A1 0
6 *2251:B1 *2252:C1 4.58406e-05
7 *2251:B1 *2492:RESET_B 7.40752e-05
8 *2251:B1 *725:45 4.07637e-05
9 *2251:B1 *846:18 8.49205e-05
10 *539:23 *2251:B1 0.000162404
*RES
1 *2250:X *2251:B1 19.455 
*END

*D_NET *593 0.00091871
*CONN
*I *2253:B1 I *D sky130_fd_sc_hd__o21a_1
*I *2252:X O *D sky130_fd_sc_hd__a221o_1
*CAP
1 *2253:B1 0.000281323
2 *2252:X 0.000281323
3 *2253:B1 *2251:A2 9.57385e-05
4 *2253:B1 *2494:RESET_B 4.77719e-05
5 *2253:B1 *819:68 0
6 *2145:A1 *2253:B1 5.14218e-05
7 *2677:A *2253:B1 0.000161132
*RES
1 *2252:X *2253:B1 12.465 
*END

*D_NET *594 0.00109022
*CONN
*I *2255:B1 I *D sky130_fd_sc_hd__o21a_1
*I *2254:X O *D sky130_fd_sc_hd__a221o_1
*CAP
1 *2255:B1 0.000362104
2 *2254:X 0.000362104
3 *2255:B1 *2171:C 1.88656e-05
4 *2255:B1 *791:47 0.000120174
5 *2255:B1 *822:77 0
6 *2255:B1 *841:65 0.000140526
7 *2170:B1 *2255:B1 8.64421e-05
*RES
1 *2254:X *2255:B1 13.71 
*END

*D_NET *595 0.000660125
*CONN
*I *2257:B1 I *D sky130_fd_sc_hd__o21a_1
*I *2256:X O *D sky130_fd_sc_hd__a221o_1
*CAP
1 *2257:B1 0.000235349
2 *2256:X 0.000235349
3 *2257:B1 *2256:C1 5.83121e-06
4 *2257:B1 *2258:C1 1.01661e-05
5 *2257:B1 *2496:RESET_B 6.99988e-05
6 *2257:B1 *819:95 2.75229e-05
7 *2257:B1 *850:96 1.03755e-05
8 *2258:A2 *2257:B1 0
9 *2258:B2 *2257:B1 6.55328e-05
*RES
1 *2256:X *2257:B1 11.52 
*END

*D_NET *596 0.000303491
*CONN
*I *2259:B1 I *D sky130_fd_sc_hd__o21a_1
*I *2258:X O *D sky130_fd_sc_hd__a221o_1
*CAP
1 *2259:B1 5.91525e-05
2 *2258:X 5.91525e-05
3 *2259:B1 *2260:C1 6.02853e-05
4 *2259:B1 *841:40 0.0001249
5 *2258:B2 *2259:B1 0
*RES
1 *2258:X *2259:B1 4.955 
*END

*D_NET *597 0.000408278
*CONN
*I *2261:B1 I *D sky130_fd_sc_hd__o21a_1
*I *2260:X O *D sky130_fd_sc_hd__a221o_1
*CAP
1 *2261:B1 4.12091e-05
2 *2260:X 4.12091e-05
3 *2261:B1 *822:34 0.000124007
4 *2261:B1 *836:24 2.7881e-05
5 *2261:B1 *841:34 0.000122331
6 *127:10 *2261:B1 5.16418e-05
*RES
1 *2260:X *2261:B1 8.955 
*END

*D_NET *598 0.000246637
*CONN
*I *2263:B1 I *D sky130_fd_sc_hd__o21a_1
*I *2262:X O *D sky130_fd_sc_hd__a221o_1
*CAP
1 *2263:B1 5.8533e-05
2 *2262:X 5.8533e-05
3 *2263:B1 *730:52 7.60965e-05
4 *2263:B1 *822:32 5.34747e-05
5 *2263:B1 *841:34 0
*RES
1 *2262:X *2263:B1 4.955 
*END

*D_NET *599 0.000750211
*CONN
*I *2265:B1 I *D sky130_fd_sc_hd__o21a_1
*I *2264:X O *D sky130_fd_sc_hd__a221o_1
*CAP
1 *2265:B1 0.000163823
2 *2264:X 0.000163823
3 *2265:B1 *2499:RESET_B 0
4 *2265:B1 *2635:A 0
5 *2265:B1 *2636:A 0
6 *2265:B1 *852:117 4.66108e-05
7 *2264:A2 *2265:B1 0.000285661
8 *2500:D *2265:B1 9.02937e-05
*RES
1 *2264:X *2265:B1 11.07 
*END

*D_NET *600 0.00158791
*CONN
*I *2267:B1 I *D sky130_fd_sc_hd__o21a_1
*I *2266:X O *D sky130_fd_sc_hd__a221o_1
*CAP
1 *2267:B1 0.000283727
2 *2266:X 0.000283727
3 *2267:B1 *2266:C1 4.92062e-05
4 *2267:B1 *2292:A 0.000400738
5 *2267:B1 *828:16 0.000187547
6 *2267:B1 *841:14 0.000244775
7 *2501:D *2267:B1 0.000138188
8 *126:33 *2267:B1 0
*RES
1 *2266:X *2267:B1 15.495 
*END

*D_NET *601 0.000309494
*CONN
*I *2269:B1 I *D sky130_fd_sc_hd__o21a_1
*I *2268:X O *D sky130_fd_sc_hd__a221o_1
*CAP
1 *2269:B1 9.40283e-05
2 *2268:X 9.40283e-05
3 *2269:B1 *2268:C1 0
4 *2269:B1 *814:25 0.000121437
*RES
1 *2268:X *2269:B1 4.955 
*END

*D_NET *602 0.00118574
*CONN
*I *2271:B1 I *D sky130_fd_sc_hd__o21a_1
*I *2270:X O *D sky130_fd_sc_hd__a221o_1
*CAP
1 *2271:B1 0.000411273
2 *2270:X 0.000411273
3 *2271:B1 *2271:A2 3.86529e-05
4 *2271:B1 *2469:RESET_B 0.000166583
5 *2271:B1 *2503:CLK 1.4237e-05
6 *2271:B1 *845:51 0
7 *2270:A2 *2271:B1 4.9253e-06
8 *2503:D *2271:B1 0.000138791
*RES
1 *2270:X *2271:B1 13.08 
*END

*D_NET *603 0.000297137
*CONN
*I *2273:B1 I *D sky130_fd_sc_hd__o21a_1
*I *2272:X O *D sky130_fd_sc_hd__a221o_1
*CAP
1 *2273:B1 8.52834e-05
2 *2272:X 8.52834e-05
3 *2273:B1 *829:86 0.00012657
4 *2273:B1 *829:101 0
*RES
1 *2272:X *2273:B1 4.955 
*END

*D_NET *604 0.001398
*CONN
*I *2275:B1 I *D sky130_fd_sc_hd__o21a_1
*I *2274:X O *D sky130_fd_sc_hd__a221o_1
*CAP
1 *2275:B1 0.000261339
2 *2274:X 0.000261339
3 *2275:B1 *2274:A1 2.75229e-05
4 *2275:B1 *2470:RESET_B 6.00081e-05
5 *2275:B1 *818:31 4.18603e-06
6 *2275:B1 *818:42 0.000122539
7 *2275:B1 *829:76 1.59372e-05
8 *2275:B1 *845:42 0.000302232
9 *2275:B1 *854:112 0.000105841
10 *2274:A2 *2275:B1 3.76916e-05
11 *2274:B2 *2275:B1 7.61366e-05
12 *112:10 *2275:B1 0.000123225
*RES
1 *2274:X *2275:B1 14.775 
*END

*D_NET *605 0.0012755
*CONN
*I *2277:B1 I *D sky130_fd_sc_hd__o21a_1
*I *2276:X O *D sky130_fd_sc_hd__a221o_1
*CAP
1 *2277:B1 0.000491135
2 *2276:X 0.000491135
3 *2277:B1 *2516:CLK 0.000140145
4 *2277:B1 *733:87 0
5 *2277:B1 *845:30 0.000114912
6 *2091:B *2277:B1 0
7 *376:96 *2277:B1 2.86729e-05
8 *376:104 *2277:B1 9.50342e-06
*RES
1 *2276:X *2277:B1 13.77 
*END

*D_NET *606 0.0013929
*CONN
*I *2279:B1 I *D sky130_fd_sc_hd__o21a_1
*I *2278:X O *D sky130_fd_sc_hd__a221o_1
*CAP
1 *2279:B1 0.000244906
2 *2278:X 0.000244906
3 *2279:B1 *2278:B1 2.36666e-05
4 *2507:D *2279:B1 0.000115083
5 *380:14 *2279:B1 0.000473561
6 *443:52 *2279:B1 0.000290781
*RES
1 *2278:X *2279:B1 13.365 
*END

*D_NET *607 0.00152202
*CONN
*I *2281:B1 I *D sky130_fd_sc_hd__a21o_1
*I *2280:X O *D sky130_fd_sc_hd__and3_1
*CAP
1 *2281:B1 0.00056423
2 *2280:X 0.00056423
3 *2281:B1 *2281:A1 2.50238e-05
4 *2281:B1 *2281:A2 1.3462e-05
5 *2281:B1 *2563:CLK 8.40269e-05
6 *2206:B2 *2281:B1 0.000124007
7 *2709:A *2281:B1 2.30292e-05
8 *215:21 *2281:B1 0.000124007
*RES
1 *2280:X *2281:B1 10.94 
*END

*D_NET *608 0.000638497
*CONN
*I *2283:B1 I *D sky130_fd_sc_hd__a21o_1
*I *2282:X O *D sky130_fd_sc_hd__and3_1
*CAP
1 *2283:B1 0.000106287
2 *2282:X 0.000106287
3 *2283:B1 *2284:C 1.07797e-05
4 *2283:B1 *2286:C 0.000164279
5 *2283:B1 *820:64 0.00015428
6 *2283:B1 *820:72 4.82919e-05
7 *222:23 *2283:B1 4.82919e-05
*RES
1 *2282:X *2283:B1 11.07 
*END

*D_NET *609 0.0011447
*CONN
*I *2285:B1 I *D sky130_fd_sc_hd__a21o_1
*I *2284:X O *D sky130_fd_sc_hd__and3_1
*CAP
1 *2285:B1 0.000335942
2 *2284:X 0.000335942
3 *2285:B1 *2284:C 0.000134276
4 *2285:B1 *845:98 0.000196376
5 *2207:A *2285:B1 4.0843e-05
6 *2284:B *2285:B1 8.65961e-05
7 *2510:D *2285:B1 1.47256e-05
*RES
1 *2284:X *2285:B1 9.65 
*END

*D_NET *610 0.00085916
*CONN
*I *2287:B1 I *D sky130_fd_sc_hd__a21o_1
*I *2286:X O *D sky130_fd_sc_hd__and3_1
*CAP
1 *2287:B1 0.00021672
2 *2286:X 0.00021672
3 *2287:B1 *2287:A1 7.00889e-06
4 *2287:B1 *2288:C 7.06865e-05
5 *2287:B1 *2474:RESET_B 0
6 *2287:B1 *814:84 0.000199783
7 *2287:B1 *842:90 4.82919e-05
8 *2287:B1 *853:46 9.99492e-05
*RES
1 *2286:X *2287:B1 12.465 
*END

*D_NET *611 0.00051581
*CONN
*I *2289:B1 I *D sky130_fd_sc_hd__a21o_1
*I *2288:X O *D sky130_fd_sc_hd__and3_1
*CAP
1 *2289:B1 7.42952e-05
2 *2288:X 7.42952e-05
3 *2289:B1 *2289:A2 0.000141599
4 *2289:B1 *2474:RESET_B 0.000141599
5 *221:48 *2289:B1 8.40213e-05
*RES
1 *2288:X *2289:B1 9.63 
*END

*D_NET *612 0.00163152
*CONN
*I *2291:B1 I *D sky130_fd_sc_hd__a21o_1
*I *2290:X O *D sky130_fd_sc_hd__and3_1
*CAP
1 *2291:B1 0.000653435
2 *2290:X 0.000653435
3 *2291:B1 *2290:A 0
4 *2291:B1 *2291:A1 3.54536e-05
5 *2291:B1 *842:90 5.4155e-06
6 *2291:B1 *842:118 0.000112902
7 *2512:D *2291:B1 8.85291e-05
8 *2513:D *2291:B1 8.23457e-05
*RES
1 *2290:X *2291:B1 12.89 
*END

*D_NET *613 0.00140039
*CONN
*I *2293:B1 I *D sky130_fd_sc_hd__a21o_1
*I *2292:X O *D sky130_fd_sc_hd__and3_1
*CAP
1 *2293:B1 0.000522018
2 *2292:X 0.000522018
3 *2293:B1 *919:DIODE 4.54719e-05
4 *2293:B1 *2267:A1 9.13777e-05
5 *2293:B1 *2292:A 9.66021e-05
6 *2293:B1 *717:234 9.37731e-05
7 *2293:B1 *730:8 0
8 *2293:B1 *730:104 0
9 *2293:B1 *820:76 1.73858e-05
10 *2293:B1 *820:78 1.17409e-05
*RES
1 *2292:X *2293:B1 14.46 
*END

*D_NET *614 0.00175499
*CONN
*I *2320:A1 I *D sky130_fd_sc_hd__o21a_1
*I *2298:A1 I *D sky130_fd_sc_hd__o21a_1
*I *2295:X O *D sky130_fd_sc_hd__and3_1
*CAP
1 *2320:A1 7.70753e-05
2 *2298:A1 1.95886e-05
3 *2295:X 0.000185143
4 *614:12 0.000281807
5 *2298:A1 *2298:A2 8.57024e-05
6 *2298:A1 *2309:C 4.66108e-05
7 *2298:A1 *637:10 2.16833e-05
8 *2320:A1 *2298:A2 3.66286e-05
9 *2320:A1 *2309:C 0.00015896
10 *2320:A1 *637:10 0.000109947
11 *614:12 *2298:A2 0.00015356
12 *614:12 *2309:C 2.92496e-05
13 *614:12 *2316:A2 0.000117297
14 *614:12 *615:22 7.9642e-06
15 *614:12 *615:71 0
16 *614:12 *616:12 7.30888e-05
17 *614:12 *637:10 8.08153e-06
18 *2110:B *614:12 1.07797e-05
19 *128:26 *2320:A1 0.000158072
20 *133:16 *2320:A1 7.98925e-05
21 *141:39 *614:12 8.65905e-05
22 *356:8 *614:12 7.26475e-06
*RES
1 *2295:X *614:12 10.07 
2 *614:12 *2298:A1 2.395 
3 *614:12 *2320:A1 4.81 
*END

*D_NET *615 0.00585895
*CONN
*I *2319:C I *D sky130_fd_sc_hd__and4bb_1
*I *2299:C_N I *D sky130_fd_sc_hd__or3b_1
*I *2302:C_N I *D sky130_fd_sc_hd__or3b_1
*I *2315:C I *D sky130_fd_sc_hd__and4bb_1
*I *2297:D I *D sky130_fd_sc_hd__and4bb_1
*I *2305:D I *D sky130_fd_sc_hd__and4_1
*I *2296:Y O *D sky130_fd_sc_hd__nor2_1
*CAP
1 *2319:C 3.45774e-05
2 *2299:C_N 4.85896e-05
3 *2302:C_N 7.22347e-05
4 *2315:C 0
5 *2297:D 0.000161458
6 *2305:D 0.000169652
7 *2296:Y 0.000195162
8 *615:71 0.000611303
9 *615:59 0.000525056
10 *615:24 0.00033111
11 *615:22 0.000219241
12 *615:10 0.000414403
13 *2297:D *2320:A2 4.82919e-05
14 *2297:D *616:12 1.80324e-05
15 *2299:C_N *634:12 8.40269e-05
16 *2302:C_N *634:12 0.000124895
17 *615:22 *2316:A2 4.82863e-05
18 *615:22 *616:12 6.97204e-05
19 *615:71 *634:12 5.1368e-05
20 *615:71 *637:10 0.000224473
21 *1965:A *615:10 2.78732e-05
22 *2104:B *2302:C_N 8.65961e-05
23 *2104:B *615:71 0
24 *2107:B *615:22 2.05056e-05
25 *2110:A *2305:D 6.92232e-05
26 *2110:B *615:71 4.76503e-05
27 *2110:D_N *2305:D 3.09233e-05
28 *2111:A *2305:D 1.61831e-05
29 *2295:C *2297:D 5.02892e-05
30 *2295:C *2305:D 0.000105537
31 *2296:A *615:10 0.000353869
32 *2296:A *615:22 7.06865e-05
33 *2296:B *615:10 4.44919e-05
34 *2302:B *2302:C_N 4.21973e-05
35 *2305:C *2305:D 0.00030221
36 *2305:C *615:71 4.7043e-05
37 *2317:A2 *2299:C_N 0
38 *2319:B_N *2319:C 1.56428e-05
39 *2319:B_N *615:71 6.0011e-05
40 *129:6 *615:71 8.73389e-06
41 *129:25 *2297:D 3.0157e-06
42 *141:22 *615:10 0
43 *141:22 *615:71 8.10847e-05
44 *141:39 *2297:D 6.17614e-05
45 *141:39 *2305:D 7.9642e-06
46 *141:39 *615:22 0.000119762
47 *356:8 *615:10 5.99362e-05
48 *356:8 *615:22 3.54284e-05
49 *356:8 *615:71 0.000170703
50 *492:10 *2299:C_N 0
51 *492:10 *2302:C_N 2.70346e-05
52 *493:14 *615:71 0.000162332
53 *498:8 *2305:D 0.000270415
54 *614:12 *615:22 7.9642e-06
55 *614:12 *615:71 0
*RES
1 *2296:Y *615:10 8.235 
2 *615:10 *615:22 6.29 
3 *615:22 *615:24 2 
4 *615:24 *2305:D 8.715 
5 *615:24 *2297:D 6.24 
6 *615:22 *2315:C 1.6 
7 *615:10 *615:59 2 
8 *615:59 *615:71 13.885 
9 *615:71 *2302:C_N 3.79 
10 *615:71 *2299:C_N 2.755 
11 *615:59 *2319:C 2.05 
*END

*D_NET *616 0.00217445
*CONN
*I *2316:A1 I *D sky130_fd_sc_hd__o21a_1
*I *2298:A2 I *D sky130_fd_sc_hd__o21a_1
*I *2297:X O *D sky130_fd_sc_hd__and4bb_1
*CAP
1 *2316:A1 2.46542e-05
2 *2298:A2 0.000135746
3 *2297:X 0.00027614
4 *616:12 0.00043654
5 *2298:A2 *2309:C 1.07797e-05
6 *2298:A2 *637:10 1.34594e-05
7 *616:12 *2320:A2 4.82863e-05
8 *2110:A *616:12 0.000236067
9 *2296:A *616:12 7.06865e-05
10 *2297:D *616:12 1.80324e-05
11 *2298:A1 *2298:A2 8.57024e-05
12 *2305:C *2316:A1 0.000122325
13 *2319:D *616:12 4.35432e-05
14 *2320:A1 *2298:A2 3.66286e-05
15 *133:16 *2298:A2 4.82919e-05
16 *133:39 *2298:A2 0.000120655
17 *493:20 *2316:A1 0.000122325
18 *497:18 *2298:A2 2.82154e-05
19 *614:12 *2298:A2 0.00015356
20 *614:12 *616:12 7.30888e-05
21 *615:22 *616:12 6.97204e-05
*RES
1 *2297:X *616:12 8.865 
2 *616:12 *2298:A2 7.23 
3 *616:12 *2316:A1 4.74 
*END

*D_NET *617 0.00250092
*CONN
*I *2306:A I *D sky130_fd_sc_hd__or4b_1
*I *2298:X O *D sky130_fd_sc_hd__o21a_1
*CAP
1 *2306:A 0.000570834
2 *2298:X 0.000570834
3 *2306:A *2306:C 0.000216054
4 *2306:A *2312:A2 4.24292e-06
5 *2306:A *2317:B1 2.78732e-05
6 *2306:A *2317:C1 8.18997e-05
7 *2306:A *2318:A1 0.00012657
8 *2306:A *2318:B2 4.89919e-05
9 *2306:A *2325:A2 0.00011916
10 *2306:A *627:10 0
11 *2317:A1 *2306:A 5.64226e-05
12 *2318:A2 *2306:A 3.09164e-05
13 *128:49 *2306:A 0
14 *133:16 *2306:A 0.000112349
15 *133:39 *2306:A 0.000268739
16 *497:18 *2306:A 7.06865e-05
17 *499:28 *2306:A 0.000195345
*RES
1 *2298:X *2306:A 18.225 
*END

*D_NET *618 0.00287863
*CONN
*I *2301:A1 I *D sky130_fd_sc_hd__o21ai_1
*I *2307:B I *D sky130_fd_sc_hd__nor2_1
*I *2299:X O *D sky130_fd_sc_hd__or3b_1
*CAP
1 *2301:A1 0.000168831
2 *2307:B 0.000285971
3 *2299:X 6.37423e-05
4 *618:10 0.000518544
5 *2301:A1 *2318:B2 6.11912e-05
6 *2301:A1 *627:10 6.11912e-05
7 *2301:A1 *630:16 7.15778e-05
8 *2307:B *2301:A2 0.000182349
9 *2307:B *2314:A 0.000115464
10 *2307:B *2321:A3 0.000126177
11 *2307:B *2524:CLK 5.83121e-06
12 *2307:B *2635:A 4.86375e-05
13 *2307:B *623:18 0.000269211
14 *2307:B *626:10 0.000194575
15 *2307:A *2307:B 1.75875e-05
16 *2321:A1 *2301:A1 0.000136962
17 *2321:A1 *2307:B 1.93834e-05
18 *2321:A2 *2301:A1 0.000253432
19 *2321:A2 *2307:B 3.16057e-06
20 *2321:A2 *618:10 1.5253e-05
21 *2321:C1 *2301:A1 9.70131e-05
22 *134:14 *2307:B 0
23 *135:10 *2307:B 2.86623e-05
24 *135:21 *2307:B 1.15688e-05
25 *491:8 *2307:B 2.05571e-05
26 *491:8 *618:10 5.34699e-05
27 *492:10 *618:10 4.82919e-05
*RES
1 *2299:X *618:10 4.7925 
2 *618:10 *2307:B 12.3075 
3 *618:10 *2301:A1 5.9049 
*END

*D_NET *619 0.00129297
*CONN
*I *2301:A2 I *D sky130_fd_sc_hd__o21ai_1
*I *2300:X O *D sky130_fd_sc_hd__or4b_1
*CAP
1 *2301:A2 0.000292297
2 *2300:X 0.000292297
3 *2301:A2 *2321:A3 0.000180675
4 *2301:A2 *2322:A3 0.000345353
5 *2307:B *2301:A2 0.000182349
*RES
1 *2300:X *2301:A2 12.555 
*END

*D_NET *620 0.00109709
*CONN
*I *2317:C1 I *D sky130_fd_sc_hd__a311o_1
*I *2306:C I *D sky130_fd_sc_hd__or4b_1
*I *2301:Y O *D sky130_fd_sc_hd__o21ai_1
*CAP
1 *2317:C1 0.000111412
2 *2306:C 0.000118902
3 *2301:Y 4.43245e-05
4 *620:8 0.000274639
5 *2306:C *2322:A2 0
6 *2317:C1 *2323:C 0
7 *2306:A *2306:C 0.000216054
8 *2306:A *2317:C1 8.18997e-05
9 *2317:A2 *2317:C1 5.05521e-05
10 *128:49 *2306:C 0.000132914
11 *128:49 *2317:C1 2.97361e-05
12 *499:20 *620:8 5.83121e-06
13 *499:22 *620:8 2.49909e-05
14 *499:28 *620:8 5.83121e-06
*RES
1 *2301:Y *620:8 4.05 
2 *620:8 *2306:C 6.255 
3 *620:8 *2317:C1 5.88 
*END

*D_NET *621 0.00140519
*CONN
*I *2304:A I *D sky130_fd_sc_hd__or2_1
*I *2310:B I *D sky130_fd_sc_hd__nor2_1
*I *2302:X O *D sky130_fd_sc_hd__or3b_1
*CAP
1 *2304:A 2.82039e-05
2 *2310:B 3.41407e-05
3 *2302:X 0.000223183
4 *621:8 0.000285528
5 *2304:A *2304:B 3.66286e-05
6 *2310:B *2304:B 8.40269e-05
7 *2310:B *629:10 5.05437e-05
8 *621:8 *623:18 5.49298e-05
9 *2103:A *621:8 4.31796e-05
10 *2103:B *621:8 0.000160314
11 *2103:C *2304:A 8.35106e-05
12 *2103:C *621:8 0.000233561
13 *2103:D *2304:A 6.11042e-05
14 *2103:D *2310:B 2.63322e-05
15 *2103:D *621:8 0
*RES
1 *2302:X *621:8 6.46 
2 *621:8 *2310:B 2.74 
3 *621:8 *2304:A 2.74 
*END

*D_NET *622 0.00125959
*CONN
*I *2304:B I *D sky130_fd_sc_hd__or2_1
*I *2303:X O *D sky130_fd_sc_hd__or4b_1
*CAP
1 *2304:B 0.000301125
2 *2303:X 0.000301125
3 *2304:B *629:10 9.14049e-05
4 *2304:B *848:26 0
5 *2103:D *2304:B 0.000120655
6 *2303:C *2304:B 8.57024e-05
7 *2304:A *2304:B 3.66286e-05
8 *2310:B *2304:B 8.40269e-05
9 *139:18 *2304:B 0.000238919
*RES
1 *2303:X *2304:B 12.33 
*END

*D_NET *623 0.00320793
*CONN
*I *2306:D_N I *D sky130_fd_sc_hd__or4b_1
*I *2314:A I *D sky130_fd_sc_hd__nand2_1
*I *2304:X O *D sky130_fd_sc_hd__or2_1
*CAP
1 *2306:D_N 0.000221291
2 *2314:A 4.05409e-05
3 *2304:X 0.000426625
4 *623:18 0.000688457
5 *2306:D_N *2318:A1 4.66108e-05
6 *2306:D_N *2325:A2 8.05167e-05
7 *2306:D_N *717:255 7.81541e-05
8 *623:18 *917:DIODE 0.000132456
9 *623:18 *717:275 3.27233e-05
10 *2103:A *623:18 6.5181e-05
11 *2103:D *623:18 4.89295e-05
12 *2300:A *2306:D_N 5.83121e-06
13 *2302:A *623:18 4.66108e-05
14 *2307:B *2314:A 0.000115464
15 *2307:B *623:18 0.000269211
16 *2325:B1 *2306:D_N 4.82863e-05
17 *2524:D *2306:D_N 0.000123225
18 *135:21 *2314:A 0.000115464
19 *135:21 *623:18 4.61595e-05
20 *135:32 *623:18 0.000177727
21 *491:8 *623:18 0.000116158
22 *492:10 *623:18 0.00022738
23 *621:8 *623:18 5.49298e-05
*RES
1 *2304:X *623:18 13.47 
2 *623:18 *2314:A 4.98 
3 *623:18 *2306:D_N 7.86 
*END

*D_NET *624 0.00196529
*CONN
*I *2323:B I *D sky130_fd_sc_hd__or3_1
*I *2306:B I *D sky130_fd_sc_hd__or4b_1
*I *2305:X O *D sky130_fd_sc_hd__and4_1
*CAP
1 *2323:B 0
2 *2306:B 0.000436207
3 *2305:X 0.000108035
4 *624:8 0.000544242
5 *2306:B *2312:A1 7.96832e-05
6 *2306:B *2322:A1 1.83847e-05
7 *2306:B *2322:A2 3.86529e-05
8 *2306:B *2322:A3 2.75229e-05
9 *2306:B *2322:B2 5.18105e-05
10 *2306:B *2325:A2 0
11 *2317:A2 *2306:B 9.29751e-06
12 *2320:B1 *624:8 0
13 *2321:C1 *2306:B 0.000143371
14 *2521:D *2306:B 9.50342e-06
15 *2521:D *624:8 0.000104287
16 *2523:D *2306:B 8.88108e-06
17 *128:49 *2306:B 7.23602e-05
18 *143:10 *2306:B 6.85516e-05
19 *143:10 *624:8 0.000244504
*RES
1 *2305:X *624:8 6.51 
2 *624:8 *2306:B 15.1 
3 *624:8 *2323:B 3.6 
*END

*D_NET *625 0.000917665
*CONN
*I *2312:A1 I *D sky130_fd_sc_hd__o32a_1
*I *2306:X O *D sky130_fd_sc_hd__or4b_1
*CAP
1 *2312:A1 0.00027291
2 *2306:X 0.00027291
3 *2312:A1 *2312:A3 7.95294e-05
4 *2312:A1 *630:16 1.94811e-05
5 *2312:A1 *717:255 0.000160635
6 *2312:A1 *836:24 3.25155e-05
7 *2306:B *2312:A1 7.96832e-05
*RES
1 *2306:X *2312:A1 12.105 
*END

*D_NET *626 0.00190648
*CONN
*I *2308:B I *D sky130_fd_sc_hd__and2b_1
*I *2321:A3 I *D sky130_fd_sc_hd__a311o_1
*I *2307:Y O *D sky130_fd_sc_hd__nor2_1
*CAP
1 *2308:B 5.21021e-05
2 *2321:A3 0.000274738
3 *2307:Y 0.000228777
4 *626:10 0.000555617
5 *2308:B *632:6 3.1835e-05
6 *2321:A3 *2325:A1 6.80919e-05
7 *2321:A3 *2325:A3 0
8 *626:10 *2524:CLK 3.09179e-05
9 *626:10 *2635:A 5.062e-06
10 *2102:A *2321:A3 0
11 *2301:A2 *2321:A3 0.000180675
12 *2307:B *2321:A3 0.000126177
13 *2307:B *626:10 0.000194575
14 *2321:A1 *2321:A3 2.34891e-05
15 *2321:A2 *2321:A3 2.98807e-05
16 *2524:D *2321:A3 5.43211e-05
17 *2524:D *626:10 5.02217e-05
*RES
1 *2307:Y *626:10 7.245 
2 *626:10 *2321:A3 9.7875 
3 *626:10 *2308:B 4.395 
*END

*D_NET *627 0.00234092
*CONN
*I *2309:C I *D sky130_fd_sc_hd__and3b_1
*I *2317:A3 I *D sky130_fd_sc_hd__a311o_1
*I *2308:X O *D sky130_fd_sc_hd__and2b_1
*CAP
1 *2309:C 0.000139695
2 *2317:A3 2.5078e-05
3 *2308:X 0.000253736
4 *627:10 0.000418508
5 *2309:C *637:10 0.000307812
6 *2317:A3 *2318:B2 2.0514e-05
7 *2317:A3 *634:12 4.66826e-05
8 *627:10 *2318:A1 0.000115464
9 *627:10 *2318:B2 0.000137723
10 *627:10 *2325:A1 6.28932e-05
11 *627:10 *2325:B2 0.000116165
12 *627:10 *632:6 2.75145e-05
13 *627:10 *637:10 7.31437e-05
14 *2298:A1 *2309:C 4.66108e-05
15 *2298:A2 *2309:C 1.07797e-05
16 *2301:A1 *627:10 6.11912e-05
17 *2306:A *627:10 0
18 *2317:A1 *2309:C 0.000155928
19 *2317:A1 *2317:A3 4.82919e-05
20 *2317:A1 *627:10 3.09164e-05
21 *2318:A2 *627:10 8.09021e-06
22 *2320:A1 *2309:C 0.00015896
23 *2321:C1 *627:10 1.92979e-05
24 *2524:D *627:10 2.66765e-05
25 *614:12 *2309:C 2.92496e-05
*RES
1 *2308:X *627:10 10.275 
2 *627:10 *2317:A3 4.395 
3 *627:10 *2309:C 8.085 
*END

*D_NET *628 0.000711232
*CONN
*I *2312:A2 I *D sky130_fd_sc_hd__o32a_1
*I *2309:X O *D sky130_fd_sc_hd__and3b_1
*CAP
1 *2312:A2 8.50466e-05
2 *2309:X 8.50466e-05
3 *2312:A2 *2317:B1 8.53113e-06
4 *2312:A2 *2323:C 0.00019637
5 *2306:A *2312:A2 4.24292e-06
6 *2309:B *2312:A2 8.53113e-06
7 *2317:A2 *2312:A2 0.000198046
8 *128:49 *2312:A2 9.30787e-05
9 *497:18 *2312:A2 3.23391e-05
*RES
1 *2309:X *2312:A2 10.155 
*END

*D_NET *629 0.00263561
*CONN
*I *2311:C I *D sky130_fd_sc_hd__and4bb_1
*I *2313:C_N I *D sky130_fd_sc_hd__or4bb_1
*I *2324:D I *D sky130_fd_sc_hd__and4bb_1
*I *2310:Y O *D sky130_fd_sc_hd__nor2_1
*CAP
1 *2311:C 1.48645e-05
2 *2313:C_N 0.000148697
3 *2324:D 0.00031798
4 *2310:Y 0.000143946
5 *629:12 0.000570509
6 *629:10 0.000262643
7 *2324:D *728:10 9.30717e-05
8 *2324:D *848:26 0
9 *629:10 *848:26 0
10 *629:12 *630:16 2.05571e-05
11 *629:12 *848:26 0
12 *2303:B *2311:C 4.99619e-05
13 *2304:B *629:10 9.14049e-05
14 *2310:B *629:10 5.05437e-05
15 *2313:A *2313:C_N 0.000163199
16 *2313:B *2313:C_N 9.66021e-05
17 *2313:D_N *2313:C_N 4.66108e-05
18 *2324:A_N *2324:D 3.23663e-05
19 *2324:C *2324:D 0.000203135
20 *2324:C *629:12 2.86623e-05
21 *135:10 *2324:D 3.55992e-06
22 *136:34 *2311:C 4.82863e-05
23 *139:10 *629:10 1.1561e-05
24 *139:12 *629:10 8.0005e-05
25 *139:18 *2311:C 8.65905e-05
26 *139:34 *629:10 1.52184e-05
27 *139:34 *629:12 5.56388e-05
*RES
1 *2310:Y *629:10 6.795 
2 *629:10 *629:12 2.145 
3 *629:12 *2324:D 8.445 
4 *629:12 *2313:C_N 6.81 
5 *629:10 *2311:C 4.395 
*END

*D_NET *630 0.00377029
*CONN
*I *2312:A3 I *D sky130_fd_sc_hd__o32a_1
*I *2322:A1 I *D sky130_fd_sc_hd__o32a_1
*I *2311:X O *D sky130_fd_sc_hd__and4bb_1
*CAP
1 *2312:A3 6.76094e-05
2 *2322:A1 1.50409e-05
3 *2311:X 0.0012589
4 *630:16 0.00134155
5 *2312:A3 *2312:B2 5.30352e-05
6 *2312:A3 *836:24 0.000101841
7 *2322:A1 *2322:B2 4.66108e-05
8 *630:16 *836:24 3.91137e-05
9 *2301:A1 *630:16 7.15778e-05
10 *2306:B *2322:A1 1.83847e-05
11 *2312:A1 *2312:A3 7.95294e-05
12 *2312:A1 *630:16 1.94811e-05
13 *2321:A1 *630:16 0.000142518
14 *2321:C1 *630:16 0.000475682
15 *139:34 *630:16 1.88602e-05
16 *629:12 *630:16 2.05571e-05
*RES
1 *2311:X *630:16 7.51387 
2 *630:16 *2322:A1 4.05 
3 *630:16 *2312:A3 5.49 
*END

*D_NET *631 0.00164604
*CONN
*I *2314:B I *D sky130_fd_sc_hd__nand2_1
*I *2313:X O *D sky130_fd_sc_hd__or4bb_1
*CAP
1 *2314:B 0.000595082
2 *2313:X 0.000595082
3 *2314:B *717:257 7.46328e-06
4 *2314:B *728:10 8.40269e-05
5 *2300:A *2314:B 3.17526e-05
6 *2313:A *2314:B 6.13486e-05
7 *134:14 *2314:B 0.000158886
8 *135:21 *2314:B 0.000112403
*RES
1 *2313:X *2314:B 14.895 
*END

*D_NET *632 0.00207903
*CONN
*I *2322:A2 I *D sky130_fd_sc_hd__o32a_1
*I *2318:B1 I *D sky130_fd_sc_hd__o22a_1
*I *2314:Y O *D sky130_fd_sc_hd__nand2_1
*CAP
1 *2322:A2 0.000207438
2 *2318:B1 2.08101e-05
3 *2314:Y 0.000178596
4 *632:6 0.000406845
5 *2322:A2 *2325:B2 0.00012657
6 *2322:A2 *836:24 0.000285291
7 *632:6 *2318:B2 8.40269e-05
8 *632:6 *2325:A3 0.000306155
9 *632:6 *2325:B2 0.000231211
10 *2306:B *2322:A2 3.86529e-05
11 *2306:C *2322:A2 0
12 *2308:A_N *632:6 9.02259e-05
13 *2308:B *632:6 3.1835e-05
14 *2318:A2 *2322:A2 0
15 *2522:D *2322:A2 3.72916e-05
16 *128:49 *2322:A2 6.56448e-06
17 *627:10 *632:6 2.75145e-05
*RES
1 *2314:Y *632:6 6.88 
2 *632:6 *2318:B1 1.96 
3 *632:6 *2322:A2 10.505 
*END

*D_NET *633 0.000674462
*CONN
*I *2316:A2 I *D sky130_fd_sc_hd__o21a_1
*I *2315:X O *D sky130_fd_sc_hd__and4bb_1
*CAP
1 *2316:A2 0.000175257
2 *2315:X 0.000175257
3 *2110:B *2316:A2 0.000120652
4 *2305:C *2316:A2 2.30292e-05
5 *141:39 *2316:A2 1.46828e-05
6 *614:12 *2316:A2 0.000117297
7 *615:22 *2316:A2 4.82863e-05
*RES
1 *2315:X *2316:A2 10.005 
*END

*D_NET *634 0.00262235
*CONN
*I *2323:C I *D sky130_fd_sc_hd__or3_1
*I *2317:B1 I *D sky130_fd_sc_hd__a311o_1
*I *2316:X O *D sky130_fd_sc_hd__o21a_1
*CAP
1 *2323:C 0.000317256
2 *2317:B1 2.51454e-05
3 *2316:X 0.000235895
4 *634:12 0.000578296
5 *2323:C *836:16 5.34064e-05
6 *2104:B *634:12 0.000159269
7 *2299:C_N *634:12 8.40269e-05
8 *2302:B *634:12 4.82919e-05
9 *2302:C_N *634:12 0.000124895
10 *2306:A *2317:B1 2.78732e-05
11 *2312:A2 *2317:B1 8.53113e-06
12 *2312:A2 *2323:C 0.00019637
13 *2317:A1 *634:12 1.12578e-05
14 *2317:A2 *2323:C 7.0401e-05
15 *2317:A2 *634:12 0.000122331
16 *2317:A3 *634:12 4.66826e-05
17 *2317:C1 *2323:C 0
18 *128:49 *2317:B1 2.34345e-05
19 *493:14 *634:12 6.74079e-05
20 *497:18 *634:12 0.000370212
21 *615:71 *634:12 5.1368e-05
*RES
1 *2316:X *634:12 13.01 
2 *634:12 *2317:B1 6.215 
3 *634:12 *2323:C 6.49 
*END

*D_NET *635 0.00146012
*CONN
*I *2318:B2 I *D sky130_fd_sc_hd__o22a_1
*I *2317:X O *D sky130_fd_sc_hd__a311o_1
*CAP
1 *2318:B2 0.000289361
2 *2317:X 0.000289361
3 *2318:B2 *2318:A1 0.00011379
4 *2301:A1 *2318:B2 6.11912e-05
5 *2306:A *2318:B2 4.89919e-05
6 *2317:A1 *2318:B2 4.82863e-05
7 *2317:A3 *2318:B2 2.0514e-05
8 *2318:A2 *2318:B2 0.000181075
9 *499:28 *2318:B2 0.000185802
10 *627:10 *2318:B2 0.000137723
11 *632:6 *2318:B2 8.40269e-05
*RES
1 *2317:X *2318:B2 14.25 
*END

*D_NET *636 0.00155657
*CONN
*I *2320:A2 I *D sky130_fd_sc_hd__o21a_1
*I *2319:X O *D sky130_fd_sc_hd__and4bb_1
*CAP
1 *2320:A2 0.00040221
2 *2319:X 0.00040221
3 *2295:C *2320:A2 0
4 *2296:A *2320:A2 0
5 *2297:D *2320:A2 4.82919e-05
6 *2305:A *2320:A2 0.000174981
7 *2319:D *2320:A2 0.000239807
8 *2320:B1 *2320:A2 0.000157588
9 *140:16 *2320:A2 1.79536e-05
10 *494:18 *2320:A2 0
11 *495:12 *2320:A2 0
12 *497:18 *2320:A2 4.24292e-06
13 *499:10 *2320:A2 6.10014e-05
14 *616:12 *2320:A2 4.82863e-05
*RES
1 *2319:X *2320:A2 15.09 
*END

*D_NET *637 0.00267571
*CONN
*I *2321:B1 I *D sky130_fd_sc_hd__a311o_1
*I *2325:A1 I *D sky130_fd_sc_hd__o32a_1
*I *2320:X O *D sky130_fd_sc_hd__o21a_1
*CAP
1 *2321:B1 0
2 *2325:A1 0.000174219
3 *2320:X 0.000635141
4 *637:10 0.00080936
5 *2325:A1 *2325:A3 9.50342e-06
6 *2298:A1 *637:10 2.16833e-05
7 *2298:A2 *637:10 1.34594e-05
8 *2309:C *637:10 0.000307812
9 *2320:A1 *637:10 0.000109947
10 *2320:B1 *637:10 2.75229e-05
11 *2321:A1 *637:10 1.00941e-05
12 *2321:A2 *637:10 2.10024e-05
13 *2321:A3 *2325:A1 6.80919e-05
14 *2321:C1 *2325:A1 9.50342e-06
15 *2321:C1 *637:10 2.10433e-05
16 *128:26 *637:10 6.87369e-05
17 *491:8 *637:10 0
18 *614:12 *637:10 8.08153e-06
19 *615:71 *637:10 0.000224473
20 *627:10 *2325:A1 6.28932e-05
21 *627:10 *637:10 7.31437e-05
*RES
1 *2320:X *637:10 14.265 
2 *637:10 *2325:A1 7.005 
3 *637:10 *2321:B1 3.6 
*END

*D_NET *638 0.00114007
*CONN
*I *2322:A3 I *D sky130_fd_sc_hd__o32a_1
*I *2321:X O *D sky130_fd_sc_hd__a311o_1
*CAP
1 *2322:A3 0.000314559
2 *2321:X 0.000314559
3 *2322:A3 *2322:B2 2.75145e-05
4 *2301:A2 *2322:A3 0.000345353
5 *2301:B1 *2322:A3 4.87465e-06
6 *2306:B *2322:A3 2.75229e-05
7 *2321:A1 *2322:A3 2.75229e-05
8 *499:20 *2322:A3 3.40138e-05
9 *499:22 *2322:A3 1.91597e-05
10 *499:28 *2322:A3 2.49909e-05
*RES
1 *2321:X *2322:A3 9.29 
*END

*D_NET *639 0.00228467
*CONN
*I *2325:A2 I *D sky130_fd_sc_hd__o32a_1
*I *2323:X O *D sky130_fd_sc_hd__or3_1
*CAP
1 *2325:A2 0.000371209
2 *2323:X 0.000371209
3 *2325:A2 *2318:A1 0.00019071
4 *2325:A2 *717:255 0.000847558
5 *2325:A2 *731:24 5.54757e-05
6 *2325:A2 *731:34 0.000101409
7 *2325:A2 *834:29 3.00381e-05
8 *2325:A2 *836:16 3.59531e-06
9 *2306:A *2325:A2 0.00011916
10 *2306:B *2325:A2 0
11 *2306:D_N *2325:A2 8.05167e-05
12 *2321:C1 *2325:A2 2.97679e-05
13 *2325:B1 *2325:A2 8.40213e-05
*RES
1 *2323:X *2325:A2 19.59 
*END

*D_NET *640 0.00144605
*CONN
*I *2325:A3 I *D sky130_fd_sc_hd__o32a_1
*I *2324:X O *D sky130_fd_sc_hd__and4bb_1
*CAP
1 *2325:A3 0.000439573
2 *2324:X 0.000439573
3 *2325:A3 *2325:B2 0.000116165
4 *2325:A3 *2598:A 4.8854e-05
5 *2321:A3 *2325:A3 0
6 *2325:A1 *2325:A3 9.50342e-06
7 *2524:D *2325:A3 7.06865e-05
8 *135:10 *2325:A3 1.5536e-05
9 *632:6 *2325:A3 0.000306155
*RES
1 *2324:X *2325:A3 13.515 
*END

*D_NET *641 0.000921792
*CONN
*I *2328:A2 I *D sky130_fd_sc_hd__a22o_1
*I *2326:Y O *D sky130_fd_sc_hd__o2bb2ai_1
*CAP
1 *2328:A2 0.000286014
2 *2326:Y 0.000286014
3 *2328:A2 *2328:B1 1.85674e-05
4 *2328:A2 *2328:B2 6.6925e-05
5 *2326:A2_N *2328:A2 7.67415e-06
6 *2326:B1 *2328:A2 0.00012171
7 *2326:B2 *2328:A2 4.82919e-05
8 *2327:A3 *2328:A2 0
9 *2534:D *2328:A2 8.65961e-05
*RES
1 *2326:Y *2328:A2 8.75 
*END

*D_NET *642 0.000247373
*CONN
*I *2328:B1 I *D sky130_fd_sc_hd__a22o_1
*I *2327:X O *D sky130_fd_sc_hd__a31o_1
*CAP
1 *2328:B1 8.23576e-05
2 *2327:X 8.23576e-05
3 *2328:B1 *2328:B2 5.20981e-05
4 *2326:B1 *2328:B1 1.19928e-05
5 *2327:A3 *2328:B1 0
6 *2328:A2 *2328:B1 1.85674e-05
*RES
1 *2327:X *2328:B1 4.7 
*END

*D_NET *643 0.00042506
*CONN
*I *2330:B1 I *D sky130_fd_sc_hd__a22o_1
*I *2329:X O *D sky130_fd_sc_hd__xor2_1
*CAP
1 *2330:B1 9.11576e-05
2 *2329:X 9.11576e-05
3 *2330:B1 *839:42 8.49205e-05
4 *2330:B1 *839:52 0.000124895
5 *2330:A2 *2330:B1 3.293e-05
*RES
1 *2329:X *2330:B1 5.39 
*END

*D_NET *644 0.000632624
*CONN
*I *2331:A1 I *D sky130_fd_sc_hd__mux2_1
*I *2330:X O *D sky130_fd_sc_hd__a22o_1
*CAP
1 *2331:A1 0.000151065
2 *2330:X 0.000151065
3 *2331:A1 *2328:A1 0.000247567
4 *2331:A1 *726:21 6.55406e-05
5 *2535:D *2331:A1 1.7386e-05
6 *457:70 *2331:A1 0
*RES
1 *2330:X *2331:A1 10.56 
*END

*D_NET *645 0.00121447
*CONN
*I *2333:B I *D sky130_fd_sc_hd__and3b_1
*I *2332:X O *D sky130_fd_sc_hd__or2_1
*CAP
1 *2333:B 0.000208432
2 *2332:X 0.000208432
3 *2028:A *2333:B 1.08758e-05
4 *2029:C1 *2333:B 0.000281525
5 *2332:B *2333:B 8.23457e-05
6 *395:32 *2333:B 0.000283198
7 *416:18 *2333:B 8.65961e-05
8 *431:14 *2333:B 5.30673e-05
*RES
1 *2332:X *2333:B 12.795 
*END

*D_NET *646 0.000359323
*CONN
*I *2334:C1 I *D sky130_fd_sc_hd__a211o_1
*I *2333:X O *D sky130_fd_sc_hd__and3b_1
*CAP
1 *2334:C1 0.000118007
2 *2333:X 0.000118007
3 *2334:C1 *2250:A1 6.79851e-05
4 *2334:C1 *839:62 2.11084e-05
5 *2029:C1 *2334:C1 3.42142e-05
6 *2041:B *2334:C1 0
*RES
1 *2333:X *2334:C1 9.2475 
*END

*D_NET *647 0.000505596
*CONN
*I *2335:B1 I *D sky130_fd_sc_hd__o21a_1
*I *2334:X O *D sky130_fd_sc_hd__a211o_1
*CAP
1 *2335:B1 6.43223e-05
2 *2334:X 6.43223e-05
3 *2335:B1 *839:72 0.000193113
4 *2335:B1 *840:99 8.23329e-05
5 *2029:A1 *2335:B1 1.91597e-05
6 *2536:D *2335:B1 8.23457e-05
*RES
1 *2334:X *2335:B1 5.375 
*END

*D_NET *648 0.00258454
*CONN
*I *2337:B I *D sky130_fd_sc_hd__xnor2_1
*I *2336:X O *D sky130_fd_sc_hd__or2_1
*CAP
1 *2337:B 0.000780175
2 *2336:X 0.000780175
3 *2337:B *2338:B1 7.21296e-06
4 *2337:B *2339:A0 7.23602e-05
5 *2337:B *2339:A1 5.21209e-05
6 *2005:A *2337:B 0.000127333
7 *2005:B *2337:B 4.35931e-05
8 *2047:C_N *2337:B 0.000160125
9 *2336:A *2337:B 0.000195861
10 *2337:A *2337:B 0.000196364
11 *2695:A *2337:B 0.000109522
12 *240:8 *2337:B 2.75145e-05
13 *396:23 *2337:B 7.11235e-06
14 *438:12 *2337:B 2.50702e-05
*RES
1 *2336:X *2337:B 18.915 
*END

*D_NET *649 0.000933703
*CONN
*I *2338:B1 I *D sky130_fd_sc_hd__a22o_1
*I *2337:Y O *D sky130_fd_sc_hd__xnor2_1
*CAP
1 *2338:B1 0.000338051
2 *2337:Y 0.000338051
3 *2338:B1 *2335:A1 3.60024e-06
4 *2338:B1 *2338:A2 3.69428e-05
5 *2338:B1 *2339:A1 0
6 *2338:B1 *840:105 0
7 *2337:A *2338:B1 0.000133984
8 *2337:B *2338:B1 7.21296e-06
9 *2695:A *2338:B1 7.58604e-05
*RES
1 *2337:Y *2338:B1 12.6 
*END

*D_NET *650 0.000734753
*CONN
*I *2339:A1 I *D sky130_fd_sc_hd__mux2_1
*I *2338:X O *D sky130_fd_sc_hd__a22o_1
*CAP
1 *2339:A1 0.000142546
2 *2338:X 0.000142546
3 *2339:A1 *2339:A0 7.23602e-05
4 *2339:A1 *840:105 0.000315883
5 *2337:B *2339:A1 5.21209e-05
6 *2338:B1 *2339:A1 0
7 *2695:A *2339:A1 9.29751e-06
*RES
1 *2338:X *2339:A1 10.815 
*END

*D_NET *651 0.00372505
*CONN
*I *2344:A2 I *D sky130_fd_sc_hd__a211o_1
*I *2350:A2 I *D sky130_fd_sc_hd__a211oi_1
*I *2349:A2 I *D sky130_fd_sc_hd__a21o_1
*I *2345:C1 I *D sky130_fd_sc_hd__o211ai_1
*I *2342:A2 I *D sky130_fd_sc_hd__a32o_1
*I *2340:Y O *D sky130_fd_sc_hd__o21ai_2
*CAP
1 *2344:A2 0
2 *2350:A2 0.000119375
3 *2349:A2 0
4 *2345:C1 0
5 *2342:A2 9.30021e-05
6 *2340:Y 8.19228e-05
7 *651:46 0.00062513
8 *651:34 0.000629735
9 *651:23 0.000207306
10 *651:10 0.000258251
11 *2342:A2 *2342:A1 8.70195e-05
12 *2342:A2 *2342:A3 4.77757e-05
13 *2342:A2 *2343:A1 2.01565e-05
14 *2342:A2 *2347:A3 5.83121e-06
15 *2342:A2 *824:106 0.000198344
16 *2342:A2 *839:148 3.86943e-05
17 *2350:A2 *2352:A1_N 0
18 *651:10 *824:119 0
19 *651:23 *2347:A3 8.49376e-05
20 *651:23 *839:148 0.000232403
21 *651:34 *839:148 6.43107e-05
22 *651:46 *2352:A2_N 6.16226e-06
23 *651:46 *839:148 7.97197e-06
24 *2049:A2 *651:46 0
25 *2344:A1 *651:34 0.000181691
26 *2344:A1 *651:46 8.7152e-06
27 *2345:B1 *651:34 4.82863e-05
28 *2349:A1 *2350:A2 0.000138799
29 *2350:A1 *2350:A2 6.97118e-05
30 *2350:C1 *2350:A2 4.21973e-05
31 *242:23 *651:46 1.88656e-05
32 *432:20 *651:34 1.07797e-05
33 *432:26 *2350:A2 3.21081e-06
34 *432:34 *2350:A2 2.16917e-05
35 *436:12 *651:10 0.000135533
36 *439:8 *2350:A2 0.000237243
*RES
1 *2340:Y *651:10 7.235 
2 *651:10 *2342:A2 4.84 
3 *651:10 *651:23 2.52 
4 *651:23 *2345:C1 1.6 
5 *651:23 *651:34 5.195 
6 *651:34 *651:46 4.31873 
7 *651:46 *2349:A2 1.6 
8 *651:46 *2350:A2 5.53 
9 *651:34 *2344:A2 3.6 
*END

*D_NET *652 0.000995474
*CONN
*I *2342:A3 I *D sky130_fd_sc_hd__a32o_1
*I *2341:X O *D sky130_fd_sc_hd__or3_1
*CAP
1 *2342:A3 0.000273916
2 *2341:X 0.000273916
3 *2342:A3 *2342:A1 4.66108e-05
4 *2342:A3 *824:106 0.00011099
5 *2342:A2 *2342:A3 4.77757e-05
6 *397:14 *2342:A3 0.000194666
7 *436:19 *2342:A3 4.75991e-05
*RES
1 *2341:X *2342:A3 11.55 
*END

*D_NET *653 0.000609747
*CONN
*I *2343:A1 I *D sky130_fd_sc_hd__mux2_1
*I *2342:X O *D sky130_fd_sc_hd__a32o_1
*CAP
1 *2343:A1 0.000227379
2 *2342:X 0.000227379
3 *2343:A1 *2346:B 0
4 *2343:A1 *824:106 8.59023e-05
5 *2342:A2 *2343:A1 2.01565e-05
6 *241:32 *2343:A1 4.89295e-05
*RES
1 *2342:X *2343:A1 10.62 
*END

*D_NET *654 0.000836793
*CONN
*I *2347:A2 I *D sky130_fd_sc_hd__a31o_1
*I *2344:X O *D sky130_fd_sc_hd__a211o_1
*CAP
1 *2347:A2 0.000316133
2 *2344:X 0.000316133
3 *2347:A2 *2347:A3 0.000118527
4 *2045:B *2347:A2 3.5421e-05
5 *241:32 *2347:A2 4.78613e-05
6 *241:43 *2347:A2 2.71912e-06
*RES
1 *2344:X *2347:A2 11.55 
*END

*D_NET *655 0.00130586
*CONN
*I *2347:A3 I *D sky130_fd_sc_hd__a31o_1
*I *2345:Y O *D sky130_fd_sc_hd__o211ai_1
*CAP
1 *2347:A3 0.000318678
2 *2345:Y 0.000318678
3 *2347:A3 *885:DIODE 8.69583e-05
4 *2347:A3 *824:76 0.000185398
5 *2347:A3 *824:89 0.000116165
6 *2347:A3 *839:148 0
7 *2342:A2 *2347:A3 5.83121e-06
8 *2347:A2 *2347:A3 0.000118527
9 *436:12 *2347:A3 7.06865e-05
10 *651:23 *2347:A3 8.49376e-05
*RES
1 *2345:Y *2347:A3 13.59 
*END

*D_NET *656 0.000241245
*CONN
*I *2348:B1 I *D sky130_fd_sc_hd__o22a_1
*I *2346:X O *D sky130_fd_sc_hd__and2_1
*CAP
1 *2348:B1 3.30094e-05
2 *2346:X 3.30094e-05
3 *2348:B1 *2540:RESET_B 0.000125264
4 *2348:B1 *824:76 4.99619e-05
*RES
1 *2346:X *2348:B1 4.34 
*END

*D_NET *657 0.000343349
*CONN
*I *2348:B2 I *D sky130_fd_sc_hd__o22a_1
*I *2347:X O *D sky130_fd_sc_hd__a31o_1
*CAP
1 *2348:B2 9.90778e-05
2 *2347:X 9.90778e-05
3 *2348:B2 *885:DIODE 2.75145e-05
4 *2348:B2 *2348:A1 3.61491e-05
5 *2348:B2 *2540:RESET_B 0
6 *2348:B2 *824:70 1.59888e-05
7 *2348:B2 *824:76 6.55406e-05
*RES
1 *2347:X *2348:B2 9.285 
*END

*D_NET *658 0.000232384
*CONN
*I *2351:A2 I *D sky130_fd_sc_hd__a21o_1
*I *2349:X O *D sky130_fd_sc_hd__a21o_1
*CAP
1 *2351:A2 8.41169e-05
2 *2349:X 8.41169e-05
3 *2044:A *2351:A2 4.71168e-05
4 *2048:A1 *2351:A2 2.97004e-06
5 *242:23 *2351:A2 0
6 *432:34 *2351:A2 5.53249e-06
7 *434:45 *2351:A2 8.53113e-06
*RES
1 *2349:X *2351:A2 8.835 
*END

*D_NET *659 0.00141397
*CONN
*I *2355:A2 I *D sky130_fd_sc_hd__o21ai_1
*I *2354:C I *D sky130_fd_sc_hd__or3_1
*I *2352:A1_N I *D sky130_fd_sc_hd__a2bb2o_1
*I *2350:Y O *D sky130_fd_sc_hd__a211oi_1
*CAP
1 *2355:A2 9.15271e-05
2 *2354:C 0
3 *2352:A1_N 0.000238438
4 *2350:Y 0
5 *659:21 0.000177523
6 *659:4 0.000324434
7 *2352:A1_N *2356:B 0
8 *2350:A1 *2352:A1_N 4.82919e-05
9 *2350:A2 *2352:A1_N 0
10 *2350:C1 *2352:A1_N 5.30673e-05
11 *2355:A1 *2355:A2 3.23663e-05
12 *2355:B1 *2355:A2 0.000164874
13 *2355:B1 *659:21 3.74161e-05
14 *243:10 *2352:A1_N 6.28843e-05
15 *424:16 *2352:A1_N 2.25157e-05
16 *424:16 *659:21 0.000160635
*RES
1 *2350:Y *659:4 1.6 
2 *659:4 *2352:A1_N 9.425 
3 *659:4 *659:21 1.83 
4 *659:21 *2354:C 1.6 
5 *659:21 *2355:A2 3.775 
*END

*D_NET *660 0.00121997
*CONN
*I *2352:A2_N I *D sky130_fd_sc_hd__a2bb2o_1
*I *2351:X O *D sky130_fd_sc_hd__a21o_1
*CAP
1 *2352:A2_N 0.000314936
2 *2351:X 0.000314936
3 *2352:A2_N *2352:B2 0.000124007
4 *2352:A2_N *2353:A0 3.86607e-05
5 *2352:A2_N *2353:A1 1.60203e-05
6 *2352:A2_N *839:129 0.000198945
7 *2050:A3 *2352:A2_N 2.88519e-05
8 *2351:B1 *2352:A2_N 1.33293e-05
9 *2352:B1 *2352:A2_N 4.99619e-05
10 *242:23 *2352:A2_N 0
11 *243:10 *2352:A2_N 0
12 *429:12 *2352:A2_N 8.65905e-05
13 *439:12 *2352:A2_N 2.75707e-05
14 *651:46 *2352:A2_N 6.16226e-06
*RES
1 *2351:X *2352:A2_N 13.59 
*END

*D_NET *661 0.000886615
*CONN
*I *2353:A1 I *D sky130_fd_sc_hd__mux2_1
*I *2352:X O *D sky130_fd_sc_hd__a2bb2o_1
*CAP
1 *2353:A1 0.000185026
2 *2352:X 0.000185026
3 *2353:A1 *2352:B2 0.000238919
4 *2353:A1 *2358:B1 0.0001249
5 *2352:A2_N *2353:A1 1.60203e-05
6 *2352:B1 *2353:A1 0.000136724
*RES
1 *2352:X *2353:A1 7.46 
*END

*D_NET *662 0.000522449
*CONN
*I *2356:B I *D sky130_fd_sc_hd__and3_1
*I *2354:X O *D sky130_fd_sc_hd__or3_1
*CAP
1 *2356:B 0.000155784
2 *2354:X 0.000155784
3 *2356:B *2352:B2 3.25591e-05
4 *2352:A1_N *2356:B 0
5 *243:10 *2356:B 0
6 *244:21 *2356:B 4.9968e-05
7 *244:38 *2356:B 0.000128353
*RES
1 *2354:X *2356:B 9.795 
*END

*D_NET *663 0.000875526
*CONN
*I *2356:C I *D sky130_fd_sc_hd__and3_1
*I *2355:Y O *D sky130_fd_sc_hd__o21ai_1
*CAP
1 *2356:C 0.000296152
2 *2355:Y 0.000296152
3 *2356:C *2362:B2 2.67022e-05
4 *2356:C *839:125 0
5 *2356:C *839:127 8.49205e-05
6 *2356:C *839:129 9.06829e-05
7 *2362:A1 *2356:C 8.09157e-05
*RES
1 *2355:Y *2356:C 11.34 
*END

*D_NET *664 0.000632057
*CONN
*I *2358:B1 I *D sky130_fd_sc_hd__o22a_1
*I *2356:X O *D sky130_fd_sc_hd__and3_1
*CAP
1 *2358:B1 0.000195524
2 *2356:X 0.000195524
3 *2358:B1 *2352:B2 2.30292e-05
4 *2358:B1 *824:56 0
5 *2353:A1 *2358:B1 0.0001249
6 *243:10 *2358:B1 9.30787e-05
7 *244:8 *2358:B1 0
8 *244:21 *2358:B1 0
*RES
1 *2356:X *2358:B1 10.32 
*END

*D_NET *665 0.000335915
*CONN
*I *2358:B2 I *D sky130_fd_sc_hd__o22a_1
*I *2357:X O *D sky130_fd_sc_hd__a21o_1
*CAP
1 *2358:B2 4.42238e-05
2 *2357:X 4.42238e-05
3 *2358:B2 *2357:B1 0
4 *2358:B2 *826:70 0.000164874
5 *2357:A1 *2358:B2 4.85494e-05
6 *2358:A1 *2358:B2 3.40435e-05
*RES
1 *2357:X *2358:B2 5.045 
*END

*D_NET *666 0.0005046
*CONN
*I *2362:B1 I *D sky130_fd_sc_hd__a22o_1
*I *2359:Y O *D sky130_fd_sc_hd__nand2_1
*CAP
1 *2362:B1 8.33787e-05
2 *2359:Y 8.33787e-05
3 *2359:A *2362:B1 2.75145e-05
4 *2362:A1 *2362:B1 7.14091e-05
5 *2366:A1 *2362:B1 0.000238919
*RES
1 *2359:Y *2362:B1 5.735 
*END

*D_NET *667 0.00499082
*CONN
*I *2368:A2 I *D sky130_fd_sc_hd__o21a_1
*I *2369:A2 I *D sky130_fd_sc_hd__o211ai_2
*I *2364:A2 I *D sky130_fd_sc_hd__o21ai_1
*I *2365:A3 I *D sky130_fd_sc_hd__o31a_1
*I *2361:B I *D sky130_fd_sc_hd__nor2_1
*I *2360:Y O *D sky130_fd_sc_hd__nor2_1
*CAP
1 *2368:A2 0
2 *2369:A2 0.000161536
3 *2364:A2 0.000238664
4 *2365:A3 0
5 *2361:B 0.000256949
6 *2360:Y 0
7 *667:43 0.000262974
8 *667:30 0.000396596
9 *667:23 0.000201215
10 *667:4 0.00040167
11 *2361:B *2362:B2 1.16578e-05
12 *2364:A2 *2365:B1 5.23362e-05
13 *2364:A2 *2367:B1 0
14 *2364:A2 *847:124 0.000186099
15 *2369:A2 *2370:B 9.52646e-05
16 *2369:A2 *674:10 1.16578e-05
17 *2369:A2 *823:58 0.000167157
18 *667:23 *726:31 0
19 *667:30 *2365:B1 6.97118e-05
20 *2058:B *2369:A2 0
21 *2063:A *2361:B 0.000232999
22 *2064:B *2361:B 4.82863e-05
23 *2069:B *667:43 8.73389e-06
24 *2070:B *2361:B 5.83121e-06
25 *2070:B *667:23 7.10578e-05
26 *2070:C_N *2364:A2 1.73877e-05
27 *2072:A_N *667:43 0.000372781
28 *2072:B *667:43 1.19928e-05
29 *2073:A *2369:A2 5.23362e-05
30 *2361:A *2361:B 5.4155e-06
31 *2364:A1 *2364:A2 0.000558509
32 *2364:B1 *2364:A2 0
33 *2369:C1 *2369:A2 0.000268671
34 *354:40 *2361:B 6.32463e-05
35 *453:24 *667:23 4.66108e-05
36 *453:24 *667:30 0.0001947
37 *453:24 *667:43 4.66108e-05
38 *455:25 *667:23 3.47837e-05
39 *457:70 *667:23 0.000114492
40 *458:12 *667:43 4.82919e-05
41 *458:21 *667:43 0.000236355
42 *458:30 *667:43 1.91597e-05
43 *460:8 *667:23 1.1392e-05
44 *460:8 *667:30 7.68414e-06
*RES
1 *2360:Y *667:4 1.6 
2 *667:4 *2361:B 6.115 
3 *667:4 *667:23 6.97 
4 *667:23 *2365:A3 1.6 
5 *667:23 *667:30 1.83 
6 *667:30 *2364:A2 12.08 
7 *667:30 *667:43 3.9 
8 *667:43 *2369:A2 10.55 
9 *667:43 *2368:A2 1.6 
*END

*D_NET *668 0.000723701
*CONN
*I *2362:B2 I *D sky130_fd_sc_hd__a22o_1
*I *2361:Y O *D sky130_fd_sc_hd__nor2_1
*CAP
1 *2362:B2 0.00021894
2 *2361:Y 0.00021894
3 *2362:B2 *839:125 0
4 *2063:A *2362:B2 7.07722e-05
5 *2356:C *2362:B2 2.67022e-05
6 *2361:B *2362:B2 1.16578e-05
7 *244:38 *2362:B2 0
8 *245:23 *2362:B2 0.000166346
9 *354:40 *2362:B2 1.03423e-05
*RES
1 *2361:Y *2362:B2 11.07 
*END

*D_NET *669 0.000633453
*CONN
*I *2363:A1 I *D sky130_fd_sc_hd__mux2_1
*I *2362:X O *D sky130_fd_sc_hd__a22o_1
*CAP
1 *2363:A1 0.00014355
2 *2362:X 0.00014355
3 *2363:A1 *840:46 6.5525e-05
4 *2366:A1 *2363:A1 0.000160641
5 *245:10 *2363:A1 0.000120186
*RES
1 *2362:X *2363:A1 10.065 
*END

*D_NET *670 0.00109307
*CONN
*I *2366:B1 I *D sky130_fd_sc_hd__a221o_1
*I *2364:Y O *D sky130_fd_sc_hd__o21ai_1
*CAP
1 *2366:B1 0.000279738
2 *2364:Y 0.000279738
3 *2366:B1 *2366:B2 8.53113e-06
4 *2366:B1 *2544:CLK 0.000133592
5 *2366:B1 *726:31 0.000108531
6 *2366:B1 *726:35 6.55328e-05
7 *2364:B1 *2366:B1 0.000121967
8 *2543:D *2366:B1 9.54399e-05
*RES
1 *2364:Y *2366:B1 13.05 
*END

*D_NET *671 0.000287103
*CONN
*I *2366:B2 I *D sky130_fd_sc_hd__a221o_1
*I *2365:X O *D sky130_fd_sc_hd__o31a_1
*CAP
1 *2366:B2 4.92259e-05
2 *2365:X 4.92259e-05
3 *2366:B2 *726:31 0.000120186
4 *2364:B1 *2366:B2 4.4073e-05
5 *2366:A1 *2366:B2 1.58605e-05
6 *2366:B1 *2366:B2 8.53113e-06
*RES
1 *2365:X *2366:B2 8.82 
*END

*D_NET *672 0.000812885
*CONN
*I *2367:B1 I *D sky130_fd_sc_hd__o21a_1
*I *2366:X O *D sky130_fd_sc_hd__a221o_1
*CAP
1 *2367:B1 0.000225194
2 *2366:X 0.000225194
3 *2367:B1 *2367:A1 0
4 *2367:B1 *847:124 0.000143188
5 *2364:A2 *2367:B1 0
6 *2364:B1 *2367:B1 0.000186627
7 *2543:D *2367:B1 3.26822e-05
*RES
1 *2366:X *2367:B1 12.915 
*END

*D_NET *673 0.00214809
*CONN
*I *2370:B I *D sky130_fd_sc_hd__or2_1
*I *2368:X O *D sky130_fd_sc_hd__o21a_1
*CAP
1 *2370:B 0.000388212
2 *2368:X 0.000388212
3 *2370:B *2376:A2_N 1.1392e-05
4 *2370:B *674:10 1.34503e-05
5 *2370:B *847:108 9.71067e-05
6 *2058:B *2370:B 6.65725e-05
7 *2067:A *2370:B 5.05437e-05
8 *2068:A *2370:B 5.21046e-05
9 *2369:A2 *2370:B 9.52646e-05
10 *2369:B1 *2370:B 8.65905e-05
11 *2369:C1 *2370:B 1.69567e-05
12 *2370:A *2370:B 0.000191226
13 *2375:A1 *2370:B 2.54431e-05
14 *2375:B1 *2370:B 0.000459366
15 *2697:A *2370:B 4.41506e-05
16 *449:10 *2370:B 0.000161498
*RES
1 *2368:X *2370:B 17.4 
*END

*D_NET *674 0.00281882
*CONN
*I *2374:A2 I *D sky130_fd_sc_hd__a21oi_1
*I *2375:A3 I *D sky130_fd_sc_hd__a31o_1
*I *2371:A2 I *D sky130_fd_sc_hd__a32o_1
*I *2369:Y O *D sky130_fd_sc_hd__o211ai_2
*CAP
1 *2374:A2 0.000137937
2 *2375:A3 0
3 *2371:A2 0.000263532
4 *2369:Y 9.08133e-05
5 *674:27 0.000576012
6 *674:10 0.00079242
7 *2371:A2 *2367:A2 0
8 *2371:A2 *2372:A1 0.000101265
9 *2371:A2 *2377:B2 0
10 *2371:A2 *823:58 0
11 *2371:A2 *823:60 0
12 *2374:A2 *2377:B1 0
13 *674:10 *823:58 0
14 *674:27 *2372:S 9.66106e-05
15 *674:27 *2377:A2 8.86824e-05
16 *674:27 *2377:B1 0
17 *2060:A_N *2374:A2 4.66108e-05
18 *2369:A2 *674:10 1.16578e-05
19 *2369:C1 *674:10 4.82863e-05
20 *2370:A *2374:A2 2.4997e-05
21 *2370:B *674:10 1.34503e-05
22 *2372:A0 *674:27 4.57247e-05
23 *2374:A1 *2374:A2 0.000112123
24 *2374:B1 *2374:A2 2.8694e-05
25 *2375:A1 *2374:A2 0.000179329
26 *2375:A1 *674:27 2.85364e-05
27 *2375:B1 *2374:A2 4.26938e-06
28 *2375:B1 *674:27 2.99518e-06
29 *2377:A1 *674:27 5.00698e-06
30 *2544:D *2371:A2 5.39718e-05
31 *247:23 *2371:A2 0
32 *247:23 *674:10 0
33 *248:29 *674:27 4.51806e-05
34 *445:8 *2374:A2 2.07184e-05
*RES
1 *2369:Y *674:10 5.175 
2 *674:10 *2371:A2 8.55 
3 *674:10 *674:27 9.97 
4 *674:27 *2375:A3 3.6 
5 *674:27 *2374:A2 7.155 
*END

*D_NET *675 0.00258845
*CONN
*I *2371:A3 I *D sky130_fd_sc_hd__a32o_1
*I *2370:X O *D sky130_fd_sc_hd__or2_1
*CAP
1 *2371:A3 0.00035568
2 *2370:X 0.00035568
3 *2371:A3 *2371:A1 0.000584544
4 *2371:A3 *2371:B1 0.00104493
5 *2371:A3 *2376:A2_N 7.63047e-05
6 *2371:A3 *844:51 8.60912e-05
7 *2376:B1 *2371:A3 8.5225e-05
*RES
1 *2370:X *2371:A3 19.575 
*END

*D_NET *676 0.000380223
*CONN
*I *2372:A1 I *D sky130_fd_sc_hd__mux2_1
*I *2371:X O *D sky130_fd_sc_hd__a32o_1
*CAP
1 *2372:A1 0.000139479
2 *2371:X 0.000139479
3 *2372:A1 *2377:B2 0
4 *2371:A2 *2372:A1 0.000101265
5 *247:12 *2372:A1 0
*RES
1 *2371:X *2372:A1 10.11 
*END

*D_NET *677 0.015776
*CONN
*I *2421:B1 I *D sky130_fd_sc_hd__a22o_1
*I *2415:B1 I *D sky130_fd_sc_hd__a22o_1
*I *2412:B1 I *D sky130_fd_sc_hd__a22o_1
*I *2408:B1 I *D sky130_fd_sc_hd__a22o_1
*I *2418:B1 I *D sky130_fd_sc_hd__a22o_1
*I *2385:B1 I *D sky130_fd_sc_hd__a22o_1
*I *2377:B1 I *D sky130_fd_sc_hd__a22o_1
*I *2389:B1 I *D sky130_fd_sc_hd__a22o_1
*I *2373:Y O *D sky130_fd_sc_hd__nor2_2
*CAP
1 *2421:B1 0.00023193
2 *2415:B1 0.000181998
3 *2412:B1 0.000106812
4 *2408:B1 0.000519043
5 *2418:B1 0
6 *2385:B1 0
7 *2377:B1 0.000980517
8 *2389:B1 2.36145e-05
9 *2373:Y 0
10 *677:82 0.000846717
11 *677:80 0.000590836
12 *677:69 0.000276827
13 *677:65 0.000646032
14 *677:37 0.00144891
15 *677:22 0.0012267
16 *677:4 0.00105994
17 *2377:B1 *2248:B 0.000118195
18 *2377:B1 *2377:A2 3.20225e-05
19 *2377:B1 *823:24 0.000742302
20 *2389:B1 *2389:A1 7.23533e-05
21 *2389:B1 *837:69 7.23533e-05
22 *2408:B1 *2407:A2 0
23 *2408:B1 *2408:A2 7.30527e-05
24 *2408:B1 *2408:B2 9.11327e-05
25 *2408:B1 *2411:B1 0.000108652
26 *2408:B1 *2412:A2 0.000167489
27 *2412:B1 *2412:A2 0.000114424
28 *2415:B1 *2415:A2 5.39487e-05
29 *2415:B1 *2415:B2 4.66108e-05
30 *2415:B1 *2417:B1 1.47347e-05
31 *2415:B1 *2418:B2 0.000311294
32 *2421:B1 *2421:A2 5.4155e-06
33 *677:22 *923:DIODE 6.81368e-05
34 *677:22 *2389:A1 0.000312504
35 *677:22 *2612:A 8.65905e-05
36 *677:22 *733:6 0.000233004
37 *677:22 *733:78 0.000114024
38 *677:22 *824:6 3.5991e-05
39 *677:22 *824:221 4.00796e-05
40 *677:22 *837:69 0.000126613
41 *677:37 *2385:A2 9.81162e-05
42 *677:65 *923:DIODE 1.08758e-05
43 *677:65 *825:119 5.36713e-05
44 *677:69 *825:119 0.000284548
45 *677:80 *2415:A2 0.000200641
46 *677:80 *825:119 8.23457e-05
47 *677:80 *839:16 5.89912e-05
48 *677:82 *2413:B 0.000115464
49 *677:82 *2415:A2 2.23407e-05
50 *1982:B *677:37 0.000171525
51 *2075:A1_N *2377:B1 0.000117825
52 *2083:A2 *677:82 0.000136884
53 *2083:B1 *677:82 9.1566e-05
54 *2084:B *677:65 6.92253e-05
55 *2370:A *2377:B1 5.92191e-05
56 *2374:A2 *2377:B1 0
57 *2375:B1 *2377:B1 6.97256e-05
58 *2382:A1 *2377:B1 0
59 *2393:A1 *677:22 8.79572e-05
60 *2409:A2 *677:82 2.59981e-05
61 *2411:B2 *2408:B1 0.000378975
62 *2411:B2 *677:82 6.54191e-05
63 *2414:A1 *677:82 0
64 *2414:B2 *2415:B1 1.91597e-05
65 *2414:B2 *677:82 7.21296e-06
66 *2417:A1 *2415:B1 4.87419e-05
67 *2420:A1 *677:69 0.000116158
68 *2548:D *677:22 2.35512e-05
69 *2629:A *677:65 1.81522e-05
70 *2717:A *677:65 0.00015948
71 *247:23 *2377:B1 0.000158281
72 *247:38 *2377:B1 0.000136877
73 *248:29 *2377:B1 0
74 *250:27 *677:22 1.19928e-05
75 *251:20 *677:22 0.000235573
76 *259:8 *677:80 1.03423e-05
77 *260:25 *2421:B1 0.000150229
78 *272:8 *677:65 0.0001947
79 *272:10 *2421:B1 1.93765e-05
80 *272:10 *677:65 0.000117948
81 *272:10 *677:69 6.38169e-05
82 *272:12 *677:69 1.01661e-05
83 *272:12 *677:80 5.58701e-05
84 *272:12 *677:82 5.53249e-06
85 *272:35 *2415:B1 8.49205e-05
86 *443:52 *2377:B1 0.000421062
87 *443:60 *2377:B1 5.78711e-05
88 *445:8 *2377:B1 0
89 *448:71 *2377:B1 0
90 *451:12 *2377:B1 9.5433e-05
91 *470:10 *2408:B1 0
92 *470:25 *2408:B1 0
93 *470:25 *677:82 0.000147108
94 *472:18 *677:82 1.08732e-05
95 *474:8 *677:69 1.34361e-05
96 *674:27 *2377:B1 0
*RES
1 *2373:Y *677:4 1.6 
2 *677:4 *677:22 17.555 
3 *677:22 *2389:B1 4.47 
4 *677:22 *677:37 8.06 
5 *677:37 *2377:B1 28.82 
6 *677:37 *2385:B1 1.6 
7 *677:4 *677:65 9.1025 
8 *677:65 *677:69 5.5475 
9 *677:69 *2418:B1 1.6 
10 *677:69 *677:80 5.975 
11 *677:80 *677:82 6.225 
12 *677:82 *2408:B1 15.765 
13 *677:82 *2412:B1 5.43 
14 *677:80 *2415:B1 8.67 
15 *677:65 *2421:B1 7.5075 
*END

*D_NET *678 0.000934689
*CONN
*I *2376:A1_N I *D sky130_fd_sc_hd__a2bb2o_1
*I *2374:Y O *D sky130_fd_sc_hd__a21oi_1
*CAP
1 *2376:A1_N 0.000212858
2 *2374:Y 0.000212858
3 *2376:A1_N *2371:A1 0.000374437
4 *2376:A1_N *2376:A2_N 0.000116151
5 *2376:A1_N *844:51 0
6 *2374:B1 *2376:A1_N 1.83847e-05
*RES
1 *2374:Y *2376:A1_N 12.09 
*END

*D_NET *679 0.000540991
*CONN
*I *2376:A2_N I *D sky130_fd_sc_hd__a2bb2o_1
*I *2375:X O *D sky130_fd_sc_hd__a31o_1
*CAP
1 *2376:A2_N 0.000158697
2 *2375:X 0.000158697
3 *2376:A2_N *2371:A1 1.34361e-05
4 *2370:A *2376:A2_N 6.3124e-06
5 *2370:B *2376:A2_N 1.1392e-05
6 *2371:A3 *2376:A2_N 7.63047e-05
7 *2376:A1_N *2376:A2_N 0.000116151
*RES
1 *2375:X *2376:A2_N 9.975 
*END

*D_NET *680 0.000850248
*CONN
*I *2377:B2 I *D sky130_fd_sc_hd__a22o_1
*I *2376:X O *D sky130_fd_sc_hd__a2bb2o_1
*CAP
1 *2377:B2 0.00034475
2 *2376:X 0.00034475
3 *2377:B2 *2377:A2 5.81434e-06
4 *2377:B2 *824:22 5.63192e-05
5 *2371:A2 *2377:B2 0
6 *2372:A1 *2377:B2 0
7 *2545:D *2377:B2 1.88656e-05
8 *247:12 *2377:B2 3.97211e-05
9 *247:23 *2377:B2 2.23922e-05
10 *248:8 *2377:B2 1.7635e-05
*RES
1 *2376:X *2377:B2 10.0709 
*END

*D_NET *681 0.00556718
*CONN
*I *2386:A2 I *D sky130_fd_sc_hd__o211ai_1
*I *2387:A3 I *D sky130_fd_sc_hd__a311o_1
*I *2383:A3 I *D sky130_fd_sc_hd__a31o_1
*I *2380:A2 I *D sky130_fd_sc_hd__a32o_1
*I *2382:A2 I *D sky130_fd_sc_hd__a21oi_1
*I *2378:X O *D sky130_fd_sc_hd__a21o_1
*CAP
1 *2386:A2 0.000489404
2 *2387:A3 0
3 *2383:A3 7.52187e-05
4 *2380:A2 2.39278e-05
5 *2382:A2 0.000152803
6 *2378:X 0.000116231
7 *681:53 0.00070493
8 *681:38 0.000378137
9 *681:8 0.000367732
10 *681:6 0.000394626
11 *2380:A2 *2371:A1 8.97315e-06
12 *2380:A2 *2380:A3 2.99608e-05
13 *2380:A2 *837:81 2.17919e-05
14 *2382:A2 *2371:A1 0.000177442
15 *2382:A2 *2380:A3 1.08758e-05
16 *2382:A2 *2381:A0 8.53113e-06
17 *2382:A2 *2384:A1_N 6.44522e-05
18 *2386:A2 *2388:A2 4.82863e-05
19 *2386:A2 *2392:B1 2.76781e-05
20 *2386:A2 *2587:A 0.000138064
21 *2386:A2 *688:10 6.68849e-05
22 *2386:A2 *837:73 7.47215e-05
23 *681:6 *837:81 0.000145515
24 *681:8 *2371:A1 9.80943e-06
25 *681:8 *2380:A1 2.50318e-07
26 *681:8 *837:81 0.00023337
27 *681:38 *844:47 5.11148e-06
28 *681:53 *688:10 5.16418e-05
29 *681:53 *837:73 0.000197414
30 *1993:B1 *681:53 7.35729e-05
31 *1999:A *681:38 0.000268008
32 *1999:A *681:53 0
33 *2077:C *681:38 0.000116853
34 *2382:A1 *2382:A2 0.000125706
35 *2383:B1 *2383:A3 4.82919e-05
36 *2384:B1 *681:38 7.29995e-05
37 *2386:A1 *2386:A2 2.30292e-05
38 *2387:B1 *2386:A2 1.34503e-05
39 *373:18 *681:53 0
40 *377:16 *2386:A2 0.000419398
41 *377:24 *681:53 2.36716e-05
42 *381:23 *2383:A3 1.10085e-05
43 *381:30 *2383:A3 4.41506e-05
44 *381:37 *2383:A3 3.38341e-05
45 *381:37 *681:53 5.83121e-06
46 *388:10 *2383:A3 0.000192125
47 *388:10 *681:53 7.14699e-05
*RES
1 *2378:X *681:6 3.085 
2 *681:6 *681:8 2.52 
3 *681:8 *2382:A2 9.515 
4 *681:8 *2380:A2 2.215 
5 *681:6 *681:38 7.165 
6 *681:38 *2383:A3 3.79 
7 *681:38 *681:53 6.575 
8 *681:53 *2387:A3 3.6 
9 *681:53 *2386:A2 11.715 
*END

*D_NET *682 0.00178964
*CONN
*I *2380:A3 I *D sky130_fd_sc_hd__a32o_1
*I *2379:Y O *D sky130_fd_sc_hd__nand3_1
*CAP
1 *2380:A3 0.000741205
2 *2379:Y 0.000741205
3 *2380:A3 *2371:A1 7.00889e-06
4 *2380:A3 *2381:A0 0.000120655
5 *2380:A3 *2381:A1 8.57024e-05
6 *2380:A3 *823:24 1.17114e-05
7 *2380:A3 *824:22 0
8 *2380:A3 *837:73 5.53249e-06
9 *2380:A3 *839:16 0
10 *1999:B *2380:A3 1.81522e-05
11 *2380:A2 *2380:A3 2.99608e-05
12 *2382:A1 *2380:A3 1.7635e-05
13 *2382:A2 *2380:A3 1.08758e-05
*RES
1 *2379:Y *2380:A3 11.7935 
*END

*D_NET *683 0.000351942
*CONN
*I *2381:A1 I *D sky130_fd_sc_hd__mux2_1
*I *2380:X O *D sky130_fd_sc_hd__a32o_1
*CAP
1 *2381:A1 7.84629e-05
2 *2380:X 7.84629e-05
3 *2381:A1 *2381:A0 6.27029e-05
4 *2381:A1 *823:26 4.66108e-05
5 *2380:A3 *2381:A1 8.57024e-05
*RES
1 *2380:X *2381:A1 5.03 
*END

*D_NET *684 0.00143494
*CONN
*I *2384:A1_N I *D sky130_fd_sc_hd__a2bb2o_1
*I *2382:Y O *D sky130_fd_sc_hd__a21oi_1
*CAP
1 *2384:A1_N 0.000417251
2 *2382:Y 0.000417251
3 *2384:A1_N *2371:A1 9.71067e-05
4 *2384:A1_N *2381:A0 3.4222e-05
5 *2384:A1_N *2384:A2_N 0.00011852
6 *2384:A1_N *2546:RESET_B 0.000140603
7 *2384:A1_N *823:24 0
8 *2382:A1 *2384:A1_N 0
9 *2382:A2 *2384:A1_N 6.44522e-05
10 *2382:B1 *2384:A1_N 2.97004e-06
11 *2383:A2 *2384:A1_N 9.26015e-05
12 *249:12 *2384:A1_N 0
13 *462:12 *2384:A1_N 4.99619e-05
*RES
1 *2382:Y *2384:A1_N 15.15 
*END

*D_NET *685 0.000399342
*CONN
*I *2384:A2_N I *D sky130_fd_sc_hd__a2bb2o_1
*I *2383:X O *D sky130_fd_sc_hd__a31o_1
*CAP
1 *2384:A2_N 6.73899e-05
2 *2383:X 6.73899e-05
3 *2384:A2_N *2546:RESET_B 0.00011852
4 *2384:A1_N *2384:A2_N 0.00011852
5 *381:30 *2384:A2_N 2.75229e-05
*RES
1 *2383:X *2384:A2_N 9.03 
*END

*D_NET *686 0.000466492
*CONN
*I *2385:B2 I *D sky130_fd_sc_hd__a22o_1
*I *2384:X O *D sky130_fd_sc_hd__a2bb2o_1
*CAP
1 *2385:B2 0.000211201
2 *2384:X 0.000211201
3 *2385:B2 *2248:B 0
4 *2385:B2 *2546:RESET_B 0
5 *2385:B2 *823:24 0
6 *2385:B2 *854:112 0
7 *250:10 *2385:B2 3.47837e-05
8 *250:27 *2385:B2 9.3062e-06
*RES
1 *2384:X *2385:B2 10.62 
*END

*D_NET *687 0.00199981
*CONN
*I *2388:A2 I *D sky130_fd_sc_hd__a32o_1
*I *2386:Y O *D sky130_fd_sc_hd__o211ai_1
*CAP
1 *2388:A2 0.000340461
2 *2386:Y 0.000340461
3 *2388:A2 *2388:B1 1.35171e-05
4 *2388:A2 *2392:B1 0.000176134
5 *2388:A2 *2393:B1 0.000193801
6 *2388:A2 *2547:CLK 7.50472e-05
7 *2388:A2 *688:22 0.000566582
8 *2388:A2 *732:62 8.82557e-05
9 *1995:C1 *2388:A2 2.40105e-05
10 *2386:A2 *2388:A2 4.82863e-05
11 *2387:B1 *2388:A2 1.17409e-05
12 *376:110 *2388:A2 0.000121518
*RES
1 *2386:Y *2388:A2 16.425 
*END

*D_NET *688 0.0034256
*CONN
*I *2388:A3 I *D sky130_fd_sc_hd__a32o_1
*I *2391:A3 I *D sky130_fd_sc_hd__a31o_1
*I *2390:A2 I *D sky130_fd_sc_hd__a21oi_1
*I *2387:X O *D sky130_fd_sc_hd__a311o_1
*CAP
1 *2388:A3 2.51922e-05
2 *2391:A3 0
3 *2390:A2 7.81092e-05
4 *2387:X 0.000109602
5 *688:22 0.000707927
6 *688:10 0.000764612
7 *2388:A3 *717:339 6.40595e-05
8 *2388:A3 *837:69 8.7152e-06
9 *2388:A3 *837:73 3.30152e-05
10 *2390:A2 *826:172 0.000182449
11 *688:10 *717:339 7.23602e-05
12 *688:10 *837:73 3.31204e-05
13 *688:22 *2392:B2 2.72651e-05
14 *688:22 *2393:A2 0.000111892
15 *688:22 *2393:A3 4.58691e-05
16 *688:22 *2393:B1 2.74151e-05
17 *688:22 *2547:CLK 1.03423e-05
18 *688:22 *825:16 4.47125e-05
19 *2386:A2 *688:10 6.68849e-05
20 *2387:A2 *688:10 4.82863e-05
21 *2388:A2 *688:22 0.000566582
22 *252:34 *688:22 8.23457e-05
23 *373:18 *688:10 4.78859e-05
24 *385:16 *2390:A2 0.000208304
25 *385:22 *2390:A2 7.00889e-06
26 *681:53 *688:10 5.16418e-05
*RES
1 *2387:X *688:10 6.195 
2 *688:10 *688:22 12.005 
3 *688:22 *2390:A2 8.195 
4 *688:22 *2391:A3 1.6 
5 *688:10 *2388:A3 4.47 
*END

*D_NET *689 0.000512357
*CONN
*I *2389:B2 I *D sky130_fd_sc_hd__a22o_1
*I *2388:X O *D sky130_fd_sc_hd__a32o_1
*CAP
1 *2389:B2 9.95301e-05
2 *2388:X 9.95301e-05
3 *2389:B2 *2547:CLK 8.57024e-05
4 *2389:B2 *717:339 0.000113797
5 *2389:B2 *837:69 0.000113797
*RES
1 *2388:X *2389:B2 9.375 
*END

*D_NET *690 0.00135006
*CONN
*I *2392:B1 I *D sky130_fd_sc_hd__o2bb2a_1
*I *2390:Y O *D sky130_fd_sc_hd__a21oi_1
*CAP
1 *2392:B1 0.000383044
2 *2390:Y 0.000383044
3 *2392:B1 *2392:B2 0.000113416
4 *2392:B1 *825:10 0
5 *1995:C1 *2392:B1 3.23391e-05
6 *2386:A2 *2392:B1 2.76781e-05
7 *2387:B1 *2392:B1 3.81908e-06
8 *2388:A2 *2392:B1 0.000176134
9 *2549:D *2392:B1 0.000190144
10 *376:104 *2392:B1 1.88605e-05
11 *376:110 *2392:B1 1.74629e-05
12 *385:22 *2392:B1 4.11678e-06
*RES
1 *2390:Y *2392:B1 13.14 
*END

*D_NET *691 0.00102175
*CONN
*I *2392:B2 I *D sky130_fd_sc_hd__o2bb2a_1
*I *2391:X O *D sky130_fd_sc_hd__a31o_1
*CAP
1 *2392:B2 0.000263025
2 *2391:X 0.000263025
3 *2392:B2 *2393:A3 0.000157589
4 *2392:B2 *825:16 8.23457e-05
5 *2392:B1 *2392:B2 0.000113416
6 *376:104 *2392:B2 0.000115083
7 *688:22 *2392:B2 2.72651e-05
*RES
1 *2391:X *2392:B2 11.445 
*END

*D_NET *692 0.00108108
*CONN
*I *2393:A3 I *D sky130_fd_sc_hd__o32ai_1
*I *2392:X O *D sky130_fd_sc_hd__o2bb2a_1
*CAP
1 *2393:A3 0.000210217
2 *2392:X 0.000210217
3 *2393:A3 *2392:A2_N 8.7152e-06
4 *2393:A3 *2393:B1 5.17168e-05
5 *2393:A3 *2549:CLK 3.97064e-05
6 *2393:A3 *732:62 8.40213e-05
7 *2393:A3 *824:22 3.04786e-05
8 *1986:A *2393:A3 0.000164691
9 *1986:B *2393:A3 4.82919e-05
10 *1991:A *2393:A3 2.95708e-05
11 *2392:B2 *2393:A3 0.000157589
12 *688:22 *2393:A3 4.58691e-05
*RES
1 *2392:X *2393:A3 12.3525 
*END

*D_NET *693 0.000504585
*CONN
*I *2399:B I *D sky130_fd_sc_hd__xnor2_1
*I *2394:X O *D sky130_fd_sc_hd__a21o_1
*CAP
1 *2399:B 0.000121032
2 *2394:X 0.000121032
3 *2399:B *732:14 0
4 *2399:B *824:22 0.000139566
5 *2394:B1 *2399:B 2.75229e-05
6 *253:26 *2399:B 9.5433e-05
*RES
1 *2394:X *2399:B 9.63 
*END

*D_NET *694 0.000902957
*CONN
*I *2396:B1 I *D sky130_fd_sc_hd__a221o_1
*I *2395:Y O *D sky130_fd_sc_hd__xnor2_1
*CAP
1 *2396:B1 0.000193013
2 *2395:Y 0.000193013
3 *2396:B1 *2396:C1 0.000122337
4 *2396:B1 *732:10 0.00011852
5 *2396:B1 *837:113 0.000119676
6 *2396:B1 *837:124 3.62122e-05
7 *468:8 *2396:B1 0.000120186
*RES
1 *2395:Y *2396:B1 12.15 
*END

*D_NET *695 0.00110765
*CONN
*I *2397:B1 I *D sky130_fd_sc_hd__o21a_1
*I *2396:X O *D sky130_fd_sc_hd__a221o_1
*CAP
1 *2397:B1 0.000174236
2 *2396:X 0.000174236
3 *2397:B1 *2396:C1 4.66108e-05
4 *2397:B1 *825:24 0.000114024
5 *2397:B1 *825:41 0.000298435
6 *2397:B1 *837:124 0.000300109
*RES
1 *2396:X *2397:B1 12.105 
*END

*D_NET *696 0.000985025
*CONN
*I *2403:B I *D sky130_fd_sc_hd__xnor2_1
*I *2398:X O *D sky130_fd_sc_hd__a211o_1
*CAP
1 *2403:B 0.000194119
2 *2398:X 0.000194119
3 *2403:B *2400:A2 0.000137578
4 *2403:B *2401:B1 0.000118438
5 *2403:B *2404:C1 0.000115464
6 *2403:B *732:14 0
7 *2403:B *823:90 0.000191497
8 *2403:B *854:33 1.93834e-05
9 *2399:A *2403:B 1.44259e-05
*RES
1 *2398:X *2403:B 12.915 
*END

*D_NET *697 0.000598352
*CONN
*I *2400:B1 I *D sky130_fd_sc_hd__a221o_1
*I *2399:Y O *D sky130_fd_sc_hd__xnor2_1
*CAP
1 *2400:B1 0.000195099
2 *2399:Y 0.000195099
3 *2400:B1 *2400:A2 1.54111e-05
4 *2400:B1 *2404:C1 4.66108e-05
5 *2399:A *2400:B1 7.22354e-05
6 *253:26 *2400:B1 4.67146e-05
7 *253:33 *2400:B1 1.34503e-05
8 *255:25 *2400:B1 1.37328e-05
*RES
1 *2399:Y *2400:B1 6.68 
*END

*D_NET *698 0.000966429
*CONN
*I *2401:B1 I *D sky130_fd_sc_hd__o21a_1
*I *2400:X O *D sky130_fd_sc_hd__a221o_1
*CAP
1 *2401:B1 0.000159305
2 *2400:X 0.000159305
3 *2401:B1 *2400:A2 7.23602e-05
4 *2401:B1 *2552:CLK 7.49327e-05
5 *2401:B1 *732:14 0.000148975
6 *2401:B1 *732:16 0.00012657
7 *2401:B1 *823:75 3.72916e-05
8 *2401:B1 *823:90 1.61831e-05
9 *2401:A1 *2401:B1 5.30673e-05
10 *2403:B *2401:B1 0.000118438
*RES
1 *2400:X *2401:B1 12.45 
*END

*D_NET *699 0.000439908
*CONN
*I *2406:B I *D sky130_fd_sc_hd__xnor2_1
*I *2402:X O *D sky130_fd_sc_hd__a2111o_1
*CAP
1 *2406:B 0.000119927
2 *2402:X 0.000119927
3 *2406:B *2404:A2 0
4 *2406:B *2405:B1 3.86529e-05
5 *2406:B *854:16 0.000113372
6 *255:32 *2406:B 4.80285e-05
*RES
1 *2402:X *2406:B 9.375 
*END

*D_NET *700 0.000490827
*CONN
*I *2404:B1 I *D sky130_fd_sc_hd__a221o_1
*I *2403:Y O *D sky130_fd_sc_hd__xnor2_1
*CAP
1 *2404:B1 0.0001369
2 *2403:Y 0.0001369
3 *2404:B1 *2552:CLK 4.66108e-05
4 *2404:B1 *825:60 4.7771e-05
5 *2552:D *2404:B1 9.17274e-05
6 *255:8 *2404:B1 3.09179e-05
*RES
1 *2403:Y *2404:B1 9.465 
*END

*D_NET *701 0.000566048
*CONN
*I *2405:B1 I *D sky130_fd_sc_hd__o21a_1
*I *2404:X O *D sky130_fd_sc_hd__a221o_1
*CAP
1 *2405:B1 9.26321e-05
2 *2404:X 9.26321e-05
3 *2405:B1 *2404:A2 4.43871e-06
4 *2405:B1 *843:67 7.17811e-05
5 *2405:B1 *854:16 2.46007e-05
6 *2406:B *2405:B1 3.86529e-05
7 *253:33 *2405:B1 0.000120655
8 *255:32 *2405:B1 0.000120655
*RES
1 *2404:X *2405:B1 9.975 
*END

*D_NET *702 0.0008065
*CONN
*I *2407:B1 I *D sky130_fd_sc_hd__a22o_1
*I *2406:Y O *D sky130_fd_sc_hd__xnor2_1
*CAP
1 *2407:B1 0.000328962
2 *2406:Y 0.000328962
3 *2407:B1 *2407:B2 0
4 *2407:B1 *2552:RESET_B 0
5 *2407:A1 *2407:B1 4.65515e-05
6 *255:8 *2407:B1 0.000102024
*RES
1 *2406:Y *2407:B1 11.64 
*END

*D_NET *703 0.000239747
*CONN
*I *2408:B2 I *D sky130_fd_sc_hd__a22o_1
*I *2407:X O *D sky130_fd_sc_hd__a22o_1
*CAP
1 *2408:B2 7.4307e-05
2 *2407:X 7.4307e-05
3 *2408:B1 *2408:B2 9.11327e-05
4 *2553:D *2408:B2 0
*RES
1 *2407:X *2408:B2 8.835 
*END

*D_NET *704 0.000291173
*CONN
*I *2413:B I *D sky130_fd_sc_hd__xnor2_1
*I *2409:X O *D sky130_fd_sc_hd__a211o_1
*CAP
1 *2413:B 4.21548e-05
2 *2409:X 4.21548e-05
3 *2083:B1 *2413:B 5.16418e-05
4 *2411:B2 *2413:B 2.08979e-05
5 *472:18 *2413:B 1.88602e-05
6 *677:82 *2413:B 0.000115464
*RES
1 *2409:X *2413:B 8.58 
*END

*D_NET *705 0.000616019
*CONN
*I *2411:B1 I *D sky130_fd_sc_hd__a22o_1
*I *2410:Y O *D sky130_fd_sc_hd__xnor2_1
*CAP
1 *2411:B1 0.000156898
2 *2410:Y 0.000156898
3 *2408:B1 *2411:B1 0.000108652
4 *2410:A *2411:B1 8.49205e-05
5 *470:10 *2411:B1 7.55313e-05
6 *470:25 *2411:B1 3.31204e-05
*RES
1 *2410:Y *2411:B1 10.395 
*END

*D_NET *706 0.000756097
*CONN
*I *2412:B2 I *D sky130_fd_sc_hd__a22o_1
*I *2411:X O *D sky130_fd_sc_hd__a22o_1
*CAP
1 *2412:B2 0.000173715
2 *2411:X 0.000173715
3 *2412:B2 *2411:A2 3.00381e-05
4 *2412:B2 *843:28 0
5 *257:19 *2412:B2 5.63405e-05
6 *470:10 *2412:B2 0.00011852
7 *470:25 *2412:B2 0.000203769
*RES
1 *2411:X *2412:B2 11.325 
*END

*D_NET *707 0.000244107
*CONN
*I *2414:B1 I *D sky130_fd_sc_hd__a22o_1
*I *2413:Y O *D sky130_fd_sc_hd__xnor2_1
*CAP
1 *2414:B1 8.16805e-05
2 *2413:Y 8.16805e-05
3 *2413:A *2414:B1 8.07454e-05
*RES
1 *2413:Y *2414:B1 4.7 
*END

*D_NET *708 0.000407208
*CONN
*I *2415:B2 I *D sky130_fd_sc_hd__a22o_1
*I *2414:X O *D sky130_fd_sc_hd__a22o_1
*CAP
1 *2415:B2 5.19918e-05
2 *2414:X 5.19918e-05
3 *2415:B2 *2415:A2 2.49909e-05
4 *2415:B2 *855:74 0.000116158
5 *2415:B1 *2415:B2 4.66108e-05
6 *2417:A1 *2415:B2 0.000115464
*RES
1 *2414:X *2415:B2 9.03 
*END

*D_NET *709 0.00108879
*CONN
*I *2417:B1 I *D sky130_fd_sc_hd__a22o_1
*I *2416:Y O *D sky130_fd_sc_hd__xnor2_1
*CAP
1 *2417:B1 0.00018348
2 *2416:Y 0.00018348
3 *2417:B1 *2415:A2 8.40269e-05
4 *2417:B1 *2418:B2 6.07575e-06
5 *2083:A1 *2417:B1 0.000268745
6 *2083:C1 *2417:B1 2.05056e-05
7 *2414:B2 *2417:B1 4.66108e-05
8 *2415:B1 *2417:B1 1.47347e-05
9 *2416:A *2417:B1 0.000200615
10 *272:35 *2417:B1 8.05167e-05
*RES
1 *2416:Y *2417:B1 8.15 
*END

*D_NET *710 0.00156557
*CONN
*I *2418:B2 I *D sky130_fd_sc_hd__a22o_1
*I *2417:X O *D sky130_fd_sc_hd__a22o_1
*CAP
1 *2418:B2 0.000464315
2 *2417:X 0.000464315
3 *2418:B2 *825:119 5.83121e-06
4 *2083:C1 *2418:B2 4.41506e-05
5 *2415:B1 *2418:B2 0.000311294
6 *2416:A *2418:B2 1.47256e-05
7 *2417:B1 *2418:B2 6.07575e-06
8 *259:12 *2418:B2 3.86607e-05
9 *259:26 *2418:B2 3.37099e-05
10 *272:35 *2418:B2 4.47125e-05
11 *474:8 *2418:B2 0.000137777
*RES
1 *2417:X *2418:B2 14.22 
*END

*D_NET *711 0.000425881
*CONN
*I *2420:B1 I *D sky130_fd_sc_hd__a22o_1
*I *2419:Y O *D sky130_fd_sc_hd__xnor2_1
*CAP
1 *2420:B1 6.44194e-05
2 *2419:Y 6.44194e-05
3 *2420:B1 *2420:A2 2.84224e-05
4 *2420:B1 *2421:B2 5.39718e-05
5 *2420:B1 *839:16 0.000164686
6 *2420:A1 *2420:B1 4.99619e-05
*RES
1 *2419:Y *2420:B1 9.54 
*END

*D_NET *712 0.000512145
*CONN
*I *2421:B2 I *D sky130_fd_sc_hd__a22o_1
*I *2420:X O *D sky130_fd_sc_hd__a22o_1
*CAP
1 *2421:B2 0.000148742
2 *2420:X 0.000148742
3 *2421:B2 *2420:A2 0.000139245
4 *2421:B2 *839:16 1.73877e-05
5 *2420:A1 *2421:B2 4.05674e-06
6 *2420:B1 *2421:B2 5.39718e-05
*RES
1 *2420:X *2421:B2 9.975 
*END

*D_NET *713 0.00146079
*CONN
*I *2423:B I *D sky130_fd_sc_hd__and2_1
*I *2422:X O *D sky130_fd_sc_hd__or2_1
*CAP
1 *2423:B 0.000302524
2 *2422:X 0.000302524
3 *2423:B *859:53 9.71067e-05
4 *2093:A *2423:B 8.8266e-05
5 *2424:B *2423:B 0.000223026
6 *2425:A2 *2423:B 0.000216098
7 *2559:D *2423:B 9.54469e-05
8 *269:36 *2423:B 2.97004e-06
9 *269:49 *2423:B 4.62396e-05
10 *483:8 *2423:B 8.65905e-05
*RES
1 *2422:X *2423:B 15.75 
*END

*D_NET *714 0.00159545
*CONN
*I *2426:B I *D sky130_fd_sc_hd__and2_1
*I *2425:X O *D sky130_fd_sc_hd__a31o_1
*CAP
1 *2426:B 0.000335215
2 *2425:X 0.000335215
3 *2426:B *2560:RESET_B 8.98338e-05
4 *2094:C *2426:B 4.44927e-05
5 *2095:C *2426:B 8.53113e-06
6 *2096:A *2426:B 0
7 *2097:C *2426:B 7.00889e-06
8 *2097:D *2426:B 2.05864e-05
9 *2098:B *2426:B 0.000134469
10 *2425:B1 *2426:B 4.82919e-05
11 *264:29 *2426:B 8.21807e-05
12 *264:31 *2426:B 0.000187766
13 *265:8 *2426:B 0.000168781
14 *265:10 *2426:B 0.000133075
*RES
1 *2425:X *2426:B 16.245 
*END

*D_NET *715 0.00141956
*CONN
*I *2428:A0 I *D sky130_fd_sc_hd__mux2_1
*I *2427:Y O *D sky130_fd_sc_hd__nor2_1
*CAP
1 *2428:A0 0.00028187
2 *2427:Y 0.00028187
3 *2428:A0 *857:12 0
4 *2096:B *2428:A0 4.82863e-05
5 *2428:A1 *2428:A0 8.65905e-05
6 *2428:S *2428:A0 0.00022921
7 *2616:A *2428:A0 0.000491728
8 *486:10 *2428:A0 0
*RES
1 *2427:Y *2428:A0 14.505 
*END

*D_NET *716 0.00266092
*CONN
*I *2430:B I *D sky130_fd_sc_hd__and2_1
*I *2429:X O *D sky130_fd_sc_hd__a21o_1
*CAP
1 *2430:B 0.000614242
2 *2429:X 0.000614242
3 *2430:B *2560:CLK 0.000461947
4 *2430:B *2644:A 0.000501921
5 *2430:B *721:18 0
6 *2430:B *857:12 0.000140248
7 *2099:B *2430:B 0.000197066
8 *2561:D *2430:B 6.97118e-05
9 *2562:D *2430:B 4.05358e-05
10 *266:19 *2430:B 2.10034e-05
*RES
1 *2429:X *2430:B 19.41 
*END

*D_NET *717 0.0557186
*CONN
*I *2574:A I *D sky130_fd_sc_hd__clkbuf_8
*I *907:DIODE I *D sky130_fd_sc_hd__diode_2
*I *2575:A I *D sky130_fd_sc_hd__clkbuf_8
*I *908:DIODE I *D sky130_fd_sc_hd__diode_2
*I *2588:A I *D sky130_fd_sc_hd__clkbuf_8
*I *921:DIODE I *D sky130_fd_sc_hd__diode_2
*I *2587:A I *D sky130_fd_sc_hd__clkbuf_8
*I *920:DIODE I *D sky130_fd_sc_hd__diode_2
*I *905:DIODE I *D sky130_fd_sc_hd__diode_2
*I *919:DIODE I *D sky130_fd_sc_hd__diode_2
*I *2585:A I *D sky130_fd_sc_hd__clkbuf_8
*I *2586:A I *D sky130_fd_sc_hd__clkbuf_8
*I *917:DIODE I *D sky130_fd_sc_hd__diode_2
*I *2584:A I *D sky130_fd_sc_hd__clkbuf_8
*I *916:DIODE I *D sky130_fd_sc_hd__diode_2
*I *2583:A I *D sky130_fd_sc_hd__clkbuf_8
*I *918:DIODE I *D sky130_fd_sc_hd__diode_2
*I *2577:A I *D sky130_fd_sc_hd__clkbuf_8
*I *910:DIODE I *D sky130_fd_sc_hd__diode_2
*I *2579:A I *D sky130_fd_sc_hd__clkbuf_8
*I *912:DIODE I *D sky130_fd_sc_hd__diode_2
*I *2578:A I *D sky130_fd_sc_hd__clkbuf_8
*I *911:DIODE I *D sky130_fd_sc_hd__diode_2
*I *2576:A I *D sky130_fd_sc_hd__clkbuf_8
*I *909:DIODE I *D sky130_fd_sc_hd__diode_2
*I *2581:A I *D sky130_fd_sc_hd__clkbuf_8
*I *906:DIODE I *D sky130_fd_sc_hd__diode_2
*I *913:DIODE I *D sky130_fd_sc_hd__diode_2
*I *2580:A I *D sky130_fd_sc_hd__clkbuf_8
*I *2573:A I *D sky130_fd_sc_hd__clkbuf_8
*I *914:DIODE I *D sky130_fd_sc_hd__diode_2
*I *2582:A I *D sky130_fd_sc_hd__clkbuf_8
*I *915:DIODE I *D sky130_fd_sc_hd__diode_2
*I *2572:X O *D sky130_fd_sc_hd__clkbuf_16
*CAP
1 *2574:A 0.000171069
2 *907:DIODE 9.28717e-05
3 *2575:A 8.7592e-05
4 *908:DIODE 0
5 *2588:A 1.30736e-05
6 *921:DIODE 0
7 *2587:A 0.000254355
8 *920:DIODE 3.33269e-05
9 *905:DIODE 0
10 *919:DIODE 0.000428297
11 *2585:A 0
12 *2586:A 0.000344541
13 *917:DIODE 0.000225602
14 *2584:A 0.000328831
15 *916:DIODE 0
16 *2583:A 6.98907e-05
17 *918:DIODE 0
18 *2577:A 9.56014e-05
19 *910:DIODE 0
20 *2579:A 0
21 *912:DIODE 0.000114959
22 *2578:A 1.30736e-05
23 *911:DIODE 0.000108269
24 *2576:A 8.78602e-05
25 *909:DIODE 0
26 *2581:A 0
27 *906:DIODE 0
28 *913:DIODE 0.000116186
29 *2580:A 0.00029151
30 *2573:A 0.000122295
31 *914:DIODE 5.65712e-05
32 *2582:A 0.000150269
33 *915:DIODE 3.38751e-05
34 *2572:X 0
35 *717:411 0.000679826
36 *717:383 0.00027549
37 *717:379 0.00254074
38 *717:361 1.30736e-05
39 *717:339 0.000551138
40 *717:335 0.0031908
41 *717:324 0.00109163
42 *717:275 0.000628603
43 *717:257 0.00014363
44 *717:255 0.000972495
45 *717:251 0.0012213
46 *717:247 0.000347106
47 *717:238 0.000405551
48 *717:234 0.000813127
49 *717:218 0.000300693
50 *717:200 0.000648314
51 *717:168 0.000395575
52 *717:164 0.00280776
53 *717:160 0.00224474
54 *717:144 8.78602e-05
55 *717:142 0.00117283
56 *717:134 0.0018103
57 *717:98 0.000566202
58 *717:83 0.000441953
59 *717:81 0.00077916
60 *717:59 0.000741443
61 *717:46 0.000403768
62 *717:33 0.000596632
63 *717:18 0.000728437
64 *717:12 0.00155259
65 *717:4 0.000779137
66 *907:DIODE *2453:CLK 0
67 *907:DIODE *719:14 0
68 *911:DIODE *723:16 0
69 *911:DIODE *723:92 0
70 *913:DIODE *2249:B1 2.01504e-05
71 *913:DIODE *2249:B2 4.89295e-05
72 *913:DIODE *2250:A1 4.77386e-05
73 *914:DIODE *726:17 0.000136877
74 *914:DIODE *826:38 0
75 *914:DIODE *840:18 7.5416e-05
76 *919:DIODE *2289:A1 8.66976e-06
77 *919:DIODE *2291:A1 0.000115464
78 *919:DIODE *2474:RESET_B 0
79 *919:DIODE *2512:CLK 0.000134516
80 *919:DIODE *820:111 0.000251948
81 *919:DIODE *842:118 0
82 *2575:A *2455:D 7.70758e-05
83 *2575:A *720:10 0.000122331
84 *2575:A *720:16 0
85 *2578:A *723:10 4.82919e-05
86 *2580:A *725:8 0.000313343
87 *2582:A *2003:A 8.49205e-05
88 *2582:A *2621:A 4.66108e-05
89 *2582:A *2623:A 4.66108e-05
90 *2582:A *727:21 1.16578e-05
91 *2582:A *819:18 3.63577e-05
92 *2586:A *2512:RESET_B 0
93 *2586:A *731:46 0
94 *2586:A *851:35 0
95 *2588:A *733:6 4.82919e-05
96 *717:12 *2504:CLK 4.66108e-05
97 *717:18 *2189:B1 2.50049e-05
98 *717:18 *802:31 4.13879e-05
99 *717:18 *802:35 9.76522e-05
100 *717:18 *842:62 0.000531401
101 *717:33 *2472:RESET_B 0.000142059
102 *717:33 *2623:A 3.74161e-05
103 *717:33 *819:18 4.60584e-05
104 *717:33 *822:30 0.000373965
105 *717:33 *836:62 0
106 *717:46 *2003:A 4.05529e-05
107 *717:46 *726:17 2.07184e-05
108 *717:46 *822:30 0
109 *717:46 *826:38 0
110 *717:46 *836:62 2.73058e-05
111 *717:46 *840:18 0.000113797
112 *717:59 *2596:A 0.000337634
113 *717:59 *726:17 7.14699e-05
114 *717:59 *840:18 1.19928e-05
115 *717:81 *1961:A 0.000192553
116 *717:81 *830:48 0.000252009
117 *717:81 *832:54 0.00015829
118 *717:98 *2250:A1 6.56448e-06
119 *717:134 *2187:C 0
120 *717:134 *2268:B1 0
121 *717:134 *2500:RESET_B 5.69266e-05
122 *717:134 *842:62 0.000970353
123 *717:142 *853:16 0.000248171
124 *717:164 *2433:A1 0.000119631
125 *717:164 *2565:CLK 2.04648e-05
126 *717:164 *2592:A 0.000257807
127 *717:164 *721:96 4.43682e-05
128 *717:168 *2527:CLK 4.19884e-05
129 *717:168 *2565:CLK 0
130 *717:168 *723:92 0
131 *717:168 *723:123 7.88653e-05
132 *717:200 *2527:CLK 0
133 *717:200 *2595:A 6.0236e-05
134 *717:200 *724:6 7.40446e-05
135 *717:200 *724:10 0.000119762
136 *717:200 *861:33 4.58166e-05
137 *717:218 *2285:A1 7.26629e-05
138 *717:218 *2286:A 0.000468231
139 *717:234 *2267:A1 0
140 *717:234 *820:111 0.00011741
141 *717:234 *842:62 1.88656e-05
142 *717:234 *842:75 0
143 *717:234 *842:84 0
144 *717:234 *853:46 0
145 *717:247 *2522:RESET_B 0.000275548
146 *717:255 *2600:A 0.000163175
147 *717:255 *731:34 0.00030135
148 *717:255 *834:29 3.94429e-05
149 *717:324 *2504:CLK 6.77501e-05
150 *717:335 *2274:A1 4.31106e-05
151 *717:335 *2278:A1 0
152 *717:335 *2278:B1 0
153 *717:335 *2504:CLK 0.000111901
154 *717:335 *2548:RESET_B 0
155 *717:335 *733:60 0.000137578
156 *717:335 *818:31 0.000127573
157 *717:335 *818:42 0.0001514
158 *717:335 *829:76 0
159 *717:335 *829:86 9.5433e-05
160 *717:335 *837:69 5.75134e-05
161 *717:335 *845:34 0.000288997
162 *717:339 *2278:A1 0
163 *717:339 *837:69 0.00011273
164 *717:383 *2453:D 0
165 *717:383 *2455:D 0.000118527
166 *717:383 *2520:CLK 0
167 *717:383 *720:16 0
168 *717:411 *2453:CLK 0
169 *1971:A *717:168 1.07797e-05
170 *1981:A *717:59 4.66108e-05
171 *1981:B *717:59 2.42043e-05
172 *2018:B2 *717:59 0.000373369
173 *2023:A1 *717:81 2.92496e-05
174 *2102:A *2584:A 3.68999e-05
175 *2102:B *717:255 8.23457e-05
176 *2102:B *717:257 4.77719e-05
177 *2102:B *717:275 7.01359e-05
178 *2102:C *2584:A 6.69608e-06
179 *2103:A *2584:A 2.01056e-05
180 *2104:A *917:DIODE 5.54551e-05
181 *2112:A2 *717:164 0.000134922
182 *2112:A2 *717:200 4.21973e-05
183 *2112:B1 *717:168 7.30547e-05
184 *2113:B2 *717:168 0
185 *2113:C1 *717:164 6.97943e-06
186 *2134:A1 *717:98 9.22308e-05
187 *2134:A2 *2580:A 3.64998e-06
188 *2134:B1 *2580:A 0.000102779
189 *2134:B2 *913:DIODE 0
190 *2134:B2 *717:98 0
191 *2135:A1 *2573:A 0
192 *2135:B1 *717:81 0.000977771
193 *2135:B1 *717:83 3.23663e-05
194 *2135:B2 *717:83 1.33285e-05
195 *2135:C1 *2573:A 0.000416239
196 *2138:A1 *717:83 4.82919e-05
197 *2150:B1 *717:18 2.75229e-05
198 *2150:B2 *915:DIODE 4.82863e-05
199 *2150:B2 *717:18 0.000148292
200 *2150:B2 *717:33 1.71013e-05
201 *2153:B2 *717:18 1.47256e-05
202 *2187:A_N *717:18 3.09233e-05
203 *2187:A_N *717:134 8.59365e-05
204 *2187:B *717:134 0
205 *2188:B *717:18 0.000162332
206 *2189:A1 *717:12 2.76356e-05
207 *2190:B *717:134 2.23407e-05
208 *2203:B1 *717:142 8.28341e-05
209 *2205:B *717:142 0
210 *2206:A1 *717:142 9.30787e-05
211 *2208:A1 *717:142 3.59997e-05
212 *2208:A1 *717:160 2.54606e-05
213 *2208:A2 *717:142 5.16348e-05
214 *2208:B2 *717:142 0
215 *2209:B *717:218 2.25161e-05
216 *2210:C1 *717:218 0.000150083
217 *2230:B1 *717:200 0.000116853
218 *2231:B *717:168 3.86607e-05
219 *2235:B *912:DIODE 4.99619e-05
220 *2248:A *717:339 0
221 *2249:A2 *717:379 0
222 *2250:B2 *717:81 9.82856e-06
223 *2250:B2 *717:83 0.000118081
224 *2268:A2 *717:134 4.497e-05
225 *2268:A2 *717:234 3.34967e-05
226 *2268:B2 *717:134 0
227 *2276:B2 *717:335 7.36136e-05
228 *2292:B *2586:A 3.09233e-05
229 *2292:B *717:251 0.000206817
230 *2293:A1 *717:247 0
231 *2293:B1 *919:DIODE 4.54719e-05
232 *2293:B1 *717:234 9.37731e-05
233 *2300:A *917:DIODE 9.1483e-06
234 *2300:A *717:255 7.20899e-05
235 *2300:A *717:257 8.52883e-05
236 *2300:A *717:275 5.63575e-05
237 *2306:D_N *717:255 7.81541e-05
238 *2312:A1 *717:255 0.000160635
239 *2314:B *717:257 7.46328e-06
240 *2325:A2 *717:255 0.000847558
241 *2373:A *717:379 0.000334445
242 *2386:A1 *2587:A 0.000239937
243 *2386:A2 *2587:A 0.000138064
244 *2387:A2 *920:DIODE 1.33293e-05
245 *2387:A2 *2587:A 6.58339e-05
246 *2387:B1 *2587:A 1.19928e-05
247 *2387:C1 *2587:A 0.00015896
248 *2388:A3 *717:339 6.40595e-05
249 *2389:B2 *717:339 0.000113797
250 *2433:A0 *717:164 2.32597e-05
251 *2433:S *717:164 2.75229e-05
252 *2441:D *717:164 3.16265e-05
253 *2502:D *717:134 6.55328e-05
254 *2504:D *717:335 2.11084e-05
255 *2513:D *919:DIODE 0.000136413
256 *2514:D *717:234 0
257 *2514:D *717:238 8.8266e-05
258 *2514:D *717:247 2.96426e-05
259 *2526:D *717:200 4.43871e-06
260 *2527:D *717:168 9.54399e-05
261 *2548:D *717:335 0
262 *2604:A *717:134 0.000185127
263 *2629:A *717:379 0.000712333
264 *2659:A *717:164 3.1562e-06
265 *2669:A *717:234 0
266 *2676:A *717:234 6.55328e-05
267 *2705:A *717:142 7.00419e-05
268 *2709:A *717:142 8.6313e-05
269 *1:15 *717:81 0
270 *110:32 *717:18 2.43956e-05
271 *111:14 *717:12 7.62032e-05
272 *115:79 *2573:A 0.00023876
273 *115:79 *717:83 0.000167266
274 *126:33 *2586:A 8.5242e-05
275 *126:33 *717:251 0.00020613
276 *128:49 *717:255 0.000550568
277 *133:39 *917:DIODE 8.52845e-05
278 *133:39 *2584:A 0.000159054
279 *134:14 *2583:A 8.51862e-05
280 *134:14 *717:257 1.31227e-05
281 *135:32 *717:275 0.000131571
282 *136:34 *2584:A 2.49909e-05
283 *144:28 *2578:A 1.83847e-05
284 *165:17 *717:164 0.000338332
285 *171:10 *717:200 0
286 *171:20 *717:168 7.87127e-05
287 *171:20 *717:200 4.09916e-05
288 *173:10 *717:168 0.00011468
289 *217:29 *717:160 2.24423e-05
290 *217:29 *717:218 2.25075e-05
291 *218:14 *2577:A 1.56428e-05
292 *218:14 *717:218 0.00013521
293 *220:21 *2586:A 0.000141599
294 *221:27 *919:DIODE 0
295 *221:27 *2586:A 0
296 *250:27 *2588:A 1.83847e-05
297 *352:8 *717:81 0.00068071
298 *352:14 *717:81 1.88656e-05
299 *363:10 *717:200 6.56075e-05
300 *369:12 *717:46 0.00010057
301 *371:34 *717:81 7.26551e-05
302 *373:18 *717:339 0.000176676
303 *377:16 *2587:A 0.000421073
304 *379:14 *717:81 4.61701e-06
305 *395:12 *913:DIODE 8.52845e-05
306 *395:32 *717:98 9.6971e-05
307 *404:23 *2580:A 0
308 *404:33 *717:98 0.000307354
309 *411:25 *717:81 3.57349e-05
310 *434:45 *717:81 1.79483e-05
311 *443:22 *717:18 1.04129e-06
312 *443:33 *717:18 4.78802e-05
313 *448:24 *717:81 0.000119762
314 *457:70 *717:33 0
315 *491:8 *917:DIODE 1.01155e-05
316 *554:10 *717:18 5.39961e-05
317 *565:32 *717:218 1.52776e-05
318 *565:45 *717:142 5.65627e-05
319 *565:45 *717:160 6.89704e-05
320 *565:45 *717:218 7.48496e-05
321 *565:47 *717:142 7.1301e-06
322 *579:10 *717:200 5.8218e-05
323 *623:18 *917:DIODE 0.000132456
324 *623:18 *717:275 3.27233e-05
325 *688:10 *717:339 7.23602e-05
*RES
1 *2572:X *717:4 1.6 
2 *717:4 *717:12 10.235 
3 *717:12 *717:18 11.435 
4 *717:18 *915:DIODE 2.05 
5 *717:18 *717:33 9.58 
6 *717:33 *2582:A 4.135 
7 *717:33 *717:46 6.44 
8 *717:46 *914:DIODE 5.235 
9 *717:46 *717:59 6.245 
10 *717:59 *717:81 21.5705 
11 *717:81 *717:83 3.21 
12 *717:83 *2573:A 6.22 
13 *717:83 *717:98 5.93 
14 *717:98 *2580:A 9.345 
15 *717:98 *913:DIODE 6.03 
16 *717:81 *906:DIODE 1.6 
17 *717:59 *2581:A 1.6 
18 *717:12 *717:134 11.4525 
19 *717:134 *717:142 6.82157 
20 *717:142 *717:144 2 
21 *717:144 *909:DIODE 1.6 
22 *717:144 *2576:A 2.755 
23 *717:142 *717:160 1.38 
24 *717:160 *717:164 26.6 
25 *717:164 *717:168 8.735 
26 *717:168 *911:DIODE 5.235 
27 *717:168 *2578:A 4.05 
28 *717:164 *717:200 14.05 
29 *717:200 *912:DIODE 3.445 
30 *717:200 *2579:A 1.6 
31 *717:160 *717:218 8.99 
32 *717:218 *910:DIODE 1.6 
33 *717:218 *2577:A 2.755 
34 *717:134 *717:234 6.0975 
35 *717:234 *717:238 3.83 
36 *717:238 *918:DIODE 1.6 
37 *717:238 *717:247 5.55 
38 *717:247 *717:251 4.4 
39 *717:251 *717:255 21.08 
40 *717:255 *717:257 1.485 
41 *717:257 *2583:A 3.01 
42 *717:257 *916:DIODE 1.6 
43 *717:255 *717:275 4.145 
44 *717:275 *2584:A 8.64 
45 *717:275 *917:DIODE 7.56 
46 *717:251 *2586:A 9.57 
47 *717:247 *2585:A 1.6 
48 *717:234 *919:DIODE 13.65 
49 *717:4 *717:324 1.5 
50 *717:324 *905:DIODE 1.6 
51 *717:324 *717:335 19.865 
52 *717:335 *717:339 7.715 
53 *717:339 *920:DIODE 2.05 
54 *717:339 *2587:A 8.995 
55 *717:335 *717:361 2 
56 *717:361 *921:DIODE 1.6 
57 *717:361 *2588:A 2.05 
58 *717:335 *717:379 4.50013 
59 *717:379 *717:383 3.7925 
60 *717:383 *908:DIODE 3.6 
61 *717:383 *2575:A 5.61 
62 *717:379 *717:411 3.24203 
63 *717:411 *907:DIODE 4.98 
64 *717:411 *2574:A 6.12 
*END

*D_NET *718 0.0110227
*CONN
*I *2589:A I *D sky130_fd_sc_hd__bufinv_16
*I *2457:CLK I *D sky130_fd_sc_hd__dfrtp_2
*I *2536:CLK I *D sky130_fd_sc_hd__dfrtp_1
*I *2537:CLK I *D sky130_fd_sc_hd__dfrtp_1
*I *2538:CLK I *D sky130_fd_sc_hd__dfrtp_1
*I *2540:CLK I *D sky130_fd_sc_hd__dfrtp_1
*I *2541:CLK I *D sky130_fd_sc_hd__dfrtp_1
*I *2539:CLK I *D sky130_fd_sc_hd__dfrtp_1
*I *2573:X O *D sky130_fd_sc_hd__clkbuf_8
*CAP
1 *2589:A 0.000227472
2 *2457:CLK 3.37454e-05
3 *2536:CLK 0
4 *2537:CLK 0
5 *2538:CLK 0
6 *2540:CLK 0.000140924
7 *2541:CLK 0.000214147
8 *2539:CLK 0
9 *2573:X 0
10 *718:57 0.000940535
11 *718:42 0.00126565
12 *718:36 0.00141585
13 *718:28 0.00104903
14 *718:20 0.000534135
15 *718:16 0.00143864
16 *718:4 0.00141159
17 *2540:CLK *2540:RESET_B 7.18771e-05
18 *2540:CLK *824:70 0
19 *2541:CLK *2539:RESET_B 0.000201508
20 *2541:CLK *824:56 0.000161204
21 *718:57 *2539:RESET_B 4.24575e-05
22 gpio_oeb[15] *718:36 0
23 gpio_oeb[20] *718:28 1.79536e-05
24 gpio_oeb[25] *718:20 3.57702e-05
25 gpio_out[22] *718:36 0
26 gpio_out[2] *718:36 0
27 gpio_out[3] *718:20 5.8136e-05
28 *2135:C1 *718:16 0.000505414
29 *2136:B *2589:A 0.000303684
30 *2137:B1 *2589:A 0.000104892
31 *2138:A2 *2589:A 0.000193017
32 *2457:D *718:16 0
33 *2458:D *718:16 4.99619e-05
34 *2537:D *718:36 0.000119631
35 *2540:D *2540:CLK 8.53856e-06
36 *115:6 *718:16 0.000101476
37 *242:12 *2540:CLK 7.17811e-05
38 *242:12 *2541:CLK 4.43871e-06
39 *395:32 *2589:A 0.000216878
40 *409:10 *2589:A 8.23457e-05
*RES
1 *2573:X *718:4 1.6 
2 *718:4 *718:16 17.93 
3 *718:16 *718:20 6.185 
4 *718:20 *718:28 8.98 
5 *718:28 *718:36 13.235 
6 *718:36 *718:42 12.59 
7 *718:42 *2539:CLK 1.6 
8 *718:42 *718:57 8.795 
9 *718:57 *2541:CLK 8.46 
10 *718:57 *2540:CLK 6.375 
11 *718:36 *2538:CLK 3.6 
12 *718:28 *2537:CLK 1.6 
13 *718:20 *2536:CLK 1.6 
14 *718:16 *2457:CLK 4.05 
15 *718:4 *2589:A 11.81 
*END

*D_NET *719 0.00451608
*CONN
*I *2557:CLK I *D sky130_fd_sc_hd__dfrtp_1
*I *2453:CLK I *D sky130_fd_sc_hd__dfrtp_1
*I *2603:A I *D sky130_fd_sc_hd__clkinvlp_4
*I *2556:CLK I *D sky130_fd_sc_hd__dfrtp_1
*I *2555:CLK I *D sky130_fd_sc_hd__dfrtp_1
*I *2554:CLK I *D sky130_fd_sc_hd__dfrtp_1
*I *2553:CLK I *D sky130_fd_sc_hd__dfrtp_1
*I *2574:X O *D sky130_fd_sc_hd__clkbuf_8
*CAP
1 *2557:CLK 2.08101e-05
2 *2453:CLK 0.000147435
3 *2603:A 3.33915e-05
4 *2556:CLK 3.37585e-05
5 *2555:CLK 7.44339e-05
6 *2554:CLK 0
7 *2553:CLK 0.000544335
8 *2574:X 5.28032e-05
9 *719:28 0.000774787
10 *719:24 0.000884379
11 *719:16 0.000876937
12 *719:14 0.000405869
13 *719:10 0.000317261
14 *719:6 0.000134649
15 *719:16 *855:72 0
16 *719:16 *855:74 0
17 *719:24 *2415:A1 0
18 *719:24 *855:74 0
19 *719:24 *855:76 0
20 *907:DIODE *2453:CLK 0
21 *907:DIODE *719:14 0
22 *2554:D *719:28 4.70256e-05
23 *2555:D *719:24 6.69341e-05
24 *2557:D *2603:A 5.83121e-06
25 *2557:D *719:14 9.54399e-05
26 *717:411 *2453:CLK 0
*RES
1 *2574:X *719:6 2.395 
2 *719:6 *719:10 2.795 
3 *719:10 *719:14 2.085 
4 *719:14 *719:16 4.44 
5 *719:16 *719:24 10.925 
6 *719:24 *719:28 5.93 
7 *719:28 *2553:CLK 12.12 
8 *719:28 *2554:CLK 3.6 
9 *719:24 *2555:CLK 2.755 
10 *719:16 *2556:CLK 4.05 
11 *719:14 *2603:A 4.05 
12 *719:10 *2453:CLK 6 
13 *719:6 *2557:CLK 1.96 
*END

*D_NET *720 0.00420254
*CONN
*I *2451:CLK I *D sky130_fd_sc_hd__dfrtp_1
*I *2591:A I *D sky130_fd_sc_hd__clkinv_2
*I *2452:CLK I *D sky130_fd_sc_hd__dfrtp_1
*I *2519:CLK I *D sky130_fd_sc_hd__dfrtp_1
*I *2450:CLK I *D sky130_fd_sc_hd__dfrtp_1
*I *2517:CLK I *D sky130_fd_sc_hd__dfrtp_1
*I *2455:CLK I *D sky130_fd_sc_hd__dfrtp_1
*I *2518:CLK I *D sky130_fd_sc_hd__dfrtp_1
*I *2520:CLK I *D sky130_fd_sc_hd__dfrtp_1
*I *2575:X O *D sky130_fd_sc_hd__clkbuf_8
*CAP
1 *2451:CLK 0.000218274
2 *2591:A 0
3 *2452:CLK 2.56208e-05
4 *2519:CLK 0
5 *2450:CLK 0.000152104
6 *2517:CLK 3.49615e-05
7 *2455:CLK 5.14653e-05
8 *2518:CLK 0
9 *2520:CLK 0.000165913
10 *2575:X 8.36191e-05
11 *720:63 0.000144633
12 *720:45 0.000187065
13 *720:43 0.000371489
14 *720:29 5.14653e-05
15 *720:16 0.000313797
16 *720:14 0.000454048
17 *720:10 0.000209055
18 *720:6 0.00045726
19 *2451:CLK *2453:D 0.000139238
20 *2451:CLK *2455:D 0
21 *2452:CLK *2519:RESET_B 1.83847e-05
22 *2455:CLK *855:58 7.35813e-05
23 *2520:CLK *2520:D 4.82863e-05
24 *2520:CLK *843:18 0
25 *2520:CLK *855:72 5.98203e-05
26 *720:10 *2625:A 0
27 *720:16 *837:18 0
28 *720:16 *843:18 0
29 *720:43 *2455:D 0
30 *720:63 *2519:RESET_B 0
31 *2091:A *2450:CLK 4.43682e-05
32 *2091:B *2450:CLK 2.16917e-05
33 *2091:B *2517:CLK 7.35729e-05
34 *2091:C *2450:CLK 2.39229e-05
35 *2091:C *720:63 4.05358e-05
36 *2450:D *2450:CLK 7.3343e-05
37 *2575:A *720:10 0.000122331
38 *2575:A *720:16 0
39 *2717:A *2520:CLK 3.09179e-05
40 *477:10 *720:63 0
41 *477:20 *2451:CLK 0
42 *477:20 *720:6 0.000237243
43 *477:20 *720:10 0.000237243
44 *477:20 *720:43 0
45 *477:20 *720:63 0
46 *478:12 *2451:CLK 0
47 *481:8 *2517:CLK 3.72916e-05
48 *717:383 *2520:CLK 0
49 *717:383 *720:16 0
*RES
1 *2575:X *720:6 3.775 
2 *720:6 *720:10 3.57 
3 *720:10 *720:14 2.795 
4 *720:14 *720:16 2.4 
5 *720:16 *2520:CLK 6.63 
6 *720:16 *720:29 2 
7 *720:29 *2518:CLK 1.6 
8 *720:29 *2455:CLK 2.74 
9 *720:14 *720:43 3.93 
10 *720:43 *720:45 2 
11 *720:45 *2517:CLK 2.74 
12 *720:45 *2450:CLK 4.76875 
13 *720:43 *720:63 4.145 
14 *720:63 *2519:CLK 1.6 
15 *720:63 *2452:CLK 2.05 
16 *720:10 *2591:A 1.6 
17 *720:6 *2451:CLK 9.32 
*END

*D_NET *721 0.00867753
*CONN
*I *2592:A I *D sky130_fd_sc_hd__clkbuf_8
*I *2441:CLK I *D sky130_fd_sc_hd__dfrtp_1
*I *2440:CLK I *D sky130_fd_sc_hd__dfrtp_1
*I *2439:CLK I *D sky130_fd_sc_hd__dfrtp_1
*I *2508:CLK I *D sky130_fd_sc_hd__dfrtp_1
*I *2563:CLK I *D sky130_fd_sc_hd__dfrtp_1
*I *2515:CLK I *D sky130_fd_sc_hd__dfrtp_1
*I *2503:CLK I *D sky130_fd_sc_hd__dfrtp_1
*I *2561:CLK I *D sky130_fd_sc_hd__dfrtp_2
*I *2562:CLK I *D sky130_fd_sc_hd__dfrtp_1
*I *2576:X O *D sky130_fd_sc_hd__clkbuf_8
*CAP
1 *2592:A 0.000353402
2 *2441:CLK 0
3 *2440:CLK 0.000107438
4 *2439:CLK 2.36002e-05
5 *2508:CLK 4.7631e-05
6 *2563:CLK 0.000287625
7 *2515:CLK 0
8 *2503:CLK 0.000885177
9 *2561:CLK 5.66328e-05
10 *2562:CLK 0.000234824
11 *2576:X 0
12 *721:96 0.000407031
13 *721:69 7.12312e-05
14 *721:18 0.000413949
15 *721:16 0.00105038
16 *721:14 8.64907e-05
17 *721:12 0.000425689
18 *721:10 0.00018077
19 *721:8 0.000279759
20 *721:4 0.000139461
21 *2503:CLK *2270:A1 1.76441e-05
22 *2503:CLK *2469:RESET_B 8.84753e-05
23 *2503:CLK *2503:RESET_B 0.000116497
24 *2503:CLK *814:112 0.000250798
25 *2503:CLK *824:202 3.1562e-06
26 *2562:CLK *824:202 0.000189426
27 *2563:CLK *805:10 0.000122337
28 *2592:A *858:36 0
29 *721:12 *2281:A2 6.05081e-05
30 *721:14 *2281:A2 0.000152127
31 *721:16 *2281:A2 0.000107627
32 *721:16 *2294:A1 3.98952e-05
33 *721:18 *2281:A2 4.93919e-05
34 *721:18 *2294:A1 1.75086e-05
35 *721:18 *824:202 0.000109009
36 *2203:A2 *721:8 2.92496e-05
37 *2203:A2 *721:10 0.000186099
38 *2203:A2 *721:12 0.000198272
39 *2203:A2 *721:14 0.000159964
40 *2203:A2 *721:16 9.50342e-06
41 *2206:B2 *721:10 0
42 *2206:B2 *721:12 0
43 *2271:B1 *2503:CLK 1.4237e-05
44 *2281:B1 *2563:CLK 8.40269e-05
45 *2430:B *721:18 0
46 *2440:D *2440:CLK 7.94673e-05
47 *2441:D *2592:A 4.85494e-05
48 *2441:D *721:96 6.97118e-05
49 *2503:D *2503:CLK 9.5101e-05
50 *2508:D *2439:CLK 3.57349e-05
51 *2508:D *2508:CLK 0.000124895
52 *2562:D *2562:CLK 0
53 *2562:D *721:18 0
54 *144:28 *2563:CLK 0.00069009
55 *565:45 *721:8 0
56 *566:46 *721:8 0.000128353
57 *566:59 *2440:CLK 4.66108e-05
58 *567:28 *721:8 0
59 *717:164 *2592:A 0.000257807
60 *717:164 *721:96 4.43682e-05
*RES
1 *2576:X *721:4 1.6 
2 *721:4 *721:8 3.89 
3 *721:8 *721:10 2.145 
4 *721:10 *721:12 2.4 
5 *721:12 *721:14 1.89 
6 *721:14 *721:16 1.38 
7 *721:16 *721:18 2.655 
8 *721:18 *2562:CLK 7.92 
9 *721:18 *2561:CLK 4.395 
10 *721:16 *2503:CLK 15.015 
11 *721:14 *2515:CLK 3.6 
12 *721:12 *2563:CLK 10.965 
13 *721:10 *721:69 2 
14 *721:69 *2508:CLK 2.74 
15 *721:69 *2439:CLK 2.05 
16 *721:8 *2440:CLK 5.775 
17 *721:4 *721:96 1.5 
18 *721:96 *2441:CLK 1.6 
19 *721:96 *2592:A 12.8 
*END

*D_NET *722 0.0105424
*CONN
*I *2443:CLK I *D sky130_fd_sc_hd__dfrtp_1
*I *2444:CLK I *D sky130_fd_sc_hd__dfrtp_1
*I *2567:CLK I *D sky130_fd_sc_hd__dfrtp_1
*I *2570:CLK I *D sky130_fd_sc_hd__dfrtp_1
*I *2568:CLK I *D sky130_fd_sc_hd__dfrtp_1
*I *2510:CLK I *D sky130_fd_sc_hd__dfrtp_1
*I *2446:CLK I *D sky130_fd_sc_hd__dfrtp_1
*I *2445:CLK I *D sky130_fd_sc_hd__dfrtp_1
*I *2474:CLK I *D sky130_fd_sc_hd__dfrtp_1
*I *2442:CLK I *D sky130_fd_sc_hd__dfrtp_1
*I *2593:A I *D sky130_fd_sc_hd__clkbuf_4
*I *2577:X O *D sky130_fd_sc_hd__clkbuf_8
*CAP
1 *2443:CLK 0.000106696
2 *2444:CLK 0.000156373
3 *2567:CLK 0
4 *2570:CLK 0.000317994
5 *2568:CLK 0
6 *2510:CLK 0
7 *2446:CLK 0
8 *2445:CLK 0.000431104
9 *2474:CLK 0
10 *2442:CLK 3.00379e-05
11 *2593:A 0
12 *2577:X 0
13 *722:88 0.000539276
14 *722:84 0.000726767
15 *722:80 0.000825295
16 *722:51 0.000894758
17 *722:36 0.000902051
18 *722:30 0.00133336
19 *722:12 7.33279e-05
20 *722:8 0.00101036
21 *722:6 0.000235544
22 *722:4 0.000106696
23 *2442:CLK *2510:RESET_B 0.000239813
24 *2444:CLK *858:60 0
25 *2445:CLK *2475:RESET_B 8.11272e-05
26 *2570:CLK *2437:A1 7.23533e-05
27 *2570:CLK *2570:D 9.50342e-06
28 *722:8 *858:50 0
29 *722:30 *2510:RESET_B 0.000486709
30 *722:36 *871:DIODE 2.16389e-05
31 *722:36 *2286:C 0.000114492
32 *722:36 *2289:A2 0
33 *722:36 *2474:RESET_B 0
34 *722:36 *814:84 2.68721e-05
35 *722:51 *2475:RESET_B 0.00014168
36 *722:80 *858:60 0
37 *722:88 *2567:D 5.39718e-05
38 *2201:A *722:51 0
39 *2217:A_N *2445:CLK 4.99619e-05
40 *2217:B *2445:CLK 1.12643e-05
41 *2218:A *722:36 0.000157619
42 *2218:B *722:36 0.000128029
43 *2218:B *722:51 9.387e-06
44 *2225:A1 *722:51 8.89673e-05
45 *2442:D *2442:CLK 0.000241483
46 *2443:D *722:80 0
47 *2443:D *722:84 9.65676e-05
48 *2444:D *2444:CLK 8.65961e-05
49 *2655:A *722:88 0
50 *2670:A *2570:CLK 0
51 *2711:A *722:36 0
52 *145:8 *722:51 8.83244e-05
53 *169:8 *2570:CLK 5.21545e-05
54 *169:14 *2570:CLK 7.08884e-05
55 *169:14 *722:88 4.18603e-06
56 *211:10 *722:51 6.44715e-05
57 *211:33 *722:36 2.17285e-05
58 *211:33 *722:51 0.000115046
59 *211:95 *2445:CLK 2.46089e-05
60 *219:14 *722:36 0.000211083
61 *219:22 *722:36 0
62 *566:29 *2444:CLK 0
63 *566:35 *722:8 0
64 *566:35 *722:12 0
65 *566:35 *722:80 0
66 *574:6 *2445:CLK 8.22163e-05
*RES
1 *2577:X *722:4 1.6 
2 *722:4 *722:6 2 
3 *722:6 *722:8 1.125 
4 *722:8 *722:12 2.615 
5 *722:12 *2593:A 1.6 
6 *722:12 *2442:CLK 3.775 
7 *722:8 *722:30 12.725 
8 *722:30 *722:36 11.06 
9 *722:36 *2474:CLK 3.6 
10 *722:36 *722:51 11.66 
11 *722:51 *2445:CLK 12.29 
12 *722:51 *2446:CLK 1.6 
13 *722:30 *2510:CLK 1.6 
14 *722:6 *722:80 2.655 
15 *722:80 *722:84 10.04 
16 *722:84 *722:88 5.93 
17 *722:88 *2568:CLK 3.6 
18 *722:88 *2570:CLK 9.45 
19 *722:84 *2567:CLK 1.6 
20 *722:80 *2444:CLK 6.285 
21 *722:4 *2443:CLK 3.1 
*END

*D_NET *723 0.0111314
*CONN
*I *2527:CLK I *D sky130_fd_sc_hd__dfrtp_1
*I *2528:CLK I *D sky130_fd_sc_hd__dfrtp_1
*I *2594:A I *D sky130_fd_sc_hd__clkbuf_4
*I *2565:CLK I *D sky130_fd_sc_hd__dfrtp_1
*I *2564:CLK I *D sky130_fd_sc_hd__dfrtp_1
*I *2447:CLK I *D sky130_fd_sc_hd__dfrtp_1
*I *2448:CLK I *D sky130_fd_sc_hd__dfrtp_1
*I *2449:CLK I *D sky130_fd_sc_hd__dfrtp_1
*I *2558:CLK I *D sky130_fd_sc_hd__dfrtp_1
*I *2559:CLK I *D sky130_fd_sc_hd__dfrtp_1
*I *2560:CLK I *D sky130_fd_sc_hd__dfrtp_1
*I *2578:X O *D sky130_fd_sc_hd__clkbuf_8
*CAP
1 *2527:CLK 0.00013299
2 *2528:CLK 0.000525397
3 *2594:A 0
4 *2565:CLK 0.000173047
5 *2564:CLK 5.45998e-05
6 *2447:CLK 7.60729e-05
7 *2448:CLK 0.000690918
8 *2449:CLK 0.000238153
9 *2558:CLK 0
10 *2559:CLK 5.48414e-05
11 *2560:CLK 0.000261487
12 *2578:X 0.000119828
13 *723:123 0.000786953
14 *723:92 0.000329423
15 *723:53 0.000929071
16 *723:51 0.000112732
17 *723:44 9.99841e-05
18 *723:18 0.000565836
19 *723:16 0.000596405
20 *723:12 0.000385348
21 *723:10 0.000207351
22 *723:6 0.000455745
23 *2447:CLK *2644:A 0.000105508
24 *2448:CLK *2448:RESET_B 1.23607e-05
25 *2448:CLK *859:31 3.54025e-05
26 *2448:CLK *859:43 7.3748e-05
27 *2448:CLK *862:37 3.864e-05
28 *2528:CLK *2231:A 3.46637e-05
29 *2528:CLK *2528:RESET_B 9.72041e-05
30 *2560:CLK *2644:A 3.96653e-05
31 *723:16 *859:53 0
32 *723:18 *2644:A 0.000301204
33 *723:44 *2644:A 9.66106e-05
34 *723:51 *2644:A 7.35729e-05
35 *723:123 *861:29 0
36 *911:DIODE *723:16 0
37 *911:DIODE *723:92 0
38 *2086:A *2449:CLK 4.66108e-05
39 *2096:B *2560:CLK 0
40 *2097:A_N *2560:CLK 5.36281e-05
41 *2099:A *2560:CLK 8.65961e-05
42 *2100:B *2560:CLK 0
43 *2112:A1 *2565:CLK 0.000132842
44 *2112:A2 *2565:CLK 5.83121e-06
45 *2112:B2 *2565:CLK 9.14049e-05
46 *2113:B2 *2527:CLK 6.36578e-05
47 *2113:B2 *2528:CLK 8.49205e-05
48 *2113:B2 *2564:CLK 2.49909e-05
49 *2113:B2 *2565:CLK 4.38051e-05
50 *2113:B2 *723:10 0
51 *2113:B2 *723:92 0.00013994
52 *2113:B2 *723:123 1.52184e-05
53 *2113:C1 *2565:CLK 8.40213e-05
54 *2113:C1 *723:16 0
55 *2113:C1 *723:92 0
56 *2114:C1 *2565:CLK 4.24292e-06
57 *2123:A_N *2447:CLK 7.40446e-05
58 *2123:A_N *723:51 4.82863e-05
59 *2124:B1 *2449:CLK 2.05056e-05
60 *2125:A2 *2448:CLK 7.44453e-05
61 *2125:A2 *2449:CLK 1.07797e-05
62 *2125:A2 *723:16 0
63 *2125:B1 *2449:CLK 4.82863e-05
64 *2231:B *2565:CLK 0.000120321
65 *2422:B *723:16 0.000120151
66 *2424:B *2559:CLK 8.71001e-05
67 *2429:A2 *2560:CLK 4.82919e-05
68 *2429:B1 *2560:CLK 0.000242067
69 *2430:B *2560:CLK 0.000461947
70 *2447:D *2447:CLK 2.49909e-05
71 *2558:D *2449:CLK 0
72 *2578:A *723:10 4.82919e-05
73 *2650:A *2564:CLK 5.83121e-06
74 *2650:A *2565:CLK 7.07801e-05
75 *2662:A *2448:CLK 0.000152328
76 *2699:A *723:16 0.000103192
77 *144:28 *723:6 7.99757e-05
78 *144:28 *723:10 0.000102049
79 *171:20 *2527:CLK 0
80 *196:50 *2449:CLK 7.71016e-05
81 *197:6 *2448:CLK 4.66108e-05
82 *197:16 *2449:CLK 8.40269e-05
83 *263:8 *2559:CLK 3.09233e-05
84 *263:45 *2559:CLK 0.000138544
85 *267:10 *2560:CLK 3.05295e-05
86 *269:66 *2449:CLK 0
87 *269:66 *723:16 5.61663e-05
88 *489:25 *2560:CLK 0
89 *717:164 *2565:CLK 2.04648e-05
90 *717:168 *2527:CLK 4.19884e-05
91 *717:168 *2565:CLK 0
92 *717:168 *723:92 0
93 *717:168 *723:123 7.88653e-05
94 *717:200 *2527:CLK 0
*RES
1 *2578:X *723:6 3.775 
2 *723:6 *723:10 3.57 
3 *723:10 *723:12 2 
4 *723:12 *723:16 8.225 
5 *723:16 *723:18 4.935 
6 *723:18 *2560:CLK 12.68 
7 *723:18 *2559:CLK 7.49 
8 *723:16 *723:44 1.485 
9 *723:44 *2558:CLK 1.6 
10 *723:44 *723:51 1.14 
11 *723:51 *723:53 2 
12 *723:53 *2449:CLK 8.025 
13 *723:53 *2448:CLK 14.355 
14 *723:51 *2447:CLK 3.43 
15 *723:12 *723:92 1.89 
16 *723:92 *2564:CLK 4.395 
17 *723:92 *2565:CLK 8.685 
18 *723:10 *2594:A 1.6 
19 *723:6 *723:123 4.4 
20 *723:123 *2528:CLK 10.185 
21 *723:123 *2527:CLK 5.775 
*END

*D_NET *724 0.0108618
*CONN
*I *2526:CLK I *D sky130_fd_sc_hd__dfstp_1
*I *2529:CLK I *D sky130_fd_sc_hd__dfrtp_1
*I *2530:CLK I *D sky130_fd_sc_hd__dfrtp_1
*I *2531:CLK I *D sky130_fd_sc_hd__dfrtp_1
*I *2532:CLK I *D sky130_fd_sc_hd__dfrtp_1
*I *2569:CLK I *D sky130_fd_sc_hd__dfrtp_1
*I *2533:CLK I *D sky130_fd_sc_hd__dfrtp_1
*I *2566:CLK I *D sky130_fd_sc_hd__dfrtp_1
*I *2595:A I *D sky130_fd_sc_hd__clkinv_2
*I *2579:X O *D sky130_fd_sc_hd__clkbuf_8
*CAP
1 *2526:CLK 0
2 *2529:CLK 0.000721961
3 *2530:CLK 0.000144089
4 *2531:CLK 0.00022648
5 *2532:CLK 4.98755e-05
6 *2569:CLK 0.000135839
7 *2533:CLK 0
8 *2566:CLK 0.000135887
9 *2595:A 7.18343e-05
10 *2579:X 1.89621e-05
11 *724:92 0.000932279
12 *724:68 0.00115423
13 *724:53 0.00114102
14 *724:42 0.000662842
15 *724:29 0.000974711
16 *724:25 0.000438174
17 *724:10 0.000217803
18 *724:6 9.62713e-05
19 *2566:CLK *2566:D 4.82863e-05
20 *2569:CLK *2119:A1 2.75229e-05
21 *724:6 *861:33 4.21973e-05
22 *724:6 *861:37 7.00889e-06
23 *724:10 *861:37 0.000131069
24 *724:42 *2119:A1 0
25 *724:53 *2119:A1 0
26 *724:68 *2532:RESET_B 3.21052e-05
27 gpio_oeb[27] *2531:CLK 0.000198813
28 *1970:A *724:25 5.23362e-05
29 *1970:A *724:29 2.49909e-05
30 *1970:A *724:42 0
31 *1970:A *724:92 4.08514e-05
32 *1971:A *2595:A 2.96383e-05
33 *1971:A *724:25 6.74234e-05
34 *1971:A *724:29 2.75145e-05
35 *2112:B1 *2595:A 2.75229e-05
36 *2114:A2 *2566:CLK 0
37 *2114:A2 *724:42 0
38 *2115:B1 *2566:CLK 6.44414e-05
39 *2115:B1 *724:42 4.50017e-05
40 *2116:A2 *724:42 0
41 *2116:B1 *724:42 7.5416e-05
42 *2116:C1 *724:42 7.63125e-05
43 *2117:B2 *724:42 0
44 *2119:B1 *724:42 0.000178314
45 *2119:B2 *724:42 9.3062e-06
46 *2235:A *2529:CLK 0.000209149
47 *2236:A *2530:CLK 0
48 *2236:B *2530:CLK 4.66108e-05
49 *2240:A *724:68 4.64851e-05
50 *2241:A *724:42 0
51 *2241:A *724:53 0
52 *2241:A *724:68 2.16917e-05
53 *2241:B *724:68 5.17188e-05
54 *2526:D *2530:CLK 0.000162325
55 *2526:D *2595:A 3.09164e-05
56 *2526:D *724:10 4.82919e-05
57 *2526:D *724:25 0.000227543
58 *2530:D *2530:CLK 1.4399e-05
59 *2533:D *724:53 0
60 *2691:A *2531:CLK 0.00011852
61 *2713:A *724:68 0.00016063
62 *171:10 *2595:A 0.000116151
63 *171:54 *2595:A 4.99619e-05
64 *174:25 *2529:CLK 1.60203e-05
65 *174:25 *724:92 7.00889e-06
66 *177:8 *724:68 0.000160635
67 *357:10 *724:42 0
68 *357:19 *724:42 0
69 *360:12 *724:42 0.000136877
70 *362:10 *2566:CLK 0.000133408
71 *362:10 *724:29 0.000239813
72 *580:12 *2529:CLK 0.000120655
73 *580:12 *2530:CLK 0.000139933
74 *580:27 *2530:CLK 2.07184e-05
75 *717:200 *2595:A 6.0236e-05
76 *717:200 *724:6 7.40446e-05
77 *717:200 *724:10 0.000119762
*RES
1 *2579:X *724:6 2.395 
2 *724:6 *724:10 4.175 
3 *724:10 *2595:A 6.195 
4 *724:10 *724:25 4.655 
5 *724:25 *724:29 5.9 
6 *724:29 *2566:CLK 6.39 
7 *724:29 *724:42 9.795 
8 *724:42 *2533:CLK 3.6 
9 *724:42 *724:53 3.89 
10 *724:53 *2569:CLK 3.775 
11 *724:53 *724:68 12.66 
12 *724:68 *2532:CLK 2.665 
13 *724:68 *2531:CLK 10.16 
14 *724:25 *724:92 0.795 
15 *724:92 *2530:CLK 8.99 
16 *724:92 *2529:CLK 10.6 
17 *724:6 *2526:CLK 1.6 
*END

*D_NET *725 0.0103326
*CONN
*I *2464:CLK I *D sky130_fd_sc_hd__dfrtp_2
*I *2462:CLK I *D sky130_fd_sc_hd__dfrtp_1
*I *2460:CLK I *D sky130_fd_sc_hd__dfrtp_1
*I *2494:CLK I *D sky130_fd_sc_hd__dfrtp_1
*I *2493:CLK I *D sky130_fd_sc_hd__dfrtp_1
*I *2459:CLK I *D sky130_fd_sc_hd__dfrtp_1
*I *2492:CLK I *D sky130_fd_sc_hd__dfrtp_1
*I *2590:A I *D sky130_fd_sc_hd__clkinv_2
*I *2458:CLK I *D sky130_fd_sc_hd__dfrtp_2
*I *2580:X O *D sky130_fd_sc_hd__clkbuf_8
*CAP
1 *2464:CLK 0.000831157
2 *2462:CLK 3.7107e-05
3 *2460:CLK 0.000374364
4 *2494:CLK 0
5 *2493:CLK 0
6 *2459:CLK 0.000233816
7 *2492:CLK 0
8 *2590:A 3.63983e-05
9 *2458:CLK 0.000170452
10 *2580:X 0.000177022
11 *725:95 0.00131636
12 *725:84 0.000983617
13 *725:73 0.000333831
14 *725:49 0.000518204
15 *725:45 0.000993409
16 *725:32 0.00062552
17 *725:21 0.000193857
18 *725:8 0.000415764
19 *2459:CLK *791:61 0
20 *2459:CLK *864:10 6.73751e-05
21 *2464:CLK *2462:RESET_B 4.20634e-05
22 *2464:CLK *791:47 0.00018263
23 *2464:CLK *850:44 0.00023468
24 *725:21 *2249:A3 2.97004e-06
25 *725:32 *2249:A3 4.19797e-05
26 *725:45 *2252:A1 4.43871e-06
27 *725:45 *2252:C1 7.47284e-05
28 *725:45 *828:68 1.52776e-05
29 *725:73 *791:61 0.000129678
30 *725:73 *846:18 0
31 *725:84 *791:55 0.00012541
32 *725:84 *791:61 4.49328e-05
33 *2135:C1 *2458:CLK 5.05521e-05
34 *2166:A_N *725:84 0.000208477
35 *2174:A *2464:CLK 2.30292e-05
36 *2249:A1 *2590:A 8.65961e-05
37 *2251:B1 *725:45 4.07637e-05
38 *2252:B2 *725:32 7.23602e-05
39 *2252:B2 *725:45 0.000182349
40 *2462:D *2464:CLK 4.66108e-05
41 *2464:D *2464:CLK 6.34213e-05
42 *2580:A *725:8 0.000313343
43 *108:25 *2458:CLK 2.42236e-05
44 *108:67 *2458:CLK 1.79098e-05
45 *115:6 *2458:CLK 2.75229e-05
46 *115:12 *2458:CLK 0.000139933
47 *115:51 *2458:CLK 0.000180398
48 *115:51 *725:21 0.000113909
49 *115:79 *2458:CLK 2.05056e-05
50 *116:50 *2458:CLK 0.000140248
51 *116:50 *725:21 0.000172735
52 *116:50 *725:32 0.000109009
53 *117:10 *725:84 0
54 *262:10 *725:45 3.03684e-05
55 *539:23 *725:32 0
56 *539:23 *725:45 0
57 *539:23 *725:73 0
58 *539:23 *725:84 0
59 *546:31 *2464:CLK 6.13413e-05
*RES
1 *2580:X *725:8 7.155 
2 *725:8 *2458:CLK 8.58 
3 *725:8 *725:21 2.145 
4 *725:21 *2590:A 4.395 
5 *725:21 *725:32 2.145 
6 *725:32 *2492:CLK 3.6 
7 *725:32 *725:45 9.59 
8 *725:45 *725:49 3.39 
9 *725:49 *2459:CLK 9.425 
10 *725:49 *2493:CLK 1.6 
11 *725:45 *725:73 5.675 
12 *725:73 *2494:CLK 3.6 
13 *725:73 *725:84 6.695 
14 *725:84 *2460:CLK 5.77 
15 *725:84 *725:95 4.59 
16 *725:95 *2462:CLK 2.215 
17 *725:95 *2464:CLK 12.43 
*END

*D_NET *726 0.00801784
*CONN
*I *2534:CLK I *D sky130_fd_sc_hd__dfrtp_1
*I *2546:CLK I *D sky130_fd_sc_hd__dfrtp_1
*I *2535:CLK I *D sky130_fd_sc_hd__dfrtp_1
*I *2543:CLK I *D sky130_fd_sc_hd__dfrtp_1
*I *2544:CLK I *D sky130_fd_sc_hd__dfrtp_1
*I *2542:CLK I *D sky130_fd_sc_hd__dfrtp_1
*I *2596:A I *D sky130_fd_sc_hd__clkinvlp_4
*I *2581:X O *D sky130_fd_sc_hd__clkbuf_8
*CAP
1 *2534:CLK 0
2 *2546:CLK 8.28727e-05
3 *2535:CLK 0
4 *2543:CLK 0
5 *2544:CLK 0.000443659
6 *2542:CLK 9.79255e-06
7 *2596:A 0.000174321
8 *2581:X 0
9 *726:62 0.000249899
10 *726:35 0.00053641
11 *726:31 0.000684988
12 *726:21 0.000884027
13 *726:17 0.000356877
14 *726:4 0.000416228
15 *2542:CLK *2363:A0 2.75145e-05
16 *2544:CLK *2363:A0 5.83121e-06
17 *2544:CLK *823:75 5.83121e-06
18 *2546:CLK *2535:RESET_B 2.96334e-05
19 *2546:CLK *847:96 7.35813e-05
20 *726:17 *2003:A 2.05583e-05
21 *726:17 *2328:A1 0.000115847
22 *726:17 *826:38 0
23 *726:17 *840:18 0.00047778
24 *726:17 *842:10 0
25 *726:21 *2328:A1 0.000119964
26 *726:21 *840:18 0.000163992
27 *726:21 *840:26 0.000139245
28 *726:31 *2366:C1 4.13879e-05
29 *726:31 *2535:RESET_B 3.50445e-06
30 *726:31 *826:48 8.99028e-05
31 *726:31 *826:50 0.000104457
32 *726:31 *826:56 6.92392e-05
33 *726:31 *840:26 0.000115779
34 *726:35 *2542:RESET_B 0
35 *726:35 *826:56 3.09233e-05
36 *726:62 *2535:RESET_B 0.000115378
37 *914:DIODE *726:17 0.000136877
38 *1981:B *2596:A 0.000119756
39 *1981:B *726:17 8.23457e-05
40 *2018:B2 *2596:A 2.63322e-05
41 *2071:B1 *726:31 4.11194e-05
42 *2331:A1 *726:21 6.55406e-05
43 *2359:A *726:31 0.000316118
44 *2359:B *726:31 1.86911e-05
45 *2364:B1 *2544:CLK 5.42552e-05
46 *2366:B1 *2544:CLK 0.000133592
47 *2366:B1 *726:31 0.000108531
48 *2366:B1 *726:35 6.55328e-05
49 *2366:B2 *726:31 0.000120186
50 *2542:D *726:35 0
51 *2543:D *726:35 1.73877e-05
52 *2700:A *2542:CLK 4.99619e-05
53 *2700:A *2544:CLK 0.000223016
54 *245:10 *726:35 0
55 *369:12 *726:17 4.9968e-05
56 *438:12 *726:31 8.97564e-05
57 *442:10 *726:31 0.000116158
58 *455:25 *726:31 0.000139245
59 *457:70 *726:21 2.42236e-05
60 *457:70 *726:31 0
61 *667:23 *726:31 0
62 *717:46 *726:17 2.07184e-05
63 *717:59 *2596:A 0.000337634
64 *717:59 *726:17 7.14699e-05
*RES
1 *2581:X *726:4 1.6 
2 *726:4 *2596:A 5.155 
3 *726:4 *726:17 9.53 
4 *726:17 *726:21 5.93 
5 *726:21 *726:31 17.33 
6 *726:31 *726:35 3.89 
7 *726:35 *2542:CLK 2.05 
8 *726:35 *2544:CLK 9.76 
9 *726:31 *2543:CLK 3.6 
10 *726:21 *726:62 2.865 
11 *726:62 *2535:CLK 1.6 
12 *726:62 *2546:CLK 3.43 
13 *726:17 *2534:CLK 3.6 
*END

*D_NET *727 0.0068336
*CONN
*I *2469:CLK I *D sky130_fd_sc_hd__dfrtp_1
*I *2465:CLK I *D sky130_fd_sc_hd__dfrtp_1
*I *2467:CLK I *D sky130_fd_sc_hd__dfrtp_2
*I *2466:CLK I *D sky130_fd_sc_hd__dfrtp_1
*I *2472:CLK I *D sky130_fd_sc_hd__dfrtp_1
*I *2597:A I *D sky130_fd_sc_hd__clkinv_4
*I *2582:X O *D sky130_fd_sc_hd__clkbuf_8
*CAP
1 *2469:CLK 0.000500665
2 *2465:CLK 0.000157831
3 *2467:CLK 9.55544e-05
4 *2466:CLK 0.000238595
5 *2472:CLK 0
6 *2597:A 9.51819e-05
7 *2582:X 0
8 *727:47 0.000253385
9 *727:34 0.000536291
10 *727:32 0.00113189
11 *727:21 0.000637937
12 *727:4 0.000399592
13 *2465:CLK *2179:C 0.00018587
14 *2465:CLK *2465:RESET_B 8.40213e-05
15 *2465:CLK *834:29 0
16 *2466:CLK *2179:C 8.95755e-05
17 *2469:CLK *2466:RESET_B 0.000119002
18 *2469:CLK *2467:RESET_B 2.40101e-05
19 *2469:CLK *852:36 0.000190906
20 *2597:A *819:18 0.000158066
21 *727:21 *1978:A_N 0.000136884
22 *727:21 *2621:A 0.000136884
23 *727:21 *819:18 0.000110539
24 *727:32 *1978:A_N 0.000103905
25 *727:32 *2465:RESET_B 1.15688e-05
26 *727:32 *2621:A 0.000157214
27 *727:32 *832:21 0
28 *727:34 *2465:RESET_B 1.38178e-05
29 *727:34 *2466:RESET_B 1.38178e-05
30 *2147:B2 *727:32 4.88568e-05
31 *2184:B1 *727:32 0.000185405
32 *2187:A_N *2469:CLK 4.66108e-05
33 *2187:B *2469:CLK 7.35813e-05
34 *2190:B *2469:CLK 0.000120655
35 *2466:D *2465:CLK 0
36 *2466:D *2467:CLK 2.16389e-05
37 *2467:D *2467:CLK 5.05167e-05
38 *2469:D *2469:CLK 4.66742e-05
39 *2582:A *727:21 1.16578e-05
40 *110:32 *727:32 6.82164e-05
41 *123:10 *727:32 0.000306058
42 *123:36 *727:32 0.000111378
43 *126:33 *2465:CLK 0
44 *126:33 *2467:CLK 0
45 *126:33 *727:32 0
46 *443:22 *727:32 1.07797e-05
47 *457:45 *727:32 3.97211e-05
48 *551:22 *2467:CLK 1.34103e-05
49 *551:44 *2469:CLK 9.54399e-05
*RES
1 *2582:X *727:4 1.6 
2 *727:4 *2597:A 3.445 
3 *727:4 *727:21 6.86 
4 *727:21 *2472:CLK 3.6 
5 *727:21 *727:32 10.775 
6 *727:32 *727:34 3.21 
7 *727:34 *2466:CLK 4.84 
8 *727:34 *727:47 2 
9 *727:47 *2467:CLK 5.43 
10 *727:47 *2465:CLK 7.05 
11 *727:32 *2469:CLK 14.885 
*END

*D_NET *728 0.0108265
*CONN
*I *2480:CLK I *D sky130_fd_sc_hd__dfrtp_1
*I *2479:CLK I *D sky130_fd_sc_hd__dfrtp_1
*I *2524:CLK I *D sky130_fd_sc_hd__dfrtp_1
*I *2498:CLK I *D sky130_fd_sc_hd__dfrtp_1
*I *2497:CLK I *D sky130_fd_sc_hd__dfrtp_1
*I *2463:CLK I *D sky130_fd_sc_hd__dfrtp_1
*I *2496:CLK I *D sky130_fd_sc_hd__dfrtp_1
*I *2495:CLK I *D sky130_fd_sc_hd__dfrtp_1
*I *2461:CLK I *D sky130_fd_sc_hd__dfrtp_2
*I *2481:CLK I *D sky130_fd_sc_hd__dfrtp_1
*I *2482:CLK I *D sky130_fd_sc_hd__dfrtp_1
*I *2583:X O *D sky130_fd_sc_hd__clkbuf_8
*CAP
1 *2480:CLK 3.96487e-05
2 *2479:CLK 0.000181487
3 *2524:CLK 0.000182866
4 *2498:CLK 0.000294296
5 *2497:CLK 0.000106143
6 *2463:CLK 0.000435621
7 *2496:CLK 3.55506e-05
8 *2495:CLK 0
9 *2461:CLK 0
10 *2481:CLK 7.89584e-05
11 *2482:CLK 0
12 *2583:X 0.000133026
13 *728:119 0.000668823
14 *728:90 0.000400439
15 *728:75 0.000496797
16 *728:73 0.000849679
17 *728:34 0.000290832
18 *728:28 0.000659231
19 *728:22 0.000762795
20 *728:16 0.000385241
21 *728:14 0.000895631
22 *728:10 0.000836454
23 *2463:CLK *2257:A2 0.000240183
24 *2463:CLK *822:50 0.000161418
25 *2463:CLK *850:88 0
26 *2463:CLK *850:115 0
27 *2479:CLK *2198:C 3.86607e-05
28 *2479:CLK *2480:D 3.70009e-05
29 *2479:CLK *2482:D 3.05295e-05
30 *2480:CLK *2480:D 3.00381e-05
31 *2481:CLK *864:10 0.000189426
32 *2497:CLK *2257:A1 1.14169e-05
33 *2497:CLK *2257:A2 8.76598e-05
34 *2524:CLK *2524:RESET_B 0
35 *2524:CLK *2635:A 5.05521e-05
36 *728:10 *2480:RESET_B 9.26907e-06
37 *728:10 *848:24 0
38 *728:10 *848:26 0
39 *728:14 *2482:RESET_B 0
40 *728:14 *848:24 0
41 *728:22 *2481:RESET_B 0.00016141
42 *728:22 *2482:RESET_B 3.84409e-05
43 *728:28 *2481:RESET_B 0.000105849
44 *728:34 *864:10 0.000339893
45 *728:73 *2257:A1 0.000234085
46 *728:119 *2480:D 2.66586e-05
47 gpio_oeb[13] *728:34 0
48 gpio_out[20] *728:34 5.62618e-05
49 *2174:B *2463:CLK 7.23602e-05
50 *2199:C *728:119 3.5434e-05
51 *2258:A2 *2463:CLK 3.76596e-05
52 *2258:A2 *2524:CLK 2.15594e-05
53 *2258:A2 *728:75 5.65627e-05
54 *2307:B *2524:CLK 5.83121e-06
55 *2313:A *728:10 8.40269e-05
56 *2314:B *728:10 8.40269e-05
57 *2324:A_N *728:119 0.000136284
58 *2324:C *728:10 2.03321e-05
59 *2324:D *728:10 9.30717e-05
60 *2463:D *2463:CLK 5.36384e-06
61 *2495:D *728:28 6.73751e-05
62 *2496:D *728:14 3.05373e-05
63 *2497:D *2463:CLK 7.89689e-05
64 *2497:D *2497:CLK 9.41541e-05
65 *2497:D *2498:CLK 4.80285e-05
66 *2497:D *728:75 2.86623e-05
67 *2672:A *728:73 2.05056e-05
68 *32:13 *2481:CLK 1.92979e-05
69 *118:61 *2463:CLK 9.50342e-06
70 *136:10 *728:10 0
71 *136:10 *728:14 0
72 *136:10 *728:16 5.35969e-06
73 *136:10 *728:22 2.3706e-05
74 *136:10 *728:73 1.81592e-05
75 *137:8 *728:22 9.5433e-05
76 *226:8 *2498:CLK 2.11084e-05
77 *626:10 *2524:CLK 3.09179e-05
*RES
1 *2583:X *728:10 6.795 
2 *728:10 *728:14 6.185 
3 *728:14 *728:16 0.45 
4 *728:16 *728:22 7.595 
5 *728:22 *728:28 9.77 
6 *728:28 *728:34 6.725 
7 *728:34 *2482:CLK 3.6 
8 *728:34 *2481:CLK 5.745 
9 *728:28 *2461:CLK 1.6 
10 *728:22 *2495:CLK 3.6 
11 *728:16 *2496:CLK 2.215 
12 *728:14 *728:73 9.005 
13 *728:73 *728:75 1.38 
14 *728:75 *2463:CLK 12.675 
15 *728:75 *728:90 2 
16 *728:90 *2497:CLK 4.12 
17 *728:90 *2498:CLK 6.19 
18 *728:73 *2524:CLK 7.05 
19 *728:10 *728:119 7.625 
20 *728:119 *2479:CLK 8.465 
21 *728:119 *2480:CLK 2.665 
*END

*D_NET *729 0.00827531
*CONN
*I *2490:CLK I *D sky130_fd_sc_hd__dfrtp_1
*I *2488:CLK I *D sky130_fd_sc_hd__dfrtp_1
*I *2487:CLK I *D sky130_fd_sc_hd__dfrtp_1
*I *2489:CLK I *D sky130_fd_sc_hd__dfrtp_1
*I *2486:CLK I *D sky130_fd_sc_hd__dfrtp_1
*I *2485:CLK I *D sky130_fd_sc_hd__dfrtp_1
*I *2484:CLK I *D sky130_fd_sc_hd__dfrtp_1
*I *2483:CLK I *D sky130_fd_sc_hd__dfrtp_1
*I *2598:A I *D sky130_fd_sc_hd__clkinv_2
*I *2584:X O *D sky130_fd_sc_hd__clkbuf_8
*CAP
1 *2490:CLK 0
2 *2488:CLK 0.000609713
3 *2487:CLK 2.7814e-05
4 *2489:CLK 1.88774e-05
5 *2486:CLK 0.000165289
6 *2485:CLK 3.69247e-05
7 *2484:CLK 3.17314e-05
8 *2483:CLK 0.00012171
9 *2598:A 0.000228958
10 *2584:X 0
11 *729:109 0.000712646
12 *729:92 0.00033368
13 *729:61 0.000224122
14 *729:37 0.000207321
15 *729:35 0.000752434
16 *729:27 0.000911218
17 *729:23 0.00110116
18 *729:6 0.000911489
19 *2483:CLK *2483:D 7.38274e-05
20 *2486:CLK *2483:D 0.000127416
21 *2486:CLK *738:10 0
22 *2487:CLK *2489:D 8.29874e-06
23 *2488:CLK *2488:D 7.35729e-05
24 *2488:CLK *2488:RESET_B 0.000312176
25 *729:23 *2489:RESET_B 1.10702e-05
26 *729:27 *2489:RESET_B 9.76407e-06
27 *729:27 *848:62 4.83506e-05
28 *729:35 *2485:D 1.4389e-05
29 *729:35 *2485:RESET_B 2.43941e-05
30 *729:35 *848:62 2.50702e-05
31 *729:37 *2483:D 6.36578e-05
32 *729:61 *2483:D 4.20983e-05
33 *729:92 *2489:D 0
34 *729:92 *848:46 0
35 *729:92 *848:70 9.08126e-05
36 *729:109 *2489:D 6.3172e-05
37 gpio_oeb[16] *2483:CLK 0
38 gpio_oeb[16] *729:37 0
39 *2102:D *2598:A 0.000106629
40 *2102:D *729:23 1.67072e-05
41 *2103:A *729:23 0
42 *2199:A *729:92 0
43 *2300:A *729:23 1.31828e-05
44 *2325:A3 *2598:A 4.8854e-05
45 *33:27 *2486:CLK 0
46 *35:13 *2486:CLK 8.68724e-05
47 *35:13 *729:37 3.12639e-05
48 *35:13 *729:61 3.76596e-05
49 *132:8 *2488:CLK 3.23663e-05
50 *133:39 *729:23 0.000266625
51 *134:14 *2598:A 7.36484e-05
52 *135:10 *2598:A 3.51072e-05
53 *139:10 *729:23 0
54 *141:22 *2488:CLK 0.000116388
55 *141:22 *729:109 2.68526e-05
*RES
1 *2584:X *729:6 3.6 
2 *729:6 *2598:A 8.325 
3 *729:6 *729:23 12.275 
4 *729:23 *729:27 2.88 
5 *729:27 *729:35 10.16 
6 *729:35 *729:37 1.38 
7 *729:37 *2483:CLK 6.3 
8 *729:37 *2484:CLK 4.05 
9 *729:35 *729:61 0.87 
10 *729:61 *2485:CLK 4.395 
11 *729:61 *2486:CLK 7.53 
12 *729:27 *2489:CLK 1.96 
13 *729:23 *729:92 5.4125 
14 *729:92 *2487:CLK 4.2075 
15 *729:92 *729:109 4.2875 
16 *729:109 *2488:CLK 11.32 
17 *729:109 *2490:CLK 1.6 
*END

*D_NET *730 0.00900773
*CONN
*I *2599:A I *D sky130_fd_sc_hd__clkbuf_8
*I *2513:CLK I *D sky130_fd_sc_hd__dfrtp_1
*I *2514:CLK I *D sky130_fd_sc_hd__dfrtp_4
*I *2509:CLK I *D sky130_fd_sc_hd__dfrtp_1
*I *2501:CLK I *D sky130_fd_sc_hd__dfrtp_1
*I *2500:CLK I *D sky130_fd_sc_hd__dfrtp_1
*I *2522:CLK I *D sky130_fd_sc_hd__dfrtp_1
*I *2499:CLK I *D sky130_fd_sc_hd__dfrtp_1
*I *2502:CLK I *D sky130_fd_sc_hd__dfrtp_1
*I *2468:CLK I *D sky130_fd_sc_hd__dfrtp_1
*I *2585:X O *D sky130_fd_sc_hd__clkbuf_8
*CAP
1 *2599:A 8.3842e-05
2 *2513:CLK 0.000179003
3 *2514:CLK 4.09502e-05
4 *2509:CLK 0.000450858
5 *2501:CLK 0
6 *2500:CLK 3.55506e-05
7 *2522:CLK 0.000259759
8 *2499:CLK 0
9 *2502:CLK 7.70912e-05
10 *2468:CLK 0.000258756
11 *2585:X 0
12 *730:104 0.000408209
13 *730:52 0.000852427
14 *730:46 0.000982101
15 *730:38 0.000550391
16 *730:14 0.000418473
17 *730:12 0.000338031
18 *730:10 0.000626675
19 *730:8 0.000284892
20 *730:6 0.000272385
21 *2468:CLK *791:23 4.66826e-05
22 *2468:CLK *822:30 5.06694e-05
23 *2468:CLK *841:14 0.000132875
24 *2502:CLK *2500:RESET_B 0.000237249
25 *2502:CLK *822:30 4.38278e-05
26 *2513:CLK *2513:RESET_B 2.65337e-05
27 *2513:CLK *851:19 0.000109101
28 *2513:CLK *851:23 5.10121e-05
29 *2599:A *2290:C 2.49909e-05
30 *2599:A *731:46 4.66108e-05
31 *2599:A *851:35 9.68787e-05
32 *730:8 *2292:A 1.1561e-05
33 *730:10 *2267:A1 0
34 *730:10 *2292:A 8.6099e-05
35 *730:12 *2292:A 0.00010141
36 *730:14 *2292:A 4.06585e-05
37 *730:14 *841:14 5.38577e-05
38 *730:38 *2265:A2 5.83121e-06
39 *730:38 *841:8 3.1835e-05
40 *730:38 *852:117 6.71882e-05
41 *730:46 *2263:A1 7.96116e-05
42 *730:46 *2265:A1 9.50342e-06
43 *730:46 *822:30 1.32843e-05
44 *730:52 *2261:A1 2.66935e-05
45 *730:52 *2263:A1 4.80182e-05
46 *730:52 *822:30 4.39911e-06
47 *730:52 *822:32 2.12949e-05
48 *730:52 *828:32 4.82863e-05
49 *730:52 *841:34 1.91597e-05
50 *730:104 *2522:RESET_B 9.37731e-05
51 *730:104 *851:35 6.26172e-05
52 *2186:A3 *2468:CLK 8.97564e-05
53 *2262:A2 *730:52 6.11198e-05
54 *2263:B1 *730:52 7.60965e-05
55 *2266:A2 *2468:CLK 0.000112097
56 *2266:A2 *730:14 2.59981e-05
57 *2266:B2 *2468:CLK 0
58 *2292:B *730:8 0
59 *2292:B *730:104 0
60 *2293:B1 *730:8 0
61 *2293:B1 *730:104 0
62 *2499:D *2522:CLK 0
63 *2499:D *730:52 0
64 *2500:D *730:46 4.82863e-05
65 *2501:D *730:38 3.07686e-05
66 *2513:D *2599:A 0
67 *2513:D *730:104 0
68 *2514:D *730:8 0
69 *2616:A *730:46 6.63558e-05
70 *2669:A *730:12 9.24127e-05
71 *2669:A *730:14 6.59161e-05
72 *2682:A *2468:CLK 4.82863e-05
73 *2684:A *2522:CLK 0
74 *109:75 *2468:CLK 0.000180405
75 *110:26 *2468:CLK 0
76 *126:33 *730:8 0
77 *126:33 *730:46 0.000134236
78 *127:10 *2522:CLK 0
79 *127:10 *730:52 0
80 *221:27 *2513:CLK 2.75229e-05
81 *221:27 *2599:A 0.000137571
*RES
1 *2585:X *730:6 3.6 
2 *730:6 *730:8 2.145 
3 *730:8 *730:10 1.89 
4 *730:10 *730:12 2.145 
5 *730:12 *730:14 2.145 
6 *730:14 *2468:CLK 10.62 
7 *730:14 *2502:CLK 5.775 
8 *730:12 *730:38 5.21 
9 *730:38 *730:46 9.19 
10 *730:46 *730:52 10.61 
11 *730:52 *2499:CLK 3.6 
12 *730:52 *2522:CLK 7.53 
13 *730:46 *2500:CLK 2.215 
14 *730:38 *2501:CLK 1.6 
15 *730:10 *2509:CLK 9.915 
16 *730:8 *2514:CLK 4.05 
17 *730:6 *730:104 2.955 
18 *730:104 *2513:CLK 7.5 
19 *730:104 *2599:A 6.195 
*END

*D_NET *731 0.0105168
*CONN
*I *2476:CLK I *D sky130_fd_sc_hd__dfrtp_1
*I *2478:CLK I *D sky130_fd_sc_hd__dfrtp_1
*I *2477:CLK I *D sky130_fd_sc_hd__dfrtp_1
*I *2475:CLK I *D sky130_fd_sc_hd__dfrtp_1
*I *2525:CLK I *D sky130_fd_sc_hd__dfrtp_1
*I *2521:CLK I *D sky130_fd_sc_hd__dfrtp_1
*I *2491:CLK I *D sky130_fd_sc_hd__dfrtp_1
*I *2523:CLK I *D sky130_fd_sc_hd__dfrtp_1
*I *2600:A I *D sky130_fd_sc_hd__clkbuf_4
*I *2512:CLK I *D sky130_fd_sc_hd__dfrtp_1
*I *2511:CLK I *D sky130_fd_sc_hd__dfrtp_1
*I *2586:X O *D sky130_fd_sc_hd__clkbuf_8
*CAP
1 *2476:CLK 0.000122006
2 *2478:CLK 0
3 *2477:CLK 0
4 *2475:CLK 0.00042721
5 *2525:CLK 0
6 *2521:CLK 3.55506e-05
7 *2491:CLK 1.96054e-05
8 *2523:CLK 0
9 *2600:A 0.000113738
10 *2512:CLK 0.000125446
11 *2511:CLK 0
12 *2586:X 0.00028048
13 *731:117 0.000527136
14 *731:111 0.000435247
15 *731:98 0.000409375
16 *731:46 0.000596961
17 *731:34 0.000888547
18 *731:24 0.000745744
19 *731:18 0.000797147
20 *731:10 0.000479958
21 *731:8 0.000585859
22 *2475:CLK *2490:RESET_B 0.000388784
23 *2512:CLK *2290:C 0.00016063
24 *731:18 *851:60 3.86607e-05
25 *731:18 *851:74 2.23407e-05
26 *731:24 *836:16 0
27 *731:34 *834:29 0.000278111
28 *731:46 *2290:C 0.000103432
29 *731:46 *2523:RESET_B 2.65337e-05
30 *731:46 *851:39 0.000269966
31 *731:46 *851:53 3.21052e-05
32 *731:111 *2477:RESET_B 0
33 *731:111 *2478:D 3.05267e-05
34 *919:DIODE *2512:CLK 0.000134516
35 *2101:B *731:24 2.16389e-05
36 *2109:A *731:24 9.50342e-06
37 *2221:A *2476:CLK 5.34747e-05
38 *2221:B *2476:CLK 2.75145e-05
39 *2221:B *731:98 0
40 *2221:B *731:111 0
41 *2225:A1 *2475:CLK 3.38041e-05
42 *2225:S *2475:CLK 5.69721e-05
43 *2320:B1 *731:24 0
44 *2325:A2 *731:24 5.54757e-05
45 *2325:A2 *731:34 0.000101409
46 *2476:D *2475:CLK 8.65961e-05
47 *2491:D *2491:CLK 3.74161e-05
48 *2491:D *731:24 0.000347922
49 *2511:D *2512:CLK 2.75229e-05
50 *2513:D *2512:CLK 9.14049e-05
51 *2521:D *731:18 0.000114026
52 *2525:D *731:111 6.63219e-06
53 *2571:A *2475:CLK 5.05521e-05
54 *2571:A *2476:CLK 1.34503e-05
55 *2571:A *731:111 6.69341e-05
56 *2571:A *731:117 0.000159964
57 *2586:A *731:46 0
58 *2599:A *731:46 4.66108e-05
59 *2622:A *731:34 9.50342e-06
60 *2624:A *731:24 0.000141592
61 *2688:A *731:46 0.00011964
62 *126:33 *731:46 5.05437e-05
63 *128:10 *731:24 5.93674e-05
64 *133:8 *731:18 6.28765e-05
65 *143:10 *731:24 0
66 *220:21 *731:98 7.06865e-05
67 *221:27 *2512:CLK 0
68 *221:48 *731:8 0
69 *498:8 *731:24 3.64998e-06
70 *577:12 *2476:CLK 4.99619e-05
71 *717:255 *2600:A 0.000163175
72 *717:255 *731:34 0.00030135
*RES
1 *2586:X *731:8 4.825 
2 *731:8 *731:10 1.14 
3 *731:10 *731:18 8.935 
4 *731:18 *731:24 11.18 
5 *731:24 *731:34 9.545 
6 *731:34 *731:46 14.305 
7 *731:46 *2511:CLK 1.6 
8 *731:46 *2512:CLK 9.08 
9 *731:34 *2600:A 4.12 
10 *731:24 *2523:CLK 3.6 
11 *731:18 *2491:CLK 2.05 
12 *731:10 *2521:CLK 2.215 
13 *731:8 *731:98 5.42 
14 *731:98 *2525:CLK 3.6 
15 *731:98 *731:111 5.885 
16 *731:111 *731:117 5.89 
17 *731:117 *2475:CLK 10.015 
18 *731:117 *2477:CLK 1.6 
19 *731:111 *2478:CLK 1.6 
20 *731:111 *2476:CLK 4.12 
*END

*D_NET *732 0.00763998
*CONN
*I *2549:CLK I *D sky130_fd_sc_hd__dfrtp_1
*I *2547:CLK I *D sky130_fd_sc_hd__dfrtp_1
*I *2601:A I *D sky130_fd_sc_hd__clkinvlp_4
*I *2550:CLK I *D sky130_fd_sc_hd__dfrtp_2
*I *2552:CLK I *D sky130_fd_sc_hd__dfrtp_1
*I *2545:CLK I *D sky130_fd_sc_hd__dfrtp_1
*I *2551:CLK I *D sky130_fd_sc_hd__dfrtp_2
*I *2587:X O *D sky130_fd_sc_hd__clkbuf_8
*CAP
1 *2549:CLK 0.000204712
2 *2547:CLK 0.000314364
3 *2601:A 0
4 *2550:CLK 3.37454e-05
5 *2552:CLK 0.000209175
6 *2545:CLK 1.90984e-05
7 *2551:CLK 0.000194343
8 *2587:X 2.85626e-05
9 *732:62 0.000365818
10 *732:58 0.000391301
11 *732:16 0.00032913
12 *732:14 0.000800005
13 *732:10 0.000865933
14 *732:8 0.000520745
15 *2547:CLK *2388:B1 2.09749e-05
16 *2549:CLK *2392:A2_N 7.73782e-05
17 *2549:CLK *2393:B1 9.67081e-06
18 *2549:CLK *825:160 4.57787e-05
19 *2551:CLK *2377:A2 7.35729e-05
20 *2551:CLK *2544:RESET_B 0
21 *2551:CLK *823:75 3.07153e-05
22 *2551:CLK *844:51 0
23 *2551:CLK *854:47 4.70919e-05
24 *732:10 *2396:C1 0
25 *732:10 *837:124 0
26 *732:14 *2400:A2 2.24992e-05
27 *732:14 *823:90 0
28 *732:14 *837:124 0
29 *732:16 *823:75 4.92604e-05
30 *732:58 *2393:B1 2.73058e-05
31 *732:62 *2393:B1 4.66108e-05
32 *1986:A *2549:CLK 4.76303e-05
33 *1986:A *732:58 7.9642e-06
34 *1986:A *732:62 1.46828e-05
35 *1991:A *2549:CLK 6.41825e-07
36 *1991:A *732:58 5.25963e-05
37 *1992:B *732:10 0.000121181
38 *1993:B1 *732:10 5.66618e-05
39 *2077:A_N *732:10 0
40 *2386:A1 *732:8 7.40446e-05
41 *2387:B1 *732:8 0.000120655
42 *2387:C1 *732:8 4.66108e-05
43 *2388:A2 *2547:CLK 7.50472e-05
44 *2388:A2 *732:62 8.82557e-05
45 *2389:B2 *2547:CLK 8.57024e-05
46 *2393:A3 *2549:CLK 3.97064e-05
47 *2393:A3 *732:62 8.40213e-05
48 *2394:A1 *732:14 9.37731e-05
49 *2396:B1 *732:10 0.00011852
50 *2399:A *732:14 5.16418e-05
51 *2399:B *732:14 0
52 *2401:A1 *2552:CLK 4.36241e-05
53 *2401:B1 *2552:CLK 7.49327e-05
54 *2401:B1 *732:14 0.000148975
55 *2401:B1 *732:16 0.00012657
56 *2403:A *2552:CLK 0.000158066
57 *2403:B *732:14 0
58 *2404:B1 *2552:CLK 4.66108e-05
59 *2545:D *2545:CLK 4.00541e-06
60 *2549:D *2549:CLK 5.83121e-06
61 *2550:D *732:14 0
62 *2551:D *2551:CLK 3.97377e-05
63 *2551:D *732:16 4.99619e-05
64 *250:63 *2547:CLK 8.65961e-05
65 *250:63 *732:62 3.96653e-05
66 *251:20 *2549:CLK 6.53876e-05
67 *253:26 *732:14 0
68 *255:8 *2552:CLK 3.00399e-05
69 *354:74 *2547:CLK 5.83121e-06
70 *376:104 *2549:CLK 2.88202e-05
71 *376:110 *732:10 0.000104643
72 *376:110 *732:58 2.16389e-05
73 *377:16 *732:58 7.07669e-05
74 *382:25 *732:10 4.94326e-05
75 *382:25 *732:58 1.07797e-05
76 *385:10 *2549:CLK 0.000114424
77 *467:18 *732:10 0
78 *467:22 *732:14 0.000162332
79 *468:8 *732:10 0.000147739
80 *468:8 *732:14 8.6099e-05
81 *688:22 *2547:CLK 1.03423e-05
*RES
1 *2587:X *732:8 4.74 
2 *732:8 *732:10 8.01 
3 *732:10 *732:14 11.795 
4 *732:14 *732:16 2.52 
5 *732:16 *2551:CLK 9.425 
6 *732:16 *2545:CLK 1.96 
7 *732:14 *2552:CLK 5.515 
8 *732:10 *2550:CLK 4.05 
9 *732:8 *732:58 2.655 
10 *732:58 *732:62 3.83 
11 *732:62 *2601:A 1.6 
12 *732:62 *2547:CLK 6.91 
13 *732:58 *2549:CLK 8.025 
*END

*D_NET *733 0.00897209
*CONN
*I *2505:CLK I *D sky130_fd_sc_hd__dfrtp_1
*I *2516:CLK I *D sky130_fd_sc_hd__dfstp_1
*I *2506:CLK I *D sky130_fd_sc_hd__dfrtp_1
*I *2548:CLK I *D sky130_fd_sc_hd__dfrtp_1
*I *2602:A I *D sky130_fd_sc_hd__clkinv_2
*I *2504:CLK I *D sky130_fd_sc_hd__dfrtp_1
*I *2470:CLK I *D sky130_fd_sc_hd__dfrtp_1
*I *2471:CLK I *D sky130_fd_sc_hd__dfrtp_1
*I *2507:CLK I *D sky130_fd_sc_hd__dfrtp_1
*I *2588:X O *D sky130_fd_sc_hd__clkbuf_8
*CAP
1 *2505:CLK 0.000220405
2 *2516:CLK 5.65037e-05
3 *2506:CLK 0
4 *2548:CLK 3.48064e-05
5 *2602:A 0
6 *2504:CLK 0.000244247
7 *2470:CLK 0.000144332
8 *2471:CLK 2.18338e-05
9 *2507:CLK 0.000130873
10 *2588:X 0
11 *733:87 0.000498365
12 *733:78 0.000387996
13 *733:60 0.000108972
14 *733:32 0.000607363
15 *733:21 0.000542186
16 *733:8 0.000738755
17 *733:6 0.000592211
18 *733:4 0.000378271
19 *2505:CLK *2246:A2 0
20 *2505:CLK *854:106 9.53484e-05
21 *2505:CLK *856:55 8.33359e-05
22 *2507:CLK *847:214 1.33293e-05
23 *2516:CLK *845:30 0.000278117
24 *2548:CLK *2247:A 6.71882e-05
25 *2548:CLK *826:22 0.000122331
26 *2548:CLK *837:48 5.83121e-06
27 *733:21 *932:DIODE 0.000241327
28 *733:21 *2195:A 8.26814e-05
29 *733:21 *821:16 0
30 *733:21 *847:214 3.09233e-05
31 *733:21 *854:112 0
32 *733:60 *2278:A1 0
33 *733:78 *2392:A2_N 0.000315845
34 *733:78 *824:202 0.000122279
35 *733:87 *2392:A2_N 9.50342e-06
36 *733:87 *2506:RESET_B 7.44453e-05
37 *733:87 *824:202 1.74429e-05
38 *733:87 *837:48 0
39 *733:87 *854:106 8.2668e-05
40 *2152:B2 *733:21 7.1009e-05
41 *2152:B2 *733:32 0.000316192
42 *2156:B1 *733:32 4.04277e-05
43 *2191:B *2470:CLK 5.61451e-05
44 *2191:B *733:32 0
45 *2192:A *2470:CLK 4.00541e-06
46 *2248:A *2507:CLK 7.08206e-05
47 *2248:A *733:8 0.000166919
48 *2277:B1 *2516:CLK 0.000140145
49 *2277:B1 *733:87 0
50 *2470:D *733:32 4.40812e-05
51 *2471:D *2471:CLK 7.08278e-05
52 *2505:D *2505:CLK 5.02217e-05
53 *2588:A *733:6 4.82919e-05
54 *2604:A *2504:CLK 0.000137578
55 *2604:A *733:32 0.000429843
56 *2634:A *2504:CLK 0
57 *112:52 *2470:CLK 6.88676e-05
58 *113:12 *2471:CLK 0.00012032
59 *250:27 *733:6 2.40822e-05
60 *250:27 *733:8 5.17287e-05
61 *376:104 *733:87 0
62 *677:22 *733:6 0.000233004
63 *677:22 *733:78 0.000114024
64 *717:12 *2504:CLK 4.66108e-05
65 *717:324 *2504:CLK 6.77501e-05
66 *717:335 *2504:CLK 0.000111901
67 *717:335 *733:60 0.000137578
*RES
1 *2588:X *733:4 1.6 
2 *733:4 *733:6 3.555 
3 *733:6 *733:8 5.28 
4 *733:8 *2507:CLK 3.79 
5 *733:8 *733:21 7.97 
6 *733:21 *2471:CLK 4.69875 
7 *733:21 *733:32 6.48 
8 *733:32 *2470:CLK 6.135 
9 *733:32 *2504:CLK 8.445 
10 *733:6 *733:60 5.635 
11 *733:60 *2602:A 1.6 
12 *733:60 *2548:CLK 2.74 
13 *733:4 *733:78 6.815 
14 *733:78 *2506:CLK 3.6 
15 *733:78 *733:87 4.185 
16 *733:87 *2516:CLK 6.12 
17 *733:87 *2505:CLK 8.04 
*END

*D_NET *734 0.00024291
*CONN
*I *2242:B I *D sky130_fd_sc_hd__and2_1
*I *2719:X O *D sky130_fd_sc_hd__clkbuf_1
*CAP
1 *2242:B 6.13619e-05
2 *2719:X 6.13619e-05
3 *2242:B *2242:A 0.000120186
4 *2242:B *2528:RESET_B 0
5 *2242:B *861:10 0
*RES
1 *2719:X *2242:B 8.58 
*END

*D_NET *735 0.00444252
*CONN
*I *2198:D I *D sky130_fd_sc_hd__or4_1
*I *2481:D I *D sky130_fd_sc_hd__dfrtp_1
*I *2720:X O *D sky130_fd_sc_hd__clkbuf_1
*CAP
1 *2198:D 9.39707e-05
2 *2481:D 3.99824e-05
3 *2720:X 0.000720007
4 *735:8 0.00085396
5 *2198:D *2198:B 0.000160651
6 *2198:D *2198:C 0.000107627
7 *2198:D *2482:D 0.000204463
8 *2198:D *864:10 0.000109016
9 *2198:D *865:12 4.18603e-06
10 *735:8 *2167:B1 0
11 *735:8 *2482:D 0.000210839
12 *735:8 *791:55 0
13 *735:8 *791:61 0
14 *735:8 *864:10 0.00177858
15 *2168:A2 *735:8 0
16 *2460:D *735:8 4.91189e-05
17 *2461:D *735:8 7.96171e-05
18 *2493:D *735:8 0
19 *30:13 *2198:D 3.04982e-05
*RES
1 *2720:X *735:8 23.85 
2 *735:8 *2481:D 4.05 
3 *735:8 *2198:D 7.53 
*END

*D_NET *736 0.00115444
*CONN
*I *2198:C I *D sky130_fd_sc_hd__or4_1
*I *2482:D I *D sky130_fd_sc_hd__dfrtp_1
*I *2721:X O *D sky130_fd_sc_hd__clkbuf_1
*CAP
1 *2198:C 4.58001e-05
2 *2482:D 0.000185933
3 *2721:X 4.16082e-05
4 *736:8 0.000273341
5 *934:DIODE *736:8 1.56428e-05
6 *2198:D *2198:C 0.000107627
7 *2198:D *2482:D 0.000204463
8 *2479:CLK *2198:C 3.86607e-05
9 *2479:CLK *2482:D 3.05295e-05
10 *735:8 *2482:D 0.000210839
*RES
1 *2721:X *736:8 4.05 
2 *736:8 *2482:D 8.295 
3 *736:8 *2198:C 4.98 
*END

*D_NET *737 0.00173579
*CONN
*I *2197:B I *D sky130_fd_sc_hd__or4_1
*I *2483:D I *D sky130_fd_sc_hd__dfrtp_1
*I *2722:X O *D sky130_fd_sc_hd__clkbuf_1
*CAP
1 *2197:B 0
2 *2483:D 0.000306034
3 *2722:X 0.000147819
4 *737:10 0.000453853
5 *2483:D *2484:D 8.69126e-05
6 *2483:D *2485:D 6.55328e-05
7 *2483:D *738:10 2.46007e-05
8 *936:DIODE *737:10 0
9 *2199:B *737:10 4.99619e-05
10 *2483:CLK *2483:D 7.38274e-05
11 *2486:CLK *2483:D 0.000127416
12 *33:27 *2483:D 7.04759e-05
13 *33:27 *737:10 0.0002236
14 *729:37 *2483:D 6.36578e-05
15 *729:61 *2483:D 4.20983e-05
*RES
1 *2722:X *737:10 4.24 
2 *737:10 *2483:D 12.875 
3 *737:10 *2197:B 1.6 
*END

*D_NET *738 0.00151208
*CONN
*I *2197:A I *D sky130_fd_sc_hd__or4_1
*I *2484:D I *D sky130_fd_sc_hd__dfrtp_1
*I *2723:X O *D sky130_fd_sc_hd__clkbuf_1
*CAP
1 *2197:A 3.90531e-05
2 *2484:D 0.000217763
3 *2723:X 0.000187616
4 *738:10 0.000444432
5 *2484:D *2485:D 0.00011686
6 *738:10 *2197:C 0.000206116
7 *738:10 *758:10 8.5242e-05
8 *2483:D *2484:D 8.69126e-05
9 *2483:D *738:10 2.46007e-05
10 *2486:CLK *738:10 0
11 *33:27 *2197:A 5.5201e-05
12 *36:13 *738:10 4.82863e-05
*RES
1 *2723:X *738:10 7.725 
2 *738:10 *2484:D 7.98 
3 *738:10 *2197:A 4.395 
*END

*D_NET *739 0.000608472
*CONN
*I *2433:A1 I *D sky130_fd_sc_hd__mux2_1
*I *2648:X O *D sky130_fd_sc_hd__dlygate4sd3_1
*CAP
1 *2433:A1 0.000103901
2 *2648:X 0.000103901
3 *2433:A0 *2433:A1 0.000164874
4 *2648:A *2433:A1 0
5 *2692:A *2433:A1 0.000116165
6 *717:164 *2433:A1 0.000119631
*RES
1 *2648:X *2433:A1 10.41 
*END

*D_NET *740 0.000507576
*CONN
*I *2565:D I *D sky130_fd_sc_hd__dfrtp_1
*I *2659:X O *D sky130_fd_sc_hd__dlygate4sd3_1
*CAP
1 *2565:D 0.000110059
2 *2659:X 0.000110059
3 *2113:A1 *2565:D 8.53113e-06
4 *2114:B1 *2565:D 0.000116165
5 *2659:A *2565:D 0.000162762
*RES
1 *2659:X *2565:D 9.375 
*END

*D_NET *741 0.000386039
*CONN
*I *2437:A1 I *D sky130_fd_sc_hd__mux2_1
*I *2670:X O *D sky130_fd_sc_hd__dlygate4sd3_1
*CAP
1 *2437:A1 0.000138612
2 *2670:X 0.000138612
3 *2438:S *2437:A1 1.1392e-05
4 *2570:CLK *2437:A1 7.23533e-05
5 *2670:A *2437:A1 0
6 *489:65 *2437:A1 2.50702e-05
*RES
1 *2670:X *2437:A1 9.21 
*END

*D_NET *742 0.000261476
*CONN
*I *2569:D I *D sky130_fd_sc_hd__dfrtp_1
*I *2681:X O *D sky130_fd_sc_hd__dlygate4sd3_1
*CAP
1 *2569:D 0.000106595
2 *2681:X 0.000106595
3 *2569:D *2569:RESET_B 0
4 *2681:A *2569:D 0
5 *170:23 *2569:D 4.82863e-05
*RES
1 *2681:X *2569:D 8.775 
*END

*D_NET *743 0.000591131
*CONN
*I *2432:A1 I *D sky130_fd_sc_hd__mux2_1
*I *2692:X O *D sky130_fd_sc_hd__dlygate4sd3_1
*CAP
1 *2432:A1 0.000247167
2 *2692:X 0.000247167
3 *2432:A1 *2431:A1 8.8266e-05
4 *2432:A1 *2565:RESET_B 0
5 *2112:B2 *2432:A1 8.53113e-06
6 *2113:A2 *2432:A1 0
7 *489:40 *2432:A1 0
*RES
1 *2692:X *2432:A1 10.905 
*END

*D_NET *744 0.000509261
*CONN
*I *2564:D I *D sky130_fd_sc_hd__dfrtp_1
*I *2703:X O *D sky130_fd_sc_hd__dlygate4sd3_1
*CAP
1 *2564:D 9.41083e-05
2 *2703:X 9.41083e-05
3 *2113:A1 *2564:D 0.000120186
4 *2113:C1 *2564:D 0.000118513
5 *2703:A *2564:D 8.23457e-05
*RES
1 *2703:X *2564:D 9.375 
*END

*D_NET *745 0.00145452
*CONN
*I *2085:A1 I *D sky130_fd_sc_hd__a21o_1
*I *2243:B1 I *D sky130_fd_sc_hd__o21a_1
*I *2714:X O *D sky130_fd_sc_hd__dlygate4sd3_1
*CAP
1 *2085:A1 0.000123026
2 *2243:B1 0.000104761
3 *2714:X 0.000111496
4 *745:8 0.000339283
5 *2085:A1 *923:DIODE 7.00115e-05
6 *2085:A1 *844:8 0.000101629
7 *2243:B1 *2420:A2 1.7635e-05
8 *2243:B1 *844:8 4.97258e-05
9 *2243:B1 *854:12 0
10 *745:8 *2549:RESET_B 6.83629e-05
11 *2084:A *745:8 2.75229e-05
12 *2084:B *2243:B1 1.65105e-05
13 *2085:A2 *2085:A1 0.000242068
14 *2085:A2 *745:8 8.57024e-05
15 *2717:A *2085:A1 1.15688e-05
16 *2717:A *2243:B1 8.52172e-05
*RES
1 *2714:X *745:8 5.775 
2 *745:8 *2243:B1 6 
3 *745:8 *2085:A1 6.765 
*END

*D_NET *746 0.000260213
*CONN
*I *2520:D I *D sky130_fd_sc_hd__dfrtp_1
*I *2717:X O *D sky130_fd_sc_hd__dlygate4sd3_1
*CAP
1 *2520:D 5.892e-05
2 *2717:X 5.892e-05
3 *2520:CLK *2520:D 4.82863e-05
4 *2717:A *2520:D 9.4087e-05
*RES
1 *2717:X *2520:D 4.685 
*END

*D_NET *747 0.000596718
*CONN
*I *2197:D I *D sky130_fd_sc_hd__or4_1
*I *2485:D I *D sky130_fd_sc_hd__dfrtp_1
*I *2724:X O *D sky130_fd_sc_hd__clkbuf_1
*CAP
1 *2197:D 0
2 *2485:D 6.85988e-05
3 *2724:X 8.96552e-05
4 *747:8 0.000158254
5 *937:DIODE *747:8 4.82863e-05
6 *2483:D *2485:D 6.55328e-05
7 *2484:D *2485:D 0.00011686
8 *33:27 *747:8 3.5142e-05
9 *729:35 *2485:D 1.4389e-05
*RES
1 *2724:X *747:8 3.1 
2 *747:8 *2485:D 7.43 
3 *747:8 *2197:D 1.6 
*END

*D_NET *748 0.00077408
*CONN
*I *2438:A1 I *D sky130_fd_sc_hd__mux2_1
*I *2718:X O *D sky130_fd_sc_hd__dlygate4sd3_1
*CAP
1 *2438:A1 0.000246348
2 *2718:X 0.000246348
3 *2718:A *2438:A1 5.83121e-06
4 *170:12 *2438:A1 0.000275553
*RES
1 *2718:X *2438:A1 6.41 
*END

*D_NET *749 0.000526371
*CONN
*I *2570:D I *D sky130_fd_sc_hd__dfrtp_1
*I *2649:X O *D sky130_fd_sc_hd__dlygate4sd3_1
*CAP
1 *2570:D 0.000176831
2 *2649:X 0.000176831
3 *2438:S *2570:D 0
4 *2570:CLK *2570:D 9.50342e-06
5 *170:23 *2570:D 0.000163204
*RES
1 *2649:X *2570:D 9.81 
*END

*D_NET *750 0.00107519
*CONN
*I *2431:A1 I *D sky130_fd_sc_hd__mux2_1
*I *2650:X O *D sky130_fd_sc_hd__dlygate4sd3_1
*CAP
1 *2431:A1 0.000141459
2 *2650:X 0.000141459
3 *2112:B2 *2431:A1 0.0001249
4 *2431:A0 *2431:A1 0.000291898
5 *2432:A1 *2431:A1 8.8266e-05
6 *2692:A *2431:A1 8.8266e-05
7 *164:19 *2431:A1 0.000198945
*RES
1 *2650:X *2431:A1 7.79 
*END

*D_NET *751 0.000407322
*CONN
*I *2563:D I *D sky130_fd_sc_hd__dfrtp_1
*I *2651:X O *D sky130_fd_sc_hd__dlygate4sd3_1
*CAP
1 *2563:D 9.44546e-05
2 *2651:X 9.44546e-05
3 *2563:D *858:19 3.89528e-05
4 *2650:A *2563:D 8.40269e-05
5 *489:25 *2563:D 9.5433e-05
*RES
1 *2651:X *2563:D 9.12 
*END

*D_NET *752 0.000325925
*CONN
*I *2436:A1 I *D sky130_fd_sc_hd__mux2_1
*I *2652:X O *D sky130_fd_sc_hd__dlygate4sd3_1
*CAP
1 *2436:A1 0.00012374
2 *2652:X 0.00012374
3 *2436:A0 *2436:A1 6.97118e-05
4 *2652:A *2436:A1 8.73389e-06
*RES
1 *2652:X *2436:A1 4.685 
*END

*D_NET *753 0.000775937
*CONN
*I *2568:D I *D sky130_fd_sc_hd__dfrtp_1
*I *2653:X O *D sky130_fd_sc_hd__dlygate4sd3_1
*CAP
1 *2568:D 0.000279692
2 *2653:X 0.000279692
3 *2653:A *2568:D 5.83121e-06
4 *169:14 *2568:D 0.000122002
5 *489:65 *2568:D 8.87196e-05
*RES
1 *2653:X *2568:D 11.295 
*END

*D_NET *754 0.000442094
*CONN
*I *2435:A1 I *D sky130_fd_sc_hd__mux2_1
*I *2654:X O *D sky130_fd_sc_hd__dlygate4sd3_1
*CAP
1 *2435:A1 0.000149353
2 *2654:X 0.000149353
3 *2435:A0 *2435:A1 4.99619e-05
4 *2655:A *2435:A1 3.07153e-05
5 *489:53 *2435:A1 6.27114e-05
*RES
1 *2654:X *2435:A1 5.72 
*END

*D_NET *755 0.000228368
*CONN
*I *2567:D I *D sky130_fd_sc_hd__dfrtp_1
*I *2655:X O *D sky130_fd_sc_hd__dlygate4sd3_1
*CAP
1 *2567:D 8.71981e-05
2 *2655:X 8.71981e-05
3 *2655:A *2567:D 0
4 *722:88 *2567:D 5.39718e-05
*RES
1 *2655:X *2567:D 8.775 
*END

*D_NET *756 0.00034317
*CONN
*I *2434:A1 I *D sky130_fd_sc_hd__mux2_1
*I *2656:X O *D sky130_fd_sc_hd__dlygate4sd3_1
*CAP
1 *2434:A1 0.000171585
2 *2656:X 0.000171585
*RES
1 *2656:X *2434:A1 5.03 
*END

*D_NET *757 0.000253701
*CONN
*I *2566:D I *D sky130_fd_sc_hd__dfrtp_1
*I *2657:X O *D sky130_fd_sc_hd__dlygate4sd3_1
*CAP
1 *2566:D 7.59538e-05
2 *2657:X 7.59538e-05
3 *2566:D *2566:RESET_B 2.75145e-05
4 *2115:B1 *2566:D 2.59926e-05
5 *2566:CLK *2566:D 4.82863e-05
*RES
1 *2657:X *2566:D 4.685 
*END

*D_NET *758 0.0010781
*CONN
*I *2486:D I *D sky130_fd_sc_hd__dfrtp_1
*I *2197:C I *D sky130_fd_sc_hd__or4_1
*I *2725:X O *D sky130_fd_sc_hd__clkbuf_1
*CAP
1 *2486:D 9.17014e-05
2 *2197:C 0.000105913
3 *2725:X 0.000133308
4 *758:10 0.000330922
5 *936:DIODE *2197:C 0
6 *936:DIODE *758:10 0
7 *36:13 *758:10 0.0001249
8 *738:10 *2197:C 0.000206116
9 *738:10 *758:10 8.5242e-05
*RES
1 *2725:X *758:10 5.865 
2 *758:10 *2197:C 6 
3 *758:10 *2486:D 4.74 
*END

*D_NET *759 0.00026139
*CONN
*I *2249:B2 I *D sky130_fd_sc_hd__a32o_1
*I *2658:X O *D sky130_fd_sc_hd__dlygate4sd3_1
*CAP
1 *2249:B2 2.37507e-05
2 *2658:X 2.37507e-05
3 *2249:B2 *2249:B1 0.000122801
4 *913:DIODE *2249:B2 4.89295e-05
5 *395:12 *2249:B2 4.21579e-05
*RES
1 *2658:X *2249:B2 4.34 
*END

*D_NET *760 0.00126238
*CONN
*I *2131:A1 I *D sky130_fd_sc_hd__a21oi_1
*I *2660:X O *D sky130_fd_sc_hd__dlygate4sd3_1
*CAP
1 *2131:A1 0.000220444
2 *2660:X 0.000220444
3 *2131:A1 *2451:RESET_B 0.000254637
4 *2131:A1 *2642:A 5.30057e-05
5 *2131:A1 *855:8 9.37731e-05
6 *2088:A *2131:A1 0
7 *2132:A2 *2131:A1 0.000122325
8 *2661:A *2131:A1 0.000297747
*RES
1 *2660:X *2131:A1 13.29 
*END

*D_NET *761 0.000879153
*CONN
*I *2451:D I *D sky130_fd_sc_hd__dfrtp_1
*I *2661:X O *D sky130_fd_sc_hd__dlygate4sd3_1
*CAP
1 *2451:D 0.000292807
2 *2661:X 0.000292807
3 *2451:D *2450:RESET_B 1.5913e-05
4 *2451:D *855:19 4.7101e-05
5 *2451:D *855:31 2.56999e-05
6 *2451:D *855:33 0.000141606
7 *2088:A *2451:D 3.26822e-05
8 *200:10 *2451:D 3.05373e-05
*RES
1 *2661:X *2451:D 12.495 
*END

*D_NET *762 0.000832891
*CONN
*I *2125:A1 I *D sky130_fd_sc_hd__a21oi_1
*I *2662:X O *D sky130_fd_sc_hd__dlygate4sd3_1
*CAP
1 *2125:A1 0.00018017
2 *2662:X 0.00018017
3 *2125:A1 *2448:D 8.57024e-05
4 *2125:A2 *2125:A1 4.99619e-05
5 *2662:A *2125:A1 0.000313857
6 *2663:A *2125:A1 2.30292e-05
*RES
1 *2662:X *2125:A1 7.1 
*END

*D_NET *763 0.000672118
*CONN
*I *2448:D I *D sky130_fd_sc_hd__dfrtp_1
*I *2663:X O *D sky130_fd_sc_hd__dlygate4sd3_1
*CAP
1 *2448:D 0.000193503
2 *2663:X 0.000193503
3 *2448:D *2642:A 0
4 *2448:D *859:8 9.14049e-05
5 *2448:D *859:10 8.53113e-06
6 *2448:D *861:10 3.67779e-05
7 *2125:A1 *2448:D 8.57024e-05
8 *2662:A *2448:D 6.26945e-05
9 *2:13 *2448:D 0
*RES
1 *2663:X *2448:D 10.155 
*END

*D_NET *764 0.00126044
*CONN
*I *2261:A1 I *D sky130_fd_sc_hd__o21a_1
*I *2664:X O *D sky130_fd_sc_hd__dlygate4sd3_1
*CAP
1 *2261:A1 0.000426173
2 *2664:X 0.000426173
3 *2261:A1 *2262:C1 9.50342e-06
4 *2261:A1 *2498:RESET_B 0.000307135
5 *2261:A1 *828:30 0
6 *2262:A2 *2261:A1 0
7 *127:10 *2261:A1 6.47594e-05
8 *730:52 *2261:A1 2.66935e-05
*RES
1 *2664:X *2261:A1 13.17 
*END

*D_NET *765 0.00019703
*CONN
*I *2273:A1 I *D sky130_fd_sc_hd__o21a_1
*I *2665:X O *D sky130_fd_sc_hd__dlygate4sd3_1
*CAP
1 *2273:A1 9.8515e-05
2 *2665:X 9.8515e-05
*RES
1 *2665:X *2273:A1 4.685 
*END

*D_NET *766 0.000499382
*CONN
*I *2271:A1 I *D sky130_fd_sc_hd__o21a_1
*I *2666:X O *D sky130_fd_sc_hd__dlygate4sd3_1
*CAP
1 *2271:A1 0.000226169
2 *2666:X 0.000226169
3 *2271:A1 *824:202 0
4 *2272:A2 *2271:A1 4.7043e-05
*RES
1 *2666:X *2271:A1 10.755 
*END

*D_NET *767 0.000831438
*CONN
*I *2259:A1 I *D sky130_fd_sc_hd__o21a_1
*I *2667:X O *D sky130_fd_sc_hd__dlygate4sd3_1
*CAP
1 *2259:A1 0.000251683
2 *2667:X 0.000251683
3 *2259:A1 *2260:C1 0.000164874
4 *2259:A1 *2524:RESET_B 0
5 *2259:A1 *841:40 0.000163199
6 *2259:A1 *850:115 0
7 *2260:A2 *2259:A1 0
8 *2667:A *2259:A1 0
*RES
1 *2667:X *2259:A1 12.105 
*END

*D_NET *768 0.000926198
*CONN
*I *2269:A1 I *D sky130_fd_sc_hd__o21a_1
*I *2668:X O *D sky130_fd_sc_hd__dlygate4sd3_1
*CAP
1 *2269:A1 0.000191525
2 *2668:X 0.000191525
3 *2269:A1 *2269:A2 7.35813e-05
4 *2269:A1 *2638:A 0.000116165
5 *2269:A1 *814:6 5.41685e-05
6 *2269:A1 *814:25 1.08758e-05
7 *2269:A1 *818:62 0.000129715
8 *2269:A1 *821:54 0.000114492
9 *144:28 *2269:A1 4.41506e-05
*RES
1 *2668:X *2269:A1 12.135 
*END

*D_NET *769 0.000535052
*CONN
*I *2242:A I *D sky130_fd_sc_hd__and2_1
*I *2726:X O *D sky130_fd_sc_hd__clkbuf_1
*CAP
1 *2242:A 0.000123961
2 *2726:X 0.000123961
3 *2242:A *2528:RESET_B 0
4 *2242:B *2242:A 0.000120186
5 *105:11 *2242:A 0.000166943
*RES
1 *2726:X *2242:A 10.62 
*END

*D_NET *770 0.000756422
*CONN
*I *2265:A1 I *D sky130_fd_sc_hd__o21a_1
*I *2669:X O *D sky130_fd_sc_hd__dlygate4sd3_1
*CAP
1 *2265:A1 0.000236003
2 *2669:X 0.000236003
3 *2265:A1 *2265:A2 7.06865e-05
4 *2616:A *2265:A1 0.000117825
5 *2678:A *2265:A1 6.58423e-05
6 *126:33 *2265:A1 2.05583e-05
7 *730:46 *2265:A1 9.50342e-06
*RES
1 *2669:X *2265:A1 10.755 
*END

*D_NET *771 9.93074e-05
*CONN
*I *2279:A1 I *D sky130_fd_sc_hd__o21a_1
*I *2671:X O *D sky130_fd_sc_hd__dlygate4sd3_1
*CAP
1 *2279:A1 1.17533e-05
2 *2671:X 1.17533e-05
3 *2279:A1 *930:DIODE 4.82863e-05
4 *2279:A1 *2279:A2 2.75145e-05
*RES
1 *2671:X *2279:A1 3.65 
*END

*D_NET *772 0.000846008
*CONN
*I *2257:A1 I *D sky130_fd_sc_hd__o21a_1
*I *2672:X O *D sky130_fd_sc_hd__dlygate4sd3_1
*CAP
1 *2257:A1 0.000220324
2 *2672:X 0.000220324
3 *2257:A1 *2257:A2 1.99638e-05
4 *2257:A1 *2496:RESET_B 9.16019e-05
5 *2497:CLK *2257:A1 1.14169e-05
6 *2672:A *2257:A1 4.82919e-05
7 *728:73 *2257:A1 0.000234085
*RES
1 *2672:X *2257:A1 11.925 
*END

*D_NET *773 0.000734279
*CONN
*I *2253:A1 I *D sky130_fd_sc_hd__o21a_1
*I *2673:X O *D sky130_fd_sc_hd__dlygate4sd3_1
*CAP
1 *2253:A1 0.000205643
2 *2673:X 0.000205643
3 *2253:A1 *2251:A2 9.50342e-06
4 *2253:A1 *822:77 0.000117832
5 *117:44 *2253:A1 0.000195658
*RES
1 *2673:X *2253:A1 10.41 
*END

*D_NET *774 0.000393424
*CONN
*I *2275:A1 I *D sky130_fd_sc_hd__o21a_1
*I *2674:X O *D sky130_fd_sc_hd__dlygate4sd3_1
*CAP
1 *2275:A1 7.81992e-05
2 *2674:X 7.81992e-05
3 *2275:A1 *821:44 0.000118513
4 *2275:A1 *854:112 0.000118513
*RES
1 *2674:X *2275:A1 9.03 
*END

*D_NET *775 0.000432903
*CONN
*I *2255:A1 I *D sky130_fd_sc_hd__o21a_1
*I *2675:X O *D sky130_fd_sc_hd__dlygate4sd3_1
*CAP
1 *2255:A1 0.00010141
2 *2675:X 0.00010141
3 *2255:A1 *2255:A2 4.62479e-05
4 *2255:A1 *819:80 0.000114201
5 *2258:B2 *2255:A1 6.11019e-05
6 *544:21 *2255:A1 8.53113e-06
*RES
1 *2675:X *2255:A1 9.72 
*END

*D_NET *776 0.000716945
*CONN
*I *2267:A1 I *D sky130_fd_sc_hd__o21a_1
*I *2676:X O *D sky130_fd_sc_hd__dlygate4sd3_1
*CAP
1 *2267:A1 0.000153452
2 *2676:X 0.000153452
3 *2267:A1 *2267:A2 3.26889e-05
4 *2267:A1 *820:76 0.000285975
5 *2293:B1 *2267:A1 9.13777e-05
6 *717:234 *2267:A1 0
7 *730:10 *2267:A1 0
*RES
1 *2676:X *2267:A1 11.205 
*END

*D_NET *777 0.00029255
*CONN
*I *2251:A1 I *D sky130_fd_sc_hd__o21a_1
*I *2677:X O *D sky130_fd_sc_hd__dlygate4sd3_1
*CAP
1 *2251:A1 3.12131e-05
2 *2677:X 3.12131e-05
3 *2251:A1 *2251:A2 6.6925e-05
4 *2251:A1 *846:18 0.000163199
*RES
1 *2677:X *2251:A1 4.685 
*END

*D_NET *778 0.00150282
*CONN
*I *2263:A1 I *D sky130_fd_sc_hd__o21a_1
*I *2678:X O *D sky130_fd_sc_hd__dlygate4sd3_1
*CAP
1 *2263:A1 0.000237865
2 *2678:X 0.000237865
3 *2263:A1 *822:30 0.000223194
4 *2264:A2 *2263:A1 0.000309436
5 *2500:D *2263:A1 3.00381e-05
6 *2616:A *2263:A1 0.000311797
7 *2678:A *2263:A1 1.91597e-05
8 *228:6 *2263:A1 5.83121e-06
9 *730:46 *2263:A1 7.96116e-05
10 *730:52 *2263:A1 4.80182e-05
*RES
1 *2678:X *2263:A1 14.88 
*END

*D_NET *779 0.000717474
*CONN
*I *2157:A I *D sky130_fd_sc_hd__nand2_1
*I *2679:X O *D sky130_fd_sc_hd__dlygate4sd3_1
*CAP
1 *2157:A 0.000201385
2 *2679:X 0.000201385
3 *2159:B *2157:A 2.57174e-05
4 *2160:C *2157:A 0.000278111
5 *2457:D *2157:A 1.08758e-05
*RES
1 *2679:X *2157:A 7.025 
*END

*D_NET *780 0.000244262
*CONN
*I *2735:A I *D sky130_fd_sc_hd__buf_2
*I *2571:X O *D sky130_fd_sc_hd__clkbuf_1
*CAP
1 *2735:A 0.000122131
2 *2571:X 0.000122131
3 *2735:A *813:10 0
*RES
1 *2571:X *2735:A 9.03 
*END

*D_NET *781 0.000111545
*CONN
*I *2277:A1 I *D sky130_fd_sc_hd__o21a_1
*I *2680:X O *D sky130_fd_sc_hd__dlygate4sd3_1
*CAP
1 *2277:A1 5.81042e-06
2 *2680:X 5.81042e-06
3 *2277:A1 *854:84 4.99619e-05
4 *2089:A *2277:A1 4.99619e-05
*RES
1 *2680:X *2277:A1 3.65 
*END

*D_NET *782 0.00112758
*CONN
*I *2184:A1 I *D sky130_fd_sc_hd__a21oi_1
*I *2682:X O *D sky130_fd_sc_hd__dlygate4sd3_1
*CAP
1 *2184:A1 0.000193847
2 *2682:X 0.000193847
3 *2184:A1 *834:29 6.41008e-05
4 *2178:B1 *2184:A1 5.83121e-06
5 *2180:A *2184:A1 4.99619e-05
6 *2182:B *2184:A1 2.46007e-05
7 *2184:B1 *2184:A1 8.7152e-06
8 *2186:A3 *2184:A1 3.7712e-05
9 *2467:D *2184:A1 1.27474e-05
10 *126:33 *2184:A1 0
11 *549:31 *2184:A1 0.000159409
12 *549:38 *2184:A1 8.95933e-05
13 *551:22 *2184:A1 8.65961e-05
14 *551:44 *2184:A1 0.000200615
*RES
1 *2682:X *2184:A1 12.825 
*END

*D_NET *783 0.00143409
*CONN
*I *2176:A1 I *D sky130_fd_sc_hd__a21oi_1
*I *2683:X O *D sky130_fd_sc_hd__dlygate4sd3_1
*CAP
1 *2176:A1 0.000478757
2 *2683:X 0.000478757
3 *2176:A1 *2463:RESET_B 0.000162065
4 *2176:A1 *791:33 0
5 *2176:A1 *850:36 0.000171477
6 *2176:A1 *850:44 9.47454e-05
7 *120:6 *2176:A1 4.82919e-05
*RES
1 *2683:X *2176:A1 14.415 
*END

*D_NET *784 0.00114045
*CONN
*I *2325:B2 I *D sky130_fd_sc_hd__o32a_1
*I *2684:X O *D sky130_fd_sc_hd__dlygate4sd3_1
*CAP
1 *2325:B2 0.00027517
2 *2684:X 0.00027517
3 *2322:A2 *2325:B2 0.00012657
4 *2325:A3 *2325:B2 0.000116165
5 *627:10 *2325:B2 0.000116165
6 *632:6 *2325:B2 0.000231211
*RES
1 *2684:X *2325:B2 11.79 
*END

*D_NET *785 0.00063162
*CONN
*I *2328:B2 I *D sky130_fd_sc_hd__a22o_1
*I *2685:X O *D sky130_fd_sc_hd__dlygate4sd3_1
*CAP
1 *2328:B2 0.00010021
2 *2685:X 0.00010021
3 *2326:B1 *2328:B2 0.000312176
4 *2328:A2 *2328:B2 6.6925e-05
5 *2328:B1 *2328:B2 5.20981e-05
*RES
1 *2685:X *2328:B2 6.425 
*END

*D_NET *786 0.000411262
*CONN
*I *2168:A1 I *D sky130_fd_sc_hd__a21oi_1
*I *2686:X O *D sky130_fd_sc_hd__dlygate4sd3_1
*CAP
1 *2168:A1 0.000165305
2 *2686:X 0.000165305
3 *2168:B1 *2168:A1 4.82863e-05
4 *2461:D *2168:A1 3.23663e-05
*RES
1 *2686:X *2168:A1 5.72 
*END

*D_NET *787 0.000739679
*CONN
*I *2381:A0 I *D sky130_fd_sc_hd__mux2_1
*I *2687:X O *D sky130_fd_sc_hd__dlygate4sd3_1
*CAP
1 *2381:A0 0.000230091
2 *2687:X 0.000230091
3 *2381:A0 *823:26 1.47256e-05
4 *2380:A3 *2381:A0 0.000120655
5 *2381:A1 *2381:A0 6.27029e-05
6 *2382:A1 *2381:A0 3.86607e-05
7 *2382:A2 *2381:A0 8.53113e-06
8 *2384:A1_N *2381:A0 3.4222e-05
*RES
1 *2687:X *2381:A0 10.59 
*END

*D_NET *788 0.000571928
*CONN
*I *2322:B2 I *D sky130_fd_sc_hd__o32a_1
*I *2688:X O *D sky130_fd_sc_hd__dlygate4sd3_1
*CAP
1 *2322:B2 0.000121805
2 *2688:X 0.000121805
3 *2306:B *2322:B2 5.18105e-05
4 *2322:A1 *2322:B2 4.66108e-05
5 *2322:A3 *2322:B2 2.75145e-05
6 *2523:D *2322:B2 8.57024e-05
7 *499:20 *2322:B2 0.00011668
*RES
1 *2688:X *2322:B2 6.08 
*END

*D_NET *789 0.000540632
*CONN
*I *2230:A1 I *D sky130_fd_sc_hd__a31o_1
*I *2689:X O *D sky130_fd_sc_hd__dlygate4sd3_1
*CAP
1 *2230:A1 0.000164956
2 *2689:X 0.000164956
3 *2230:A1 *2237:B1 0
4 *1966:A *2230:A1 0.000116165
5 *2230:B1 *2230:A1 2.75229e-05
6 *176:6 *2230:A1 4.66742e-05
7 *176:14 *2230:A1 2.03578e-05
*RES
1 *2689:X *2230:A1 10.41 
*END

*D_NET *790 0.00195131
*CONN
*I *2231:A I *D sky130_fd_sc_hd__xor2_1
*I *2690:X O *D sky130_fd_sc_hd__dlygate4sd3_1
*CAP
1 *2231:A 0.0006371
2 *2690:X 0.0006371
3 *2231:A *2528:RESET_B 8.07616e-05
4 *2231:A *861:29 0.00019194
5 *2231:A *862:59 0.00019737
6 *2113:B2 *2231:A 0.000100135
7 *2528:CLK *2231:A 3.46637e-05
8 *173:10 *2231:A 7.22354e-05
*RES
1 *2690:X *2231:A 18.87 
*END

*D_NET *791 0.0134242
*CONN
*I *2181:B1 I *D sky130_fd_sc_hd__o21ai_1
*I *2173:B1 I *D sky130_fd_sc_hd__o21ai_1
*I *2175:B1 I *D sky130_fd_sc_hd__o21ai_1
*I *2171:C I *D sky130_fd_sc_hd__and3b_1
*I *2167:B1 I *D sky130_fd_sc_hd__o21ai_1
*I *2166:C I *D sky130_fd_sc_hd__and3b_1
*I *2163:C I *D sky130_fd_sc_hd__and3b_1
*I *2160:A I *D sky130_fd_sc_hd__and3_1
*I *2157:B I *D sky130_fd_sc_hd__nand2_1
*I *2187:C I *D sky130_fd_sc_hd__and3b_1
*I *2604:X O *D sky130_fd_sc_hd__clkbuf_2
*CAP
1 *2181:B1 2.66954e-05
2 *2173:B1 0.000109686
3 *2175:B1 0
4 *2171:C 6.14904e-06
5 *2167:B1 9.04345e-05
6 *2166:C 0
7 *2163:C 0
8 *2160:A 0.000357395
9 *2157:B 0.000111198
10 *2187:C 0.00012474
11 *2604:X 4.60494e-05
12 *791:67 0.000717
13 *791:61 0.000767443
14 *791:55 0.000716652
15 *791:53 0.000899744
16 *791:47 0.00125043
17 *791:33 0.000855776
18 *791:29 0.00110216
19 *791:23 0.00145322
20 *791:8 0.00082803
21 *2167:B1 *850:69 0
22 *2173:B1 *850:88 0
23 *2187:C *852:36 4.99619e-05
24 *791:29 *2463:RESET_B 2.59926e-05
25 *791:29 *850:36 2.75145e-05
26 *791:33 *850:44 0
27 *791:33 *850:88 0
28 *791:47 *2462:RESET_B 2.53494e-05
29 *791:47 *822:77 6.58266e-05
30 *791:47 *841:65 2.38114e-05
31 *791:47 *850:44 1.56651e-05
32 *791:53 *850:62 0.000263103
33 *791:61 *846:34 0
34 *791:61 *864:10 0
35 gpio_oeb[18] *2157:B 0
36 *2160:C *2160:A 4.82919e-05
37 *2163:B *791:61 2.66586e-05
38 *2163:B *791:67 4.05674e-06
39 *2166:A_N *2167:B1 0
40 *2166:A_N *791:55 0
41 *2168:A2 *2167:B1 8.65961e-05
42 *2172:A *2173:B1 1.43623e-05
43 *2173:A1 *2173:B1 3.21081e-06
44 *2174:A *791:47 0.000238919
45 *2174:B *2173:B1 6.98332e-05
46 *2175:A2 *791:33 3.67779e-05
47 *2176:A1 *791:33 0
48 *2176:B1 *791:33 0
49 *2176:B1 *791:47 0.000231223
50 *2177:C *2173:B1 5.52406e-06
51 *2178:A3 *791:29 3.83194e-05
52 *2186:A3 *791:23 0.000201502
53 *2187:B *2187:C 5.18691e-05
54 *2187:B *791:8 3.23391e-05
55 *2255:B1 *2171:C 1.88656e-05
56 *2255:B1 *791:47 0.000120174
57 *2459:CLK *791:61 0
58 *2459:D *791:61 0
59 *2459:D *791:67 4.82919e-05
60 *2460:D *791:55 0
61 *2462:D *2171:C 9.67081e-06
62 *2462:D *791:47 8.42627e-05
63 *2464:CLK *791:47 0.00018263
64 *2468:CLK *791:23 4.66826e-05
65 *2468:D *2187:C 9.71067e-05
66 *2493:D *791:61 9.30717e-05
67 *2604:A *2187:C 0
68 *2604:A *791:8 0
69 *2682:A *791:23 1.61831e-05
70 *25:13 *791:61 0
71 *25:13 *791:67 0
72 *118:61 *791:47 0
73 *119:6 *791:47 5.05521e-05
74 *119:12 *791:47 7.08493e-05
75 *121:12 *791:33 0
76 *546:12 *2173:B1 3.64998e-06
77 *546:12 *791:29 0
78 *546:14 *2173:B1 4.79946e-05
79 *546:14 *791:33 0.000163285
80 *546:31 *791:47 3.66286e-05
81 *549:31 *2181:B1 2.81017e-05
82 *549:31 *791:23 2.7441e-05
83 *549:31 *791:29 0.000832612
84 *549:38 *791:23 9.66021e-05
85 *717:134 *2187:C 0
86 *725:73 *791:61 0.000129678
87 *725:84 *791:55 0.00012541
88 *725:84 *791:61 4.49328e-05
89 *735:8 *2167:B1 0
90 *735:8 *791:55 0
91 *735:8 *791:61 0
*RES
1 *2604:X *791:8 4.47 
2 *791:8 *2187:C 6.195 
3 *791:8 *791:23 10.04 
4 *791:23 *791:29 12.215 
5 *791:29 *791:33 6.695 
6 *791:33 *791:47 20.3025 
7 *791:47 *791:53 2.14507 
8 *791:53 *791:55 4.0575 
9 *791:55 *791:61 12.08 
10 *791:61 *791:67 6.05 
11 *791:67 *2157:B 5.235 
12 *791:67 *2160:A 8.535 
13 *791:61 *2163:C 1.6 
14 *791:55 *2166:C 3.6 
15 *791:53 *2167:B1 5.3925 
16 *791:47 *2171:C 3.8325 
17 *791:33 *2175:B1 1.6 
18 *791:29 *2173:B1 6.09 
19 *791:23 *2181:B1 2.215 
*END

*D_NET *792 0.00105231
*CONN
*I *2237:B1 I *D sky130_fd_sc_hd__a21oi_1
*I *2691:X O *D sky130_fd_sc_hd__dlygate4sd3_1
*CAP
1 *2237:B1 0.000321292
2 *2691:X 0.000321292
3 *2237:B1 *2531:RESET_B 0.000129275
4 *2230:A1 *2237:B1 0
5 *2689:A *2237:B1 5.05521e-05
6 *176:14 *2237:B1 0.000229897
*RES
1 *2691:X *2237:B1 13.05 
*END

*D_NET *793 0.000211519
*CONN
*I *2238:B I *D sky130_fd_sc_hd__nor2_1
*I *2693:X O *D sky130_fd_sc_hd__dlygate4sd3_1
*CAP
1 *2238:B 8.56659e-05
2 *2693:X 8.56659e-05
3 *2238:A *2238:B 2.28015e-05
4 *2531:D *2238:B 1.7386e-05
*RES
1 *2693:X *2238:B 4.7 
*END

*D_NET *794 0.000699621
*CONN
*I *2232:B1 I *D sky130_fd_sc_hd__a21oi_1
*I *2694:X O *D sky130_fd_sc_hd__dlygate4sd3_1
*CAP
1 *2232:B1 0.000175464
2 *2694:X 0.000175464
3 *2232:A1 *2232:B1 7.66083e-05
4 *172:18 *2232:B1 0.000196364
5 *172:38 *2232:B1 7.57202e-05
*RES
1 *2694:X *2232:B1 6.41 
*END

*D_NET *795 0.000368982
*CONN
*I *2339:A0 I *D sky130_fd_sc_hd__mux2_1
*I *2695:X O *D sky130_fd_sc_hd__dlygate4sd3_1
*CAP
1 *2339:A0 8.68546e-05
2 *2695:X 8.68546e-05
3 *2337:B *2339:A0 7.23602e-05
4 *2339:A1 *2339:A0 7.23602e-05
5 *240:8 *2339:A0 5.05521e-05
*RES
1 *2695:X *2339:A0 8.865 
*END

*D_NET *796 0.00124378
*CONN
*I *2389:A1 I *D sky130_fd_sc_hd__a22o_1
*I *2696:X O *D sky130_fd_sc_hd__dlygate4sd3_1
*CAP
1 *2389:A1 0.00019909
2 *2696:X 0.00019909
3 *2389:A1 *824:6 0.000122331
4 *2389:A1 *824:10 0.0001249
5 *2389:B1 *2389:A1 7.23533e-05
6 *2548:D *2389:A1 9.0336e-05
7 *250:27 *2389:A1 0.000117349
8 *251:20 *2389:A1 5.83121e-06
9 *677:22 *2389:A1 0.000312504
*RES
1 *2696:X *2389:A1 12.99 
*END

*D_NET *797 0.00133973
*CONN
*I *2367:A1 I *D sky130_fd_sc_hd__o21a_1
*I *2697:X O *D sky130_fd_sc_hd__dlygate4sd3_1
*CAP
1 *2367:A1 0.000386314
2 *2697:X 0.000386314
3 *2367:A1 *893:DIODE 0.000251595
4 *2367:A1 *2367:A2 0.000241483
5 *2367:A1 *847:108 7.4027e-05
6 *2367:A1 *847:124 0
7 *2364:A1 *2367:A1 0
8 *2367:B1 *2367:A1 0
9 *2371:B2 *2367:A1 0
10 *246:19 *2367:A1 0
*RES
1 *2697:X *2367:A1 14.835 
*END

*D_NET *798 0.0008006
*CONN
*I *2234:A I *D sky130_fd_sc_hd__nor2_1
*I *2698:X O *D sky130_fd_sc_hd__dlygate4sd3_1
*CAP
1 *2234:A 0.000307494
2 *2698:X 0.000307494
3 *2233:B *2234:A 2.3887e-05
4 *2234:B *2234:A 1.24714e-05
5 *2528:D *2234:A 6.52265e-05
6 *364:16 *2234:A 8.40269e-05
*RES
1 *2698:X *2234:A 7.28 
*END

*D_NET *799 0.000683621
*CONN
*I *2424:A I *D sky130_fd_sc_hd__xnor2_1
*I *2699:X O *D sky130_fd_sc_hd__dlygate4sd3_1
*CAP
1 *2424:A 0.000156197
2 *2699:X 0.000156197
3 *2422:B *2424:A 4.99619e-05
4 *2424:B *2424:A 4.82863e-05
5 *263:60 *2424:A 0.000272978
*RES
1 *2699:X *2424:A 6.755 
*END

*D_NET *800 0.00070977
*CONN
*I *2363:A0 I *D sky130_fd_sc_hd__mux2_1
*I *2700:X O *D sky130_fd_sc_hd__dlygate4sd3_1
*CAP
1 *2363:A0 0.000261303
2 *2700:X 0.000261303
3 *2542:CLK *2363:A0 2.75145e-05
4 *2542:D *2363:A0 0
5 *2544:CLK *2363:A0 5.83121e-06
6 *2700:A *2363:A0 0.000113282
7 *245:10 *2363:A0 4.05358e-05
*RES
1 *2700:X *2363:A0 10.935 
*END

*D_NET *801 0.000502801
*CONN
*I *2283:A1 I *D sky130_fd_sc_hd__a21o_1
*I *2701:X O *D sky130_fd_sc_hd__dlygate4sd3_1
*CAP
1 *2283:A1 0.000194663
2 *2701:X 0.000194663
3 *217:14 *2283:A1 5.83121e-06
4 *222:23 *2283:A1 0.000107643
*RES
1 *2701:X *2283:A1 5.72 
*END

*D_NET *802 0.00762384
*CONN
*I *2193:A I *D sky130_fd_sc_hd__and3_1
*I *2189:B1 I *D sky130_fd_sc_hd__o21ai_1
*I *2183:B1 I *D sky130_fd_sc_hd__o21ai_1
*I *2179:C I *D sky130_fd_sc_hd__and3b_1
*I *2195:A I *D sky130_fd_sc_hd__and2_1
*I *2605:X O *D sky130_fd_sc_hd__clkbuf_1
*CAP
1 *2193:A 0
2 *2189:B1 9.38758e-05
3 *2183:B1 0
4 *2179:C 0.000516492
5 *2195:A 0.0003505
6 *2605:X 0.000160897
7 *802:41 0.000948698
8 *802:35 0.000625374
9 *802:31 0.000798806
10 *802:8 0.00121091
11 *2179:C *2465:RESET_B 0.000157343
12 *2189:B1 *822:30 0
13 *2195:A *932:DIODE 7.9642e-06
14 *2195:A *2278:B1 0.000129439
15 *2195:A *2278:C1 1.52406e-05
16 *2148:B *802:31 1.37812e-05
17 *2148:B *802:35 4.43871e-06
18 *2152:A2 *2195:A 1.88602e-05
19 *2152:B2 *2195:A 0.000182112
20 *2152:B2 *802:31 0.000169683
21 *2156:A1 *802:8 3.1562e-06
22 *2156:A2 *802:8 1.56428e-05
23 *2156:A2 *802:31 0.000102798
24 *2179:B *2179:C 6.77162e-05
25 *2183:A1 *802:41 8.95933e-05
26 *2183:A2 *802:41 0.000122331
27 *2188:B *2189:B1 0.000163992
28 *2194:A *2195:A 4.20291e-05
29 *2194:A *802:31 3.32209e-05
30 *2195:B *2195:A 1.92644e-05
31 *2249:A2 *802:31 0
32 *2465:CLK *2179:C 0.00018587
33 *2465:D *2179:C 0.000502803
34 *2466:CLK *2179:C 8.95755e-05
35 *2471:D *2195:A 9.02924e-05
36 *2572:A *2189:B1 2.75145e-05
37 *2604:A *802:8 4.82863e-05
38 *2605:A *802:8 2.16917e-05
39 *1:15 *2189:B1 6.44051e-05
40 *1:15 *802:35 6.95335e-05
41 *376:77 *802:31 1.33725e-05
42 *376:96 *802:31 4.07807e-05
43 *532:20 *802:31 8.91266e-05
44 *554:8 *2189:B1 4.82863e-05
45 *554:10 *2189:B1 2.14129e-05
46 *717:18 *2189:B1 2.50049e-05
47 *717:18 *802:31 4.13879e-05
48 *717:18 *802:35 9.76522e-05
49 *733:21 *2195:A 8.26814e-05
*RES
1 *2605:X *802:8 5.43 
2 *802:8 *2195:A 10.23 
3 *802:8 *802:31 4.5918 
4 *802:31 *802:35 2.595 
5 *802:35 *802:41 8.33 
6 *802:41 *2179:C 17.36 
7 *802:41 *2183:B1 1.6 
8 *802:35 *2189:B1 6.705 
9 *802:31 *2193:A 3.6 
*END

*D_NET *803 0.00076491
*CONN
*I *2128:A1 I *D sky130_fd_sc_hd__o21ai_1
*I *2702:X O *D sky130_fd_sc_hd__dlygate4sd3_1
*CAP
1 *2128:A1 0.000299388
2 *2702:X 0.000299388
3 *2128:A1 *2641:A 9.37731e-05
4 *2128:A1 *2642:A 0
5 *2128:A2 *2128:A1 7.23602e-05
*RES
1 *2702:X *2128:A1 12.015 
*END

*D_NET *804 0.00134247
*CONN
*I *2129:B I *D sky130_fd_sc_hd__nor2_1
*I *2704:X O *D sky130_fd_sc_hd__dlygate4sd3_1
*CAP
1 *2129:B 0.000454682
2 *2704:X 0.000454682
3 *2091:C *2129:B 0
4 *2122:A_N *2129:B 6.38722e-05
5 *2452:D *2129:B 4.19967e-05
6 *476:25 *2129:B 1.34594e-05
7 *477:10 *2129:B 0.000110653
8 *477:20 *2129:B 4.18603e-06
9 *480:27 *2129:B 0.000198939
*RES
1 *2704:X *2129:B 14.28 
*END

*D_NET *805 0.00104785
*CONN
*I *2203:A1 I *D sky130_fd_sc_hd__a21o_1
*I *2294:A1 I *D sky130_fd_sc_hd__o21a_1
*I *2705:X O *D sky130_fd_sc_hd__dlygate4sd3_1
*CAP
1 *2203:A1 1.17533e-05
2 *2294:A1 0.00013167
3 *2705:X 0.000147121
4 *805:10 0.000290544
5 *2203:A1 *857:47 2.75145e-05
6 *2294:A1 *873:DIODE 2.11084e-05
7 *2294:A1 *857:10 0
8 *2294:A1 *857:12 0
9 *805:10 *857:10 0
10 *2203:A2 *2294:A1 5.53249e-06
11 *2203:A2 *805:10 5.36866e-05
12 *2203:B1 *2203:A1 4.82863e-05
13 *2439:D *805:10 6.02123e-05
14 *2563:CLK *805:10 0.000122337
15 *144:28 *805:10 7.06865e-05
16 *721:16 *2294:A1 3.98952e-05
17 *721:18 *2294:A1 1.75086e-05
*RES
1 *2705:X *805:10 6.885 
2 *805:10 *2294:A1 5.94 
3 *805:10 *2203:A1 4.05 
*END

*D_NET *806 0.00221711
*CONN
*I *2285:A1 I *D sky130_fd_sc_hd__a21o_1
*I *2706:X O *D sky130_fd_sc_hd__dlygate4sd3_1
*CAP
1 *2285:A1 0.000564067
2 *2706:X 0.000564067
3 *2285:A1 *2284:A 2.6801e-05
4 *2285:A1 *2284:C 0.00059759
5 *2210:C1 *2285:A1 0.00011852
6 *218:6 *2285:A1 7.00889e-06
7 *218:30 *2285:A1 2.05056e-05
8 *565:32 *2285:A1 0.000245893
9 *717:218 *2285:A1 7.26629e-05
*RES
1 *2706:X *2285:A1 16.53 
*END

*D_NET *807 0.000344916
*CONN
*I *2353:A0 I *D sky130_fd_sc_hd__mux2_1
*I *2707:X O *D sky130_fd_sc_hd__dlygate4sd3_1
*CAP
1 *2353:A0 9.04993e-05
2 *2707:X 9.04993e-05
3 *2353:A0 *839:129 8.65961e-05
4 *2352:A2_N *2353:A0 3.86607e-05
5 *242:23 *2353:A0 3.86607e-05
*RES
1 *2707:X *2353:A0 8.865 
*END

*D_NET *808 0.000546462
*CONN
*I *2291:A1 I *D sky130_fd_sc_hd__a21o_1
*I *2708:X O *D sky130_fd_sc_hd__dlygate4sd3_1
*CAP
1 *2291:A1 9.87975e-05
2 *2708:X 9.87975e-05
3 *2291:A1 *842:90 5.83121e-06
4 *2291:A1 *842:118 5.07478e-05
5 *919:DIODE *2291:A1 0.000115464
6 *2291:B1 *2291:A1 3.54536e-05
7 *2512:D *2291:A1 0.000141371
*RES
1 *2708:X *2291:A1 10.08 
*END

*D_NET *809 0.000171525
*CONN
*I *2281:A1 I *D sky130_fd_sc_hd__a21o_1
*I *2709:X O *D sky130_fd_sc_hd__dlygate4sd3_1
*CAP
1 *2281:A1 6.59953e-05
2 *2709:X 6.59953e-05
3 *2281:A1 *2281:A2 1.45102e-05
4 *2281:B1 *2281:A1 2.50238e-05
*RES
1 *2709:X *2281:A1 3.995 
*END

*D_NET *810 0.000480199
*CONN
*I *2348:A1 I *D sky130_fd_sc_hd__o22a_1
*I *2710:X O *D sky130_fd_sc_hd__dlygate4sd3_1
*CAP
1 *2348:A1 0.000171374
2 *2710:X 0.000171374
3 *2348:A1 *885:DIODE 2.68526e-05
4 *2348:A1 *824:70 2.97746e-05
5 *2348:A1 *826:70 4.46754e-05
6 *2348:B2 *2348:A1 3.61491e-05
*RES
1 *2710:X *2348:A1 9.975 
*END

*D_NET *811 0.000231632
*CONN
*I *2287:A1 I *D sky130_fd_sc_hd__a21o_1
*I *2711:X O *D sky130_fd_sc_hd__dlygate4sd3_1
*CAP
1 *2287:A1 8.57778e-05
2 *2711:X 8.57778e-05
3 *2287:A1 *2287:A2 3.00381e-05
4 *2287:A1 *814:69 2.30292e-05
5 *2287:B1 *2287:A1 7.00889e-06
*RES
1 *2711:X *2287:A1 4.34 
*END

*D_NET *812 0.000780716
*CONN
*I *2289:A1 I *D sky130_fd_sc_hd__a21o_1
*I *2712:X O *D sky130_fd_sc_hd__dlygate4sd3_1
*CAP
1 *2289:A1 0.000234488
2 *2712:X 0.000234488
3 *2289:A1 *2474:RESET_B 5.4169e-05
4 *919:DIODE *2289:A1 8.66976e-06
5 *221:48 *2289:A1 8.57024e-05
6 *368:10 *2289:A1 0.000163199
*RES
1 *2712:X *2289:A1 11.16 
*END

*D_NET *813 0.00179573
*CONN
*I *2477:D I *D sky130_fd_sc_hd__dfrtp_1
*I *2200:A2 I *D sky130_fd_sc_hd__o31a_1
*I *2727:X O *D sky130_fd_sc_hd__clkbuf_1
*CAP
1 *2477:D 7.59776e-05
2 *2200:A2 0.000302683
3 *2727:X 0.000104026
4 *813:10 0.000482687
5 *2200:A2 *2490:RESET_B 0.000618103
6 *2200:A2 *863:12 0
7 *2477:D *2490:RESET_B 0.000115146
8 *813:10 *2477:RESET_B 0
9 *813:10 *863:12 0
10 *2571:A *813:10 0
11 *2735:A *813:10 0
12 *128:10 *2200:A2 9.71067e-05
13 *130:14 *2200:A2 0
*RES
1 *2727:X *813:10 7.235 
2 *813:10 *2200:A2 12.86 
3 *813:10 *2477:D 3.43 
*END

*D_NET *814 0.0100023
*CONN
*I *2294:B1 I *D sky130_fd_sc_hd__o21a_1
*I *2281:A2 I *D sky130_fd_sc_hd__a21o_1
*I *2289:A2 I *D sky130_fd_sc_hd__a21o_1
*I *2291:A2 I *D sky130_fd_sc_hd__a21o_1
*I *2287:A2 I *D sky130_fd_sc_hd__a21o_1
*I *2285:A2 I *D sky130_fd_sc_hd__a21o_1
*I *2283:A2 I *D sky130_fd_sc_hd__a21o_1
*I *2268:C1 I *D sky130_fd_sc_hd__a221o_1
*I *2266:C1 I *D sky130_fd_sc_hd__a221o_1
*I *2270:C1 I *D sky130_fd_sc_hd__a221o_1
*I *2606:X O *D sky130_fd_sc_hd__buf_2
*CAP
1 *2294:B1 0
2 *2281:A2 0.000246859
3 *2289:A2 5.69968e-05
4 *2291:A2 3.64288e-05
5 *2287:A2 2.04437e-05
6 *2285:A2 0
7 *2283:A2 0
8 *2268:C1 2.08101e-05
9 *2266:C1 0.000202603
10 *2270:C1 7.20164e-05
11 *2606:X 0
12 *814:112 0.000733251
13 *814:84 0.00025692
14 *814:69 0.000502347
15 *814:56 0.000429256
16 *814:47 0.000539105
17 *814:43 0.00114648
18 *814:25 0.000514657
19 *814:6 0.000531031
20 *814:4 0.000399604
21 *2266:C1 *2268:A1 5.50494e-05
22 *2266:C1 *828:22 5.36915e-05
23 *2266:C1 *841:20 1.12578e-05
24 *2270:C1 *842:62 0
25 *2270:C1 *852:26 0.000111011
26 *2289:A2 *871:DIODE 2.84224e-05
27 *2289:A2 *2474:RESET_B 3.84409e-05
28 *2291:A2 *842:90 8.65961e-05
29 *814:6 *818:62 8.65905e-05
30 *814:25 *2268:A1 7.70093e-05
31 *814:25 *2269:A2 1.47256e-05
32 *814:25 *818:62 0
33 *814:43 *818:62 0.000345342
34 *814:47 *2271:A2 0
35 *814:47 *2282:A 4.04796e-05
36 *814:47 *2284:C 1.71013e-05
37 *814:47 *2509:RESET_B 0
38 *814:47 *2638:A 0
39 *814:47 *818:62 2.92496e-05
40 *814:47 *820:25 3.73751e-05
41 *814:47 *820:31 3.67779e-05
42 *814:47 *820:64 0.000176629
43 *814:47 *821:54 0
44 *814:47 *845:98 0
45 *814:47 *852:16 6.8665e-05
46 *814:56 *2284:C 0.000107666
47 *814:69 *2286:C 0
48 *814:84 *871:DIODE 2.92496e-05
49 *814:84 *2286:C 8.35213e-05
50 *814:84 *2474:RESET_B 0
51 *814:84 *842:90 0.000113237
52 *814:112 *2503:RESET_B 0.000138736
53 *814:112 *818:62 4.66108e-05
54 *814:112 *824:202 3.64998e-06
55 *814:112 *845:51 3.91475e-05
56 *2203:B1 *2281:A2 0
57 *2206:B2 *2281:A2 0
58 *2207:B *814:47 0
59 *2207:B *814:56 0
60 *2266:A2 *2266:C1 0.000177224
61 *2266:B2 *2266:C1 2.49708e-05
62 *2267:B1 *2266:C1 4.92062e-05
63 *2268:A2 *814:25 1.2818e-05
64 *2268:B2 *814:25 1.12643e-05
65 *2269:A1 *814:6 5.41685e-05
66 *2269:A1 *814:25 1.08758e-05
67 *2269:B1 *2268:C1 0
68 *2269:B1 *814:25 0.000121437
69 *2272:A2 *814:112 4.99619e-05
70 *2281:A1 *2281:A2 1.45102e-05
71 *2281:B1 *2281:A2 1.3462e-05
72 *2287:A1 *2287:A2 3.00381e-05
73 *2287:A1 *814:69 2.30292e-05
74 *2287:B1 *814:84 0.000199783
75 *2289:B1 *2289:A2 0.000141599
76 *2502:D *814:25 5.05437e-05
77 *2503:CLK *814:112 0.000250798
78 *2510:D *814:69 6.36578e-05
79 *2515:D *2281:A2 6.04327e-05
80 *2666:A *814:112 0.000279787
81 *144:28 *814:112 9.82412e-05
82 *215:10 *814:47 0
83 *217:14 *814:47 0
84 *217:14 *814:56 0
85 *219:14 *814:84 0.00016271
86 *219:22 *2289:A2 0.000120186
87 *222:34 *814:56 0
88 *222:34 *814:69 0
89 *222:45 *814:69 0
90 *222:62 *814:69 0
91 *721:12 *2281:A2 6.05081e-05
92 *721:14 *2281:A2 0.000152127
93 *721:16 *2281:A2 0.000107627
94 *721:18 *2281:A2 4.93919e-05
95 *722:36 *2289:A2 0
96 *722:36 *814:84 2.68721e-05
*RES
1 *2606:X *814:4 1.6 
2 *814:4 *814:6 2.175 
3 *814:6 *2270:C1 6.98 
4 *814:6 *814:25 5.67 
5 *814:25 *2266:C1 5.86 
6 *814:25 *2268:C1 1.96 
7 *814:4 *814:43 3.21 
8 *814:43 *814:47 10.775 
9 *814:47 *2283:A2 3.6 
10 *814:47 *814:56 2.4 
11 *814:56 *2285:A2 3.6 
12 *814:56 *814:69 7.1 
13 *814:69 *2287:A2 2.05 
14 *814:69 *814:84 9.67 
15 *814:84 *2291:A2 2.395 
16 *814:84 *2289:A2 8 
17 *814:43 *814:112 13.525 
18 *814:112 *2281:A2 10.5875 
19 *814:112 *2294:B1 1.6 
*END

*D_NET *815 0.000309306
*CONN
*I *2119:A1 I *D sky130_fd_sc_hd__a22o_1
*I *2713:X O *D sky130_fd_sc_hd__dlygate4sd3_1
*CAP
1 *2119:A1 0.000138799
2 *2713:X 0.000138799
3 *2119:A1 *2569:RESET_B 0
4 *2119:B2 *2119:A1 4.18603e-06
5 *2569:CLK *2119:A1 2.75229e-05
6 *489:65 *2119:A1 0
7 *724:42 *2119:A1 0
8 *724:53 *2119:A1 0
*RES
1 *2713:X *2119:A1 9.285 
*END

*D_NET *816 0.00025958
*CONN
*I *2335:A1 I *D sky130_fd_sc_hd__o21a_1
*I *2715:X O *D sky130_fd_sc_hd__dlygate4sd3_1
*CAP
1 *2335:A1 8.4966e-05
2 *2715:X 8.4966e-05
3 *2029:A2 *2335:A1 3.97053e-05
4 *2338:B1 *2335:A1 3.60024e-06
5 *239:21 *2335:A1 4.63425e-05
*RES
1 *2715:X *2335:A1 8.58 
*END

*D_NET *817 0.000529289
*CONN
*I *2415:A1 I *D sky130_fd_sc_hd__a22o_1
*I *2716:X O *D sky130_fd_sc_hd__dlygate4sd3_1
*CAP
1 *2415:A1 0.00023434
2 *2716:X 0.00023434
3 *2415:A1 *855:74 3.59997e-05
4 *2555:D *2415:A1 2.46089e-05
5 *719:24 *2415:A1 0
*RES
1 *2716:X *2415:A1 10.155 
*END

*D_NET *818 0.0102244
*CONN
*I *2274:C1 I *D sky130_fd_sc_hd__a221o_1
*I *2272:C1 I *D sky130_fd_sc_hd__a221o_1
*I *2606:A I *D sky130_fd_sc_hd__buf_2
*I *2293:A2 I *D sky130_fd_sc_hd__a21o_1
*I *2276:C1 I *D sky130_fd_sc_hd__a221o_1
*I *2278:C1 I *D sky130_fd_sc_hd__a221o_1
*I *2607:X O *D sky130_fd_sc_hd__clkbuf_2
*CAP
1 *2274:C1 6.19864e-05
2 *2272:C1 0
3 *2606:A 0
4 *2293:A2 0.000597381
5 *2276:C1 0
6 *2278:C1 0.000306037
7 *2607:X 6.03381e-05
8 *818:62 0.00101126
9 *818:50 0.000843416
10 *818:42 0.00071354
11 *818:31 0.00100376
12 *818:6 0.00114811
13 *2274:C1 *829:76 1.37328e-05
14 *2278:C1 *2278:B1 0.000115458
15 *2293:A2 *2269:A2 0.000309429
16 *2293:A2 *2270:A1 0.00013194
17 *2293:A2 *2286:C 0
18 *2293:A2 *2637:A 0.000297824
19 *2293:A2 *852:26 0
20 *2293:A2 *853:46 8.08153e-06
21 *818:31 *826:22 0.00037666
22 *818:31 *854:112 0
23 *818:42 *845:42 0
24 *818:50 *821:44 0.00026898
25 *818:62 *2271:A2 0
26 *818:62 *2469:RESET_B 0.000197684
27 *818:62 *821:54 0
28 *818:62 *829:101 2.05056e-05
29 *2195:A *2278:C1 1.52406e-05
30 *2195:B *2278:C1 1.23268e-05
31 *2269:A1 *818:62 0.000129715
32 *2272:B2 *818:62 4.82863e-05
33 *2274:B2 *2274:C1 2.42057e-05
34 *2274:B2 *818:50 3.64998e-06
35 *2275:B1 *818:31 4.18603e-06
36 *2275:B1 *818:42 0.000122539
37 *2276:B2 *818:31 0.000139262
38 *2276:B2 *818:42 9.50342e-06
39 *2278:A2 *2278:C1 2.87433e-05
40 *2278:B2 *2278:C1 1.12643e-05
41 *2293:A1 *2293:A2 0.000248275
42 *2503:D *818:62 0.000116158
43 *2509:D *2293:A2 9.5433e-05
44 *2604:A *818:50 0
45 *2604:A *818:62 0.000183036
46 *2608:A *818:6 3.07153e-05
47 *2608:A *818:31 7.67415e-06
48 *2634:A *2278:C1 0.00030358
49 *2639:A *2293:A2 0
50 *111:10 *818:62 8.8266e-05
51 *112:10 *818:50 0.000119105
52 *144:28 *818:62 0.000125034
53 *443:52 *2278:C1 8.53256e-05
54 *717:335 *818:31 0.000127573
55 *717:335 *818:42 0.0001514
56 *814:6 *818:62 8.65905e-05
57 *814:25 *818:62 0
58 *814:43 *818:62 0.000345342
59 *814:47 *818:62 2.92496e-05
60 *814:112 *818:62 4.66108e-05
*RES
1 *2607:X *818:6 2.395 
2 *818:6 *2278:C1 11.615 
3 *818:6 *818:31 14.03 
4 *818:31 *2276:C1 3.6 
5 *818:31 *818:42 6.695 
6 *818:42 *818:50 10.54 
7 *818:50 *818:62 15.46 
8 *818:62 *2293:A2 19.4 
9 *818:62 *2606:A 1.6 
10 *818:50 *2272:C1 1.6 
11 *818:42 *2274:C1 2.665 
*END

*D_NET *819 0.0203458
*CONN
*I *2607:A I *D sky130_fd_sc_hd__clkbuf_2
*I *2264:C1 I *D sky130_fd_sc_hd__a221o_1
*I *2262:C1 I *D sky130_fd_sc_hd__a221o_1
*I *2250:C1 I *D sky130_fd_sc_hd__a221o_1
*I *2254:C1 I *D sky130_fd_sc_hd__a221o_1
*I *2258:C1 I *D sky130_fd_sc_hd__a221o_1
*I *2260:C1 I *D sky130_fd_sc_hd__a221o_1
*I *2256:C1 I *D sky130_fd_sc_hd__a221o_1
*I *2252:C1 I *D sky130_fd_sc_hd__a221o_1
*I *2249:B1 I *D sky130_fd_sc_hd__a32o_1
*I *2608:X O *D sky130_fd_sc_hd__buf_2
*CAP
1 *2607:A 0.000176274
2 *2264:C1 2.74898e-05
3 *2262:C1 0.000202098
4 *2250:C1 1.45953e-05
5 *2254:C1 0
6 *2258:C1 1.97003e-05
7 *2260:C1 0.000349508
8 *2256:C1 0.000134645
9 *2252:C1 0.000484022
10 *2249:B1 0.000124063
11 *2608:X 0
12 *819:143 0.00110873
13 *819:95 0.000483638
14 *819:80 0.000731767
15 *819:68 0.000948648
16 *819:43 0.00112297
17 *819:26 0.000485597
18 *819:22 0.000631531
19 *819:18 0.00210382
20 *819:4 0.000972564
21 *2249:B1 *2250:A1 9.80917e-05
22 *2256:C1 *2256:A1 8.52883e-05
23 *2256:C1 *828:42 2.6306e-05
24 *2256:C1 *841:65 1.04328e-05
25 *2258:C1 *2258:B1 2.50804e-05
26 *2260:C1 *2258:B1 2.68526e-05
27 *2260:C1 *822:34 0.000142669
28 *2260:C1 *841:40 0.00010846
29 *2260:C1 *841:55 1.51079e-05
30 *2262:C1 *828:30 0.000275548
31 *2262:C1 *841:28 0.000238137
32 *2264:C1 *828:30 0.000160641
33 *2264:C1 *841:28 0.000149765
34 *2607:A *2247:A 7.67415e-06
35 *819:18 *896:DIODE 7.3151e-05
36 *819:18 *2003:A 8.65961e-05
37 *819:18 *2472:RESET_B 6.61613e-05
38 *819:18 *2621:A 4.82863e-05
39 *819:18 *2623:A 7.40446e-05
40 *819:18 *821:16 3.19427e-05
41 *819:18 *835:6 0.000421068
42 *819:18 *835:10 0.00015896
43 *819:18 *842:62 6.55328e-05
44 *819:18 *847:76 0.000161529
45 *819:22 *836:62 0.00011447
46 *819:43 *2250:A1 4.13879e-05
47 *819:68 *2251:A2 0
48 *819:80 *822:77 0.000223699
49 *819:80 *828:62 0
50 *819:80 *841:65 0
51 *819:95 *2258:B1 6.97358e-05
52 *819:143 *834:29 0.000404962
53 *819:143 *850:14 0.00011686
54 *913:DIODE *2249:B1 2.01504e-05
55 *1974:A *819:68 0.000151346
56 *1984:A *819:143 0.000116158
57 *1988:B *819:18 0.000125757
58 *1988:B *819:143 0.000197049
59 *2004:B1 *819:22 0.000316444
60 *2004:B2 *819:18 9.27326e-05
61 *2018:B1 *819:18 4.31508e-05
62 *2018:B1 *819:143 1.12129e-05
63 *2039:A *819:22 0.000303318
64 *2039:A *819:26 0.000136377
65 *2039:B *2250:C1 6.44676e-05
66 *2039:B *819:22 8.28127e-05
67 *2039:B *819:26 1.71025e-05
68 *2134:B2 *2249:B1 0.000160831
69 *2139:A1 *2249:B1 7.49327e-05
70 *2140:A2_N *819:43 8.34281e-06
71 *2140:B1 *2250:C1 6.44676e-05
72 *2141:A1 *819:43 7.89034e-05
73 *2141:A2 *2249:B1 6.08203e-05
74 *2141:A2 *2252:C1 3.74448e-05
75 *2141:A2 *819:43 0.000226855
76 *2141:B1 *2252:C1 6.60042e-05
77 *2145:A1 *2252:C1 0.000125483
78 *2170:B1 *819:68 4.01811e-05
79 *2179:B *819:143 0
80 *2182:B *819:143 6.72027e-05
81 *2249:A2 *819:22 0.00021649
82 *2249:A2 *819:26 9.79957e-05
83 *2249:B2 *2249:B1 0.000122801
84 *2251:B1 *2252:C1 4.58406e-05
85 *2253:B1 *819:68 0
86 *2255:A1 *819:80 0.000114201
87 *2256:A2 *2256:C1 6.65282e-05
88 *2256:A2 *819:95 0.000149249
89 *2256:B2 *2256:C1 4.46376e-05
90 *2257:B1 *2256:C1 5.83121e-06
91 *2257:B1 *2258:C1 1.01661e-05
92 *2257:B1 *819:95 2.75229e-05
93 *2258:A2 *2260:C1 8.26048e-06
94 *2258:B2 *2258:C1 2.06767e-05
95 *2258:B2 *2260:C1 4.81835e-05
96 *2258:B2 *819:80 5.26391e-05
97 *2258:B2 *819:95 0.000134379
98 *2259:A1 *2260:C1 0.000164874
99 *2259:B1 *2260:C1 6.02853e-05
100 *2260:B2 *2260:C1 3.26889e-05
101 *2261:A1 *2262:C1 9.50342e-06
102 *2262:B2 *2262:C1 0.00011398
103 *2262:B2 *819:143 0
104 *2582:A *819:18 3.63577e-05
105 *2597:A *819:18 0.000158066
106 *2608:A *2607:A 3.34252e-05
107 *2611:A *2607:A 1.91597e-05
108 *2611:A *819:18 9.27326e-05
109 *2634:A *819:18 1.34503e-05
110 *2673:A *819:68 4.77719e-05
111 *2677:A *2252:C1 4.58243e-05
112 *117:44 *2249:B1 1.0129e-05
113 *117:44 *819:68 0.000750815
114 *118:61 *819:43 5.83121e-06
115 *118:61 *819:68 1.07797e-05
116 *119:27 *819:80 0.000100279
117 *121:65 *819:143 0
118 *127:10 *2262:C1 7.96996e-05
119 *223:10 *819:80 0
120 *224:12 *2260:C1 0.000119866
121 *262:10 *2252:C1 0.000107636
122 *372:10 *819:18 0
123 *375:10 *819:143 0
124 *376:10 *819:143 0
125 *395:12 *2249:B1 5.21607e-05
126 *422:47 *819:143 0
127 *425:50 *819:22 0.000405872
128 *544:21 *819:80 0.000138271
129 *717:33 *819:18 4.60584e-05
130 *725:45 *2252:C1 7.47284e-05
131 *727:21 *819:18 0.000110539
*RES
1 *2608:X *819:4 1.6 
2 *819:4 *819:18 23.9325 
3 *819:18 *819:22 2.1112 
4 *819:22 *819:26 1.00413 
5 *819:26 *2249:B1 7.545 
6 *819:26 *819:43 5.4125 
7 *819:43 *2252:C1 12.44 
8 *819:43 *819:68 14.5 
9 *819:68 *819:80 13.525 
10 *819:80 *2256:C1 4.48 
11 *819:80 *819:95 5.12 
12 *819:95 *2260:C1 11.46 
13 *819:95 *2258:C1 4.215 
14 *819:68 *2254:C1 1.6 
15 *819:22 *2250:C1 4.8425 
16 *819:18 *819:143 19.0625 
17 *819:143 *2262:C1 11.555 
18 *819:143 *2264:C1 3.085 
19 *819:4 *2607:A 3.89125 
*END

*D_NET *820 0.0137913
*CONN
*I *2284:C I *D sky130_fd_sc_hd__and3_1
*I *2288:C I *D sky130_fd_sc_hd__and3_1
*I *2290:C I *D sky130_fd_sc_hd__and3_1
*I *2267:A2 I *D sky130_fd_sc_hd__o21a_1
*I *2292:C I *D sky130_fd_sc_hd__and3_1
*I *2265:A2 I *D sky130_fd_sc_hd__o21a_1
*I *2282:C I *D sky130_fd_sc_hd__and3_1
*I *2271:A2 I *D sky130_fd_sc_hd__o21a_1
*I *2280:C I *D sky130_fd_sc_hd__and3_1
*I *2269:A2 I *D sky130_fd_sc_hd__o21a_1
*I *2609:X O *D sky130_fd_sc_hd__clkbuf_2
*CAP
1 *2284:C 0.000301334
2 *2288:C 0.000242015
3 *2290:C 0.000728906
4 *2267:A2 1.31277e-05
5 *2292:C 0
6 *2265:A2 0.000177327
7 *2282:C 1.31524e-05
8 *2271:A2 0.000331248
9 *2280:C 0
10 *2269:A2 0.000219387
11 *2609:X 2.89741e-05
12 *820:111 0.00118258
13 *820:78 0.000292876
14 *820:76 0.000546281
15 *820:72 0.00103007
16 *820:64 0.000808742
17 *820:31 0.000559455
18 *820:25 0.000291262
19 *820:23 0.000349148
20 *820:6 0.000441004
21 *2265:A2 *2292:A 3.67082e-05
22 *2265:A2 *828:16 5.90459e-05
23 *2265:A2 *852:117 2.20732e-05
24 *2269:A2 *2637:A 0.000121508
25 *2269:A2 *852:16 1.88904e-05
26 *2269:A2 *852:20 1.01661e-05
27 *2269:A2 *852:26 6.73665e-05
28 *2271:A2 *2282:A 1.52184e-05
29 *2271:A2 *2469:RESET_B 1.73877e-05
30 *2271:A2 *845:51 0.000274351
31 *2271:A2 *845:98 7.21296e-06
32 *2284:C *2284:A 4.11961e-05
33 *2284:C *2286:C 0
34 *2284:C *845:98 8.69182e-05
35 *2288:C *2474:RESET_B 2.67022e-05
36 *2288:C *842:90 1.70906e-05
37 *2290:C *842:118 4.17708e-06
38 *2290:C *851:39 0.000428764
39 *2290:C *851:53 0
40 *820:6 *2609:A 2.49909e-05
41 *820:23 *2609:A 9.90606e-05
42 *820:23 *2638:A 2.8185e-05
43 *820:25 *2286:C 0
44 *820:25 *821:54 0
45 *820:31 *2270:A1 0.000198939
46 *820:31 *2638:A 3.23391e-05
47 *820:31 *845:55 9.11353e-05
48 *820:31 *852:16 8.53113e-06
49 *820:64 *2286:C 0
50 *820:78 *2292:A 0.000129612
51 *820:78 *828:16 6.16095e-05
52 *820:111 *842:84 0.000364911
53 *919:DIODE *820:111 0.000251948
54 *2207:A *2284:C 0.000124895
55 *2265:A1 *2265:A2 7.06865e-05
56 *2267:A1 *2267:A2 3.26889e-05
57 *2267:A1 *820:76 0.000285975
58 *2269:A1 *2269:A2 7.35813e-05
59 *2271:B1 *2271:A2 3.86529e-05
60 *2282:B *820:23 5.83121e-06
61 *2283:B1 *2284:C 1.07797e-05
62 *2283:B1 *820:64 0.00015428
63 *2283:B1 *820:72 4.82919e-05
64 *2285:A1 *2284:C 0.00059759
65 *2285:B1 *2284:C 0.000134276
66 *2287:B1 *2288:C 7.06865e-05
67 *2293:A2 *2269:A2 0.000309429
68 *2293:B1 *820:76 1.73858e-05
69 *2293:B1 *820:78 1.17409e-05
70 *2509:D *820:72 0.000198945
71 *2510:D *2284:C 1.16578e-05
72 *2511:D *2288:C 4.01778e-05
73 *2511:D *2290:C 4.16353e-05
74 *2512:CLK *2290:C 0.00016063
75 *2599:A *2290:C 2.49909e-05
76 *2616:A *2265:A2 0.000110315
77 *2639:A *820:23 4.82863e-05
78 *126:33 *2265:A2 0.000266612
79 *215:10 *2271:A2 7.4027e-05
80 *222:23 *820:72 0.000107415
81 *717:234 *820:111 0.00011741
82 *730:38 *2265:A2 5.83121e-06
83 *731:46 *2290:C 0.000103432
84 *814:25 *2269:A2 1.47256e-05
85 *814:47 *2271:A2 0
86 *814:47 *2284:C 1.71013e-05
87 *814:47 *820:25 3.73751e-05
88 *814:47 *820:31 3.67779e-05
89 *814:47 *820:64 0.000176629
90 *814:56 *2284:C 0.000107666
91 *818:62 *2271:A2 0
*RES
1 *2609:X *820:6 2.05 
2 *820:6 *2269:A2 10.76 
3 *820:6 *820:23 5.555 
4 *820:23 *820:25 0.87 
5 *820:25 *820:31 5.45 
6 *820:31 *2280:C 1.6 
7 *820:31 *2271:A2 12.38 
8 *820:25 *2282:C 3.765 
9 *820:23 *820:64 3.675 
10 *820:64 *820:72 8.09 
11 *820:72 *820:76 5.295 
12 *820:76 *820:78 2.4 
13 *820:78 *2265:A2 10.13 
14 *820:78 *2292:C 1.6 
15 *820:76 *2267:A2 1.96 
16 *820:72 *820:111 11.5 
17 *820:111 *2290:C 15.365 
18 *820:111 *2288:C 8.81 
19 *820:64 *2284:C 12.465 
*END

*D_NET *821 0.0128987
*CONN
*I *2279:A2 I *D sky130_fd_sc_hd__o21a_1
*I *2273:A2 I *D sky130_fd_sc_hd__o21a_1
*I *2286:C I *D sky130_fd_sc_hd__and3_1
*I *2609:A I *D sky130_fd_sc_hd__clkbuf_2
*I *2275:A2 I *D sky130_fd_sc_hd__o21a_1
*I *2277:A2 I *D sky130_fd_sc_hd__o21a_1
*I *2610:X O *D sky130_fd_sc_hd__clkbuf_2
*CAP
1 *2279:A2 0.000278338
2 *2273:A2 0.000225457
3 *2286:C 0.000649935
4 *2609:A 0.000117931
5 *2275:A2 6.05382e-05
6 *2277:A2 0.000481766
7 *2610:X 0
8 *821:54 0.00148657
9 *821:44 0.00125944
10 *821:31 0.000486068
11 *821:16 0.0010311
12 *821:6 0.000717416
13 *2273:A2 *829:86 0.000352156
14 *2273:A2 *829:101 2.09185e-05
15 *2277:A2 *2471:RESET_B 4.4098e-05
16 *2277:A2 *854:84 0.000237249
17 *2279:A2 *930:DIODE 1.19928e-05
18 *2279:A2 *2326:A1_N 4.80414e-05
19 *2279:A2 *822:18 1.12129e-05
20 *2279:A2 *847:80 0
21 *2279:A2 *847:86 0
22 *2279:A2 *847:90 3.11262e-05
23 *2286:C *853:46 0
24 *2609:A *2638:A 0.00016063
25 *2609:A *853:8 0.000155497
26 *821:16 *2278:A1 0.000684902
27 *821:16 *826:22 6.20254e-05
28 *821:16 *842:62 0
29 *821:16 *854:112 0.00013361
30 *821:31 *854:112 7.99217e-05
31 *821:44 *2470:RESET_B 0.000112971
32 *821:44 *845:42 0.000109429
33 *821:44 *854:112 5.11035e-05
34 *821:54 *2638:A 0.000104221
35 *2089:A *2277:A2 2.39856e-05
36 *2156:B1 *821:31 0
37 *2156:B1 *821:44 0
38 *2249:A2 *821:16 0.000424005
39 *2269:A1 *821:54 0.000114492
40 *2272:B2 *2273:A2 1.12643e-05
41 *2272:B2 *821:54 7.23635e-05
42 *2275:A1 *821:44 0.000118513
43 *2279:A1 *2279:A2 2.75145e-05
44 *2283:B1 *2286:C 0.000164279
45 *2284:C *2286:C 0
46 *2286:B *2286:C 1.56428e-05
47 *2293:A1 *2286:C 9.05377e-05
48 *2293:A2 *2286:C 0
49 *2471:D *2277:A2 5.83121e-06
50 *2509:D *2286:C 0
51 *2510:D *2286:C 0
52 *2604:A *821:44 0
53 *2604:A *821:54 0
54 *2634:A *821:54 0.00064031
55 *2639:A *2286:C 1.93416e-05
56 *2639:A *2609:A 4.82863e-05
57 *2639:A *821:54 0.000263278
58 *2711:A *2286:C 0
59 *111:10 *821:54 0.000259214
60 *112:10 *821:44 0
61 *112:16 *821:44 0
62 *113:6 *2277:A2 0.000257157
63 *113:12 *2277:A2 0.000181005
64 *372:10 *2279:A2 0.000221321
65 *372:10 *821:16 3.58155e-05
66 *448:58 *2279:A2 7.58604e-05
67 *722:36 *2286:C 0.000114492
68 *733:21 *821:16 0
69 *814:47 *821:54 0
70 *814:69 *2286:C 0
71 *814:84 *2286:C 8.35213e-05
72 *818:50 *821:44 0.00026898
73 *818:62 *821:54 0
74 *819:18 *821:16 3.19427e-05
75 *820:6 *2609:A 2.49909e-05
76 *820:23 *2609:A 9.90606e-05
77 *820:25 *2286:C 0
78 *820:25 *821:54 0
79 *820:64 *2286:C 0
*RES
1 *2610:X *821:6 3.6 
2 *821:6 *821:16 6.23833 
3 *821:16 *2277:A2 13.14 
4 *821:16 *821:31 1.89 
5 *821:31 *2275:A2 4.395 
6 *821:31 *821:44 10.01 
7 *821:44 *821:54 16.925 
8 *821:54 *2609:A 6.81 
9 *821:54 *2286:C 16.2 
10 *821:44 *2273:A2 5.86 
11 *821:6 *2279:A2 9.03 
*END

*D_NET *822 0.0171188
*CONN
*I *2610:A I *D sky130_fd_sc_hd__clkbuf_2
*I *2263:A2 I *D sky130_fd_sc_hd__o21a_1
*I *2261:A2 I *D sky130_fd_sc_hd__o21a_1
*I *2259:A2 I *D sky130_fd_sc_hd__o21a_1
*I *2257:A2 I *D sky130_fd_sc_hd__o21a_1
*I *2253:A2 I *D sky130_fd_sc_hd__o21a_1
*I *2251:A2 I *D sky130_fd_sc_hd__o21a_1
*I *2255:A2 I *D sky130_fd_sc_hd__o21a_1
*I *2611:X O *D sky130_fd_sc_hd__buf_2
*CAP
1 *2610:A 0
2 *2263:A2 0
3 *2261:A2 0
4 *2259:A2 0
5 *2257:A2 0.000426543
6 *2253:A2 0
7 *2251:A2 0.000502731
8 *2255:A2 0.000222928
9 *2611:X 0.00037702
10 *822:77 0.00112638
11 *822:50 0.00112195
12 *822:44 0.000956437
13 *822:34 0.000720794
14 *822:32 0.000857986
15 *822:30 0.00210044
16 *822:18 0.00208574
17 *2251:A2 *846:18 0.000104639
18 *2257:A2 *2258:B1 0
19 *822:18 *932:DIODE 5.39357e-05
20 *822:18 *2278:A1 1.35034e-05
21 *822:18 *826:22 0.000139095
22 *822:18 *847:80 1.37895e-05
23 *822:30 *2247:A 8.65905e-05
24 *822:30 *2326:A1_N 0.000421068
25 *822:30 *2500:RESET_B 2.9478e-05
26 *822:30 *2627:A 2.70988e-05
27 *822:30 *826:24 3.83041e-05
28 *822:30 *826:38 0.000205879
29 *822:30 *840:18 1.16578e-05
30 *822:30 *842:36 1.01152e-05
31 *822:30 *842:62 9.80032e-06
32 *822:30 *852:117 1.31017e-05
33 *822:32 *841:34 0.000123894
34 *822:34 *841:34 5.68801e-05
35 *822:34 *841:40 9.27255e-06
36 *822:44 *828:40 8.52039e-05
37 *822:44 *850:88 7.06865e-05
38 *822:50 *2258:B1 1.31901e-05
39 *822:77 *828:68 0
40 *1974:A *822:77 0
41 *2150:B2 *822:30 3.26822e-05
42 *2169:C *822:77 7.17012e-05
43 *2170:B1 *822:77 9.37731e-05
44 *2174:A *822:77 0
45 *2187:A_N *822:30 0
46 *2187:B *822:30 0.000360604
47 *2189:B1 *822:30 0
48 *2190:B *822:30 0
49 *2251:A1 *2251:A2 6.6925e-05
50 *2251:B1 *2251:A2 3.64998e-06
51 *2253:A1 *2251:A2 9.50342e-06
52 *2253:A1 *822:77 0.000117832
53 *2253:B1 *2251:A2 9.57385e-05
54 *2255:A1 *2255:A2 4.62479e-05
55 *2255:B1 *822:77 0
56 *2257:A1 *2257:A2 1.99638e-05
57 *2258:A2 *2257:A2 0.000112147
58 *2258:B2 *822:77 0.000156593
59 *2260:B2 *822:34 0.000198939
60 *2260:C1 *822:34 0.000142669
61 *2261:B1 *822:34 0.000124007
62 *2262:A2 *822:32 5.80482e-06
63 *2263:A1 *822:30 0.000223194
64 *2263:B1 *822:32 5.34747e-05
65 *2266:A2 *822:30 0.000137571
66 *2268:A2 *822:30 0
67 *2268:B2 *822:30 0.000157626
68 *2279:A2 *822:18 1.12129e-05
69 *2463:CLK *2257:A2 0.000240183
70 *2463:CLK *822:50 0.000161418
71 *2468:CLK *822:30 5.06694e-05
72 *2497:CLK *2257:A2 8.76598e-05
73 *2502:CLK *822:30 4.38278e-05
74 *2604:A *822:30 0
75 *2608:A *822:18 3.79595e-05
76 *2611:A *822:18 0.000257474
77 *2611:A *822:30 2.0514e-05
78 *2629:A *822:18 0.000141303
79 *1:15 *822:30 0.000379008
80 *109:10 *822:30 9.86611e-05
81 *109:12 *822:30 0.000130846
82 *109:18 *822:30 0.000111641
83 *109:62 *822:30 6.36578e-05
84 *109:75 *822:30 0.000107995
85 *118:61 *822:77 6.97528e-06
86 *119:27 *822:77 2.97802e-05
87 *224:12 *2257:A2 1.94182e-05
88 *224:12 *822:50 3.03586e-05
89 *544:21 *2255:A2 2.76356e-05
90 *544:21 *822:50 7.65948e-05
91 *544:21 *822:77 1.47788e-05
92 *554:10 *822:30 0
93 *717:33 *822:30 0.000373965
94 *717:46 *822:30 0
95 *730:46 *822:30 1.32843e-05
96 *730:52 *822:30 4.39911e-06
97 *730:52 *822:32 2.12949e-05
98 *791:47 *822:77 6.58266e-05
99 *819:68 *2251:A2 0
100 *819:80 *822:77 0.000223699
*RES
1 *2611:X *822:18 9.13547 
2 *822:18 *822:30 39.37 
3 *822:30 *822:32 4.935 
4 *822:32 *822:34 6.315 
5 *822:34 *822:44 9.39 
6 *822:44 *822:50 7.25 
7 *822:50 *2255:A2 4.12 
8 *822:50 *822:77 20.68 
9 *822:77 *2251:A2 10.725 
10 *822:77 *2253:A2 3.6 
11 *822:44 *2257:A2 10.65 
12 *822:34 *2259:A2 1.6 
13 *822:32 *2261:A2 1.6 
14 *822:30 *2263:A2 1.6 
15 *822:18 *2610:A 1.6 
*END

*D_NET *823 0.0207193
*CONN
*I *2393:B1 I *D sky130_fd_sc_hd__o32ai_1
*I *2248:B I *D sky130_fd_sc_hd__nand2_1
*I *2381:S I *D sky130_fd_sc_hd__mux2_1
*I *2372:S I *D sky130_fd_sc_hd__mux2_1
*I *2405:A2 I *D sky130_fd_sc_hd__o21a_1
*I *2397:A2 I *D sky130_fd_sc_hd__o21a_1
*I *2401:A2 I *D sky130_fd_sc_hd__o21a_1
*I *2367:A2 I *D sky130_fd_sc_hd__o21a_1
*I *2331:S I *D sky130_fd_sc_hd__mux2_1
*I *2328:A1 I *D sky130_fd_sc_hd__a22o_1
*I *2612:X O *D sky130_fd_sc_hd__clkbuf_4
*CAP
1 *2393:B1 0.000102228
2 *2248:B 0.000229785
3 *2381:S 0
4 *2372:S 0.000173916
5 *2405:A2 0.000134441
6 *2397:A2 0
7 *2401:A2 0
8 *2367:A2 0.000331122
9 *2331:S 0
10 *2328:A1 0.000324959
11 *2612:X 0.00042348
12 *823:90 0.000791815
13 *823:75 0.00192618
14 *823:60 0.00171134
15 *823:58 0.000794537
16 *823:28 0.000613306
17 *823:26 0.00111894
18 *823:24 0.000625032
19 *823:20 0.00130258
20 *823:16 0.00129486
21 *2248:B *847:214 7.37606e-05
22 *2328:A1 *839:16 1.08523e-05
23 *2328:A1 *839:18 0.000338226
24 *2328:A1 *842:10 0
25 *2367:A2 *847:124 7.00889e-06
26 *2405:A2 *825:41 7.71289e-05
27 *2405:A2 *825:52 9.50342e-06
28 *2405:A2 *826:172 0.000159763
29 *823:16 *2393:A2 0.000251709
30 *823:16 *844:14 0.000585918
31 *823:16 *854:12 8.95484e-05
32 *823:20 *839:16 0
33 *823:20 *844:14 0.000179938
34 *823:24 *2546:RESET_B 0
35 *823:58 *847:108 0
36 *823:75 *2544:RESET_B 0.000164783
37 *823:90 *2404:C1 0.000112123
38 *823:90 *837:124 0.000274771
39 *823:90 *837:130 0.000167955
40 *823:90 *854:33 1.79536e-05
41 *1986:A *2393:B1 4.82863e-05
42 *1986:B *2393:B1 4.82919e-05
43 *1991:A *2393:B1 1.87674e-05
44 *2058:B *823:58 0
45 *2072:A_N *823:58 7.47145e-05
46 *2073:A *823:58 9.42145e-05
47 *2073:B *823:58 4.31189e-05
48 *2331:A1 *2328:A1 0.000247567
49 *2367:A1 *2367:A2 0.000241483
50 *2369:A1 *823:58 0.000136523
51 *2369:A2 *823:58 0.000167157
52 *2369:C1 *823:58 1.38422e-05
53 *2371:A2 *2367:A2 0
54 *2371:A2 *823:58 0
55 *2371:A2 *823:60 0
56 *2371:B2 *2367:A2 0.000171938
57 *2371:B2 *823:60 7.24866e-05
58 *2372:A0 *2372:S 5.30673e-05
59 *2375:B1 *823:58 3.17967e-05
60 *2376:B1 *823:75 0.000162311
61 *2377:B1 *2248:B 0.000118195
62 *2377:B1 *823:24 0.000742302
63 *2380:A3 *823:24 1.17114e-05
64 *2381:A0 *823:26 1.47256e-05
65 *2381:A1 *823:26 4.66108e-05
66 *2382:A1 *823:24 6.60009e-05
67 *2384:A1_N *823:24 0
68 *2385:B2 *2248:B 0
69 *2385:B2 *823:24 0
70 *2388:A2 *2393:B1 0.000193801
71 *2391:B1 *823:16 0.000320367
72 *2391:B1 *823:20 0.00067772
73 *2393:A3 *2393:B1 5.17168e-05
74 *2398:C1 *2405:A2 0.000139238
75 *2401:A1 *823:90 0.000326915
76 *2401:B1 *823:75 3.72916e-05
77 *2401:B1 *823:90 1.61831e-05
78 *2403:B *823:90 0.000191497
79 *2534:D *2328:A1 0.000117825
80 *2535:D *823:28 8.40213e-05
81 *2544:CLK *823:75 5.83121e-06
82 *2544:D *823:60 3.89528e-05
83 *2545:D *823:75 2.531e-05
84 *2546:D *823:26 8.16598e-05
85 *2549:CLK *2393:B1 9.67081e-06
86 *2551:CLK *823:75 3.07153e-05
87 *2629:A *823:20 0
88 *246:19 *823:58 0
89 *246:19 *823:60 3.46842e-05
90 *247:12 *823:75 0.000115146
91 *249:12 *823:24 9.87526e-05
92 *250:27 *2248:B 0
93 *253:14 *2405:A2 1.91597e-05
94 *253:18 *2405:A2 5.83121e-06
95 *253:18 *823:90 8.63479e-05
96 *254:23 *823:90 3.46611e-05
97 *353:18 *823:16 0.000291726
98 *354:40 *823:58 6.08203e-05
99 *354:61 *823:58 9.58173e-05
100 *443:52 *2248:B 0
101 *457:70 *2328:A1 0
102 *674:10 *823:58 0
103 *674:27 *2372:S 9.66106e-05
104 *688:22 *2393:B1 2.74151e-05
105 *726:17 *2328:A1 0.000115847
106 *726:21 *2328:A1 0.000119964
107 *732:14 *823:90 0
108 *732:16 *823:75 4.92604e-05
109 *732:58 *2393:B1 2.73058e-05
110 *732:62 *2393:B1 4.66108e-05
*RES
1 *2612:X *823:16 8.38643 
2 *823:16 *823:20 2.286 
3 *823:20 *823:24 10.6475 
4 *823:24 *823:26 5.28 
5 *823:26 *823:28 4.245 
6 *823:28 *2328:A1 14.675 
7 *823:28 *2331:S 1.6 
8 *823:26 *823:58 13.055 
9 *823:58 *823:60 2.91 
10 *823:60 *2367:A2 10.17 
11 *823:60 *823:75 17.63 
12 *823:75 *2401:A2 1.6 
13 *823:75 *823:90 16.27 
14 *823:90 *2397:A2 1.6 
15 *823:90 *2405:A2 9.47 
16 *823:58 *2372:S 6.81 
17 *823:24 *2381:S 1.6 
18 *823:20 *2248:B 7.6575 
19 *823:16 *2393:B1 7.1225 
*END

*D_NET *824 0.0250646
*CONN
*I *923:DIODE I *D sky130_fd_sc_hd__diode_2
*I *2612:A I *D sky130_fd_sc_hd__clkbuf_4
*I *922:DIODE I *D sky130_fd_sc_hd__diode_2
*I *873:DIODE I *D sky130_fd_sc_hd__diode_2
*I *2294:A2 I *D sky130_fd_sc_hd__o21a_1
*I *887:DIODE I *D sky130_fd_sc_hd__diode_2
*I *2358:A2 I *D sky130_fd_sc_hd__o22a_1
*I *890:DIODE I *D sky130_fd_sc_hd__diode_2
*I *2353:S I *D sky130_fd_sc_hd__mux2_1
*I *886:DIODE I *D sky130_fd_sc_hd__diode_2
*I *2348:A2 I *D sky130_fd_sc_hd__o22a_1
*I *879:DIODE I *D sky130_fd_sc_hd__diode_2
*I *2335:A2 I *D sky130_fd_sc_hd__o21a_1
*I *2339:S I *D sky130_fd_sc_hd__mux2_1
*I *881:DIODE I *D sky130_fd_sc_hd__diode_2
*I *883:DIODE I *D sky130_fd_sc_hd__diode_2
*I *2343:S I *D sky130_fd_sc_hd__mux2_1
*I *2363:S I *D sky130_fd_sc_hd__mux2_1
*I *891:DIODE I *D sky130_fd_sc_hd__diode_2
*I *2613:X O *D sky130_fd_sc_hd__clkbuf_4
*CAP
1 *923:DIODE 0.000248814
2 *2612:A 6.33715e-05
3 *922:DIODE 0
4 *873:DIODE 5.77043e-05
5 *2294:A2 0
6 *887:DIODE 0.000109929
7 *2358:A2 0
8 *890:DIODE 0
9 *2353:S 0.000137146
10 *886:DIODE 0
11 *2348:A2 0
12 *879:DIODE 0.000112144
13 *2335:A2 3.42883e-05
14 *2339:S 0
15 *881:DIODE 7.71331e-05
16 *883:DIODE 0
17 *2343:S 3.52687e-05
18 *2363:S 0
19 *891:DIODE 1.27426e-05
20 *2613:X 0
21 *824:221 0.000485026
22 *824:202 0.00106526
23 *824:136 0.000502478
24 *824:119 0.000450231
25 *824:106 0.000492094
26 *824:89 0.000385223
27 *824:76 0.000371037
28 *824:70 0.00058621
29 *824:56 0.000806941
30 *824:50 0.000710277
31 *824:46 0.000240265
32 *824:44 0.000538851
33 *824:28 3.85183e-05
34 *824:24 0.000463877
35 *824:22 0.00351931
36 *824:10 0.0044407
37 *824:6 0.000435452
38 *824:4 0.000526091
39 *879:DIODE *840:99 0.000154981
40 *891:DIODE *840:46 8.8266e-05
41 *923:DIODE *844:8 7.00115e-05
42 *2335:A2 *840:99 4.77153e-05
43 *2353:S *826:70 0
44 *824:22 *2392:A2_N 4.56214e-05
45 *824:22 *837:73 0
46 *824:24 *2352:B2 0
47 *824:28 *2352:B2 0
48 *824:44 *826:58 9.27255e-06
49 *824:44 *840:46 9.43751e-05
50 *824:56 *2539:RESET_B 4.82863e-05
51 *824:56 *826:70 0
52 *824:70 *2539:RESET_B 7.06865e-05
53 *824:70 *2540:RESET_B 0.000345081
54 *824:76 *2540:RESET_B 6.45107e-05
55 *824:106 *2346:B 0
56 *824:119 *840:105 8.87475e-05
57 *824:202 *2392:A2_N 0
58 *824:202 *2506:RESET_B 0.000137894
59 *824:202 *829:76 0
60 *824:202 *829:86 0
61 *824:202 *854:106 0.000336247
62 *824:202 *856:69 9.0087e-05
63 *1991:A *824:22 0.000166525
64 *1992:A *824:22 0.000273369
65 *1994:B *824:22 5.16348e-05
66 *1999:B *824:22 0
67 *2005:A *824:136 0.000185793
68 *2006:B *824:119 1.22505e-05
69 *2029:A2 *824:136 0.000139238
70 *2030:B *824:136 9.31601e-05
71 *2047:C_N *824:136 9.16019e-05
72 *2076:A2 *824:22 0.000193684
73 *2085:A1 *923:DIODE 7.00115e-05
74 *2271:A1 *824:202 0
75 *2274:A2 *824:202 0
76 *2294:A1 *873:DIODE 2.11084e-05
77 *2342:A2 *824:106 0.000198344
78 *2342:A3 *824:106 0.00011099
79 *2342:B2 *881:DIODE 1.56428e-05
80 *2342:B2 *824:106 3.64998e-06
81 *2342:B2 *824:119 7.5416e-05
82 *2343:A1 *824:106 8.59023e-05
83 *2347:A3 *824:76 0.000185398
84 *2347:A3 *824:89 0.000116165
85 *2348:A1 *824:70 2.97746e-05
86 *2348:B1 *824:76 4.99619e-05
87 *2348:B2 *824:70 1.59888e-05
88 *2348:B2 *824:76 6.55406e-05
89 *2357:A1 *824:44 0.000227261
90 *2357:A1 *824:46 0.000160635
91 *2358:B1 *824:56 0
92 *2362:A1 *887:DIODE 0.000239807
93 *2377:B2 *824:22 5.63192e-05
94 *2380:A3 *824:22 0
95 *2389:A1 *824:6 0.000122331
96 *2389:A1 *824:10 0.0001249
97 *2393:A1 *824:6 2.75229e-05
98 *2393:A1 *824:221 4.92062e-05
99 *2393:A3 *824:22 3.04786e-05
100 *2395:A *824:22 3.47757e-05
101 *2395:B *824:22 0.000143266
102 *2399:B *824:22 0.000139566
103 *2503:CLK *824:202 3.1562e-06
104 *2540:CLK *824:70 0
105 *2541:CLK *824:56 0.000161204
106 *2541:D *824:56 4.75576e-05
107 *2562:CLK *824:202 0.000189426
108 *2665:A *824:202 0
109 *2695:A *824:136 0
110 *240:8 *824:136 8.49205e-05
111 *240:18 *824:106 2.50702e-05
112 *240:18 *824:119 7.71016e-05
113 *241:32 *2343:S 8.52845e-05
114 *242:12 *824:70 3.86529e-05
115 *243:6 *824:46 7.49327e-05
116 *243:6 *824:50 0.0001249
117 *243:10 *2353:S 0
118 *245:10 *824:24 9.28013e-05
119 *245:10 *824:28 5.23362e-05
120 *245:23 *824:24 9.67081e-06
121 *250:27 *824:22 3.48563e-05
122 *250:29 *824:22 2.10036e-05
123 *251:20 *824:6 9.14692e-05
124 *253:20 *824:22 0.000102184
125 *253:26 *824:22 2.68721e-05
126 *372:33 *824:202 6.27968e-05
127 *372:35 *824:22 9.26619e-05
128 *372:35 *824:202 0.000535661
129 *397:6 *824:106 5.83121e-06
130 *421:12 *824:106 1.41095e-05
131 *421:12 *824:119 7.21296e-06
132 *436:12 *2343:S 5.83121e-06
133 *467:18 *824:22 0.000257708
134 *651:10 *824:119 0
135 *677:22 *923:DIODE 6.81368e-05
136 *677:22 *2612:A 8.65905e-05
137 *677:22 *824:6 3.5991e-05
138 *677:22 *824:221 4.00796e-05
139 *677:65 *923:DIODE 1.08758e-05
140 *721:18 *824:202 0.000109009
141 *733:78 *824:202 0.000122279
142 *733:87 *824:202 1.74429e-05
143 *814:112 *824:202 3.64998e-06
*RES
1 *2613:X *824:4 1.6 
2 *824:4 *824:6 4.59 
3 *824:6 *824:10 3.14 
4 *824:10 *824:22 26.314 
5 *824:22 *824:24 1.2525 
6 *824:24 *824:28 2.615 
7 *824:28 *891:DIODE 2.395 
8 *824:28 *2363:S 1.6 
9 *824:24 *824:44 7.28 
10 *824:44 *824:46 2.175 
11 *824:46 *824:50 3.14 
12 *824:50 *824:56 8.735 
13 *824:56 *824:70 12.95 
14 *824:70 *824:76 7.67 
15 *824:76 *2343:S 4.395 
16 *824:76 *824:89 3.38 
17 *824:89 *883:DIODE 1.6 
18 *824:89 *824:106 9.565 
19 *824:106 *881:DIODE 2.395 
20 *824:106 *824:119 6.655 
21 *824:119 *2339:S 1.6 
22 *824:119 *824:136 11.095 
23 *824:136 *2335:A2 2.05 
24 *824:136 *879:DIODE 3.085 
25 *824:70 *2348:A2 1.6 
26 *824:56 *886:DIODE 1.6 
27 *824:50 *2353:S 5.43 
28 *824:46 *890:DIODE 1.6 
29 *824:44 *2358:A2 1.6 
30 *824:22 *887:DIODE 5.775 
31 *824:10 *824:202 23.855 
32 *824:202 *2294:A2 1.6 
33 *824:202 *873:DIODE 2.395 
34 *824:6 *922:DIODE 1.6 
35 *824:4 *824:221 2.175 
36 *824:221 *2612:A 3.265 
37 *824:221 *923:DIODE 9.335 
*END

*D_NET *825 0.0217112
*CONN
*I *2389:A2 I *D sky130_fd_sc_hd__a22o_1
*I *2385:A2 I *D sky130_fd_sc_hd__a22o_1
*I *2421:A2 I *D sky130_fd_sc_hd__a22o_1
*I *2415:A2 I *D sky130_fd_sc_hd__a22o_1
*I *2418:A2 I *D sky130_fd_sc_hd__a22o_1
*I *2377:A2 I *D sky130_fd_sc_hd__a22o_1
*I *2412:A2 I *D sky130_fd_sc_hd__a22o_1
*I *2408:A2 I *D sky130_fd_sc_hd__a22o_1
*I *2400:C1 I *D sky130_fd_sc_hd__a221o_1
*I *2396:C1 I *D sky130_fd_sc_hd__a221o_1
*I *2614:X O *D sky130_fd_sc_hd__buf_2
*CAP
1 *2389:A2 2.08101e-05
2 *2385:A2 0.000190001
3 *2421:A2 0.000381158
4 *2415:A2 0.000607513
5 *2418:A2 0
6 *2377:A2 0.00110442
7 *2412:A2 0.000678903
8 *2408:A2 4.57082e-05
9 *2400:C1 0
10 *2396:C1 0.000107106
11 *2614:X 0.000320694
12 *825:160 0.000656464
13 *825:119 0.000816259
14 *825:105 0.000812167
15 *825:60 0.00143881
16 *825:52 0.00191452
17 *825:41 0.000369103
18 *825:24 0.000860895
19 *825:16 0.000873942
20 *825:10 0.000937444
21 *2377:A2 *2400:A2 0.000262696
22 *2377:A2 *2404:C1 0.000144421
23 *2377:A2 *2551:RESET_B 1.01678e-05
24 *2377:A2 *854:47 7.30815e-05
25 *2385:A2 *844:39 0.000378519
26 *2396:C1 *837:124 2.7881e-05
27 *2415:A2 *843:18 0
28 *825:10 *826:22 3.64998e-06
29 *825:10 *826:164 4.01778e-05
30 *825:10 *826:172 1.01784e-05
31 *825:10 *826:210 1.19928e-05
32 *825:24 *2393:A2 3.80607e-05
33 *825:24 *2396:A2 8.1218e-05
34 *825:24 *826:172 0
35 *825:24 *843:56 8.82557e-05
36 *825:24 *843:67 0
37 *825:24 *854:12 0.000440804
38 *825:41 *826:172 0
39 *825:41 *837:124 0.000113695
40 *825:52 *895:DIODE 4.61256e-05
41 *825:52 *826:172 2.75604e-05
42 *825:60 *895:DIODE 3.59531e-06
43 *825:60 *2404:B2 4.00257e-05
44 *825:160 *2392:A2_N 4.66108e-05
45 *1962:A *825:16 8.49205e-05
46 *1962:A *825:105 0.000111461
47 *1982:A *2385:A2 0.000111901
48 *1982:A *2389:A2 0
49 *1982:A *825:160 0.000107424
50 *1982:B *2385:A2 5.80923e-05
51 *2000:A *825:24 6.15995e-05
52 *2083:A2 *2415:A2 5.33085e-05
53 *2084:B *825:119 9.37731e-05
54 *2243:A1 *2421:A2 3.38425e-05
55 *2243:A1 *825:105 4.66108e-05
56 *2243:A2 *825:105 1.17309e-05
57 *2376:B1 *2377:A2 1.67424e-05
58 *2377:A1 *2377:A2 1.75915e-05
59 *2377:B1 *2377:A2 3.20225e-05
60 *2377:B2 *2377:A2 5.81434e-06
61 *2391:B1 *825:24 1.92979e-05
62 *2392:B1 *825:10 0
63 *2392:B2 *825:16 8.23457e-05
64 *2393:A1 *825:10 0.000225492
65 *2393:A1 *825:16 8.53307e-05
66 *2396:A1 *2396:C1 3.64998e-06
67 *2396:A1 *825:24 2.1551e-05
68 *2396:B1 *2396:C1 0.000122337
69 *2397:B1 *2396:C1 4.66108e-05
70 *2397:B1 *825:24 0.000114024
71 *2397:B1 *825:41 0.000298435
72 *2398:B1 *825:41 0.000114492
73 *2398:C1 *825:41 0.000181376
74 *2401:A1 *825:60 2.42236e-05
75 *2402:A2 *2412:A2 0
76 *2404:B1 *825:60 4.7771e-05
77 *2405:A2 *825:41 7.71289e-05
78 *2405:A2 *825:52 9.50342e-06
79 *2407:A1 *825:60 6.26945e-05
80 *2408:A1 *2408:A2 0.000139231
81 *2408:A1 *2412:A2 0.000219012
82 *2408:B1 *2408:A2 7.30527e-05
83 *2408:B1 *2412:A2 0.000167489
84 *2411:B2 *2412:A2 0.000186627
85 *2412:B1 *2412:A2 0.000114424
86 *2414:B2 *2415:A2 4.9968e-05
87 *2415:B1 *2415:A2 5.39487e-05
88 *2415:B2 *2415:A2 2.49909e-05
89 *2417:A1 *2415:A2 0.000122331
90 *2417:B1 *2415:A2 8.40269e-05
91 *2418:B2 *825:119 5.83121e-06
92 *2420:A1 *825:119 5.16348e-05
93 *2421:B1 *2421:A2 5.4155e-06
94 *2547:D *2385:A2 4.66108e-05
95 *2549:CLK *825:160 4.57787e-05
96 *2549:D *825:10 0
97 *2549:D *825:160 0.0001249
98 *2551:CLK *2377:A2 7.35729e-05
99 *2551:D *2377:A2 3.54025e-05
100 *2552:D *825:60 1.19386e-05
101 *2556:D *2415:A2 0.000120655
102 *2613:A *825:10 9.40874e-05
103 *2717:A *825:105 0.000162311
104 *251:10 *825:10 5.93963e-05
105 *251:20 *825:160 6.16106e-05
106 *251:22 *825:160 0.00012116
107 *252:34 *825:16 0.00015639
108 *254:23 *825:41 5.16348e-05
109 *254:23 *825:52 2.13396e-05
110 *254:55 *2377:A2 8.06935e-06
111 *255:8 *825:60 0.000442049
112 *255:25 *825:52 0.000104872
113 *255:25 *825:60 0.000191663
114 *256:10 *2412:A2 7.5416e-05
115 *256:34 *2412:A2 0.000114492
116 *259:8 *2415:A2 2.8185e-05
117 *259:26 *825:119 9.50342e-06
118 *260:25 *2421:A2 0.000352438
119 *272:12 *825:119 4.9968e-05
120 *353:18 *825:16 0.00015639
121 *353:18 *825:105 8.49205e-05
122 *376:104 *825:10 0
123 *385:10 *825:160 3.81908e-06
124 *385:16 *825:24 6.95335e-05
125 *468:44 *2412:A2 0
126 *474:8 *825:119 0.000252275
127 *674:27 *2377:A2 8.86824e-05
128 *677:37 *2385:A2 9.81162e-05
129 *677:65 *825:119 5.36713e-05
130 *677:69 *825:119 0.000284548
131 *677:80 *2415:A2 0.000200641
132 *677:80 *825:119 8.23457e-05
133 *677:82 *2415:A2 2.23407e-05
134 *688:22 *825:16 4.47125e-05
135 *732:10 *2396:C1 0
*RES
1 *2614:X *825:10 9.27 
2 *825:10 *825:16 5.99 
3 *825:16 *825:24 16.24 
4 *825:24 *2396:C1 7.7 
5 *825:24 *825:41 9.755 
6 *825:41 *2400:C1 3.6 
7 *825:41 *825:52 2.34 
8 *825:52 *825:60 14.86 
9 *825:60 *2408:A2 5.235 
10 *825:60 *2412:A2 16.98 
11 *825:52 *2377:A2 19.1625 
12 *825:16 *825:105 4.59 
13 *825:105 *825:119 13.685 
14 *825:119 *2418:A2 1.6 
15 *825:119 *2415:A2 15.2 
16 *825:105 *2421:A2 6.82 
17 *825:10 *825:160 8.78 
18 *825:160 *2385:A2 6.895 
19 *825:160 *2389:A2 1.96 
*END

*D_NET *826 0.0264985
*CONN
*I *924:DIODE I *D sky130_fd_sc_hd__diode_2
*I *2614:A I *D sky130_fd_sc_hd__buf_2
*I *925:DIODE I *D sky130_fd_sc_hd__diode_2
*I *2404:C1 I *D sky130_fd_sc_hd__a221o_1
*I *895:DIODE I *D sky130_fd_sc_hd__diode_2
*I *2247:B I *D sky130_fd_sc_hd__nor2_1
*I *870:DIODE I *D sky130_fd_sc_hd__diode_2
*I *2327:B1 I *D sky130_fd_sc_hd__a31o_1
*I *875:DIODE I *D sky130_fd_sc_hd__diode_2
*I *878:DIODE I *D sky130_fd_sc_hd__diode_2
*I *2334:B1 I *D sky130_fd_sc_hd__a211o_1
*I *2366:C1 I *D sky130_fd_sc_hd__a221o_1
*I *894:DIODE I *D sky130_fd_sc_hd__diode_2
*I *889:DIODE I *D sky130_fd_sc_hd__diode_2
*I *2357:B1 I *D sky130_fd_sc_hd__a21o_1
*I *2347:B1 I *D sky130_fd_sc_hd__a31o_1
*I *885:DIODE I *D sky130_fd_sc_hd__diode_2
*I *2615:X O *D sky130_fd_sc_hd__buf_2
*CAP
1 *924:DIODE 2.70014e-05
2 *2614:A 0
3 *925:DIODE 0.000147896
4 *2404:C1 0.000347884
5 *895:DIODE 0.000275347
6 *2247:B 0
7 *870:DIODE 0
8 *2327:B1 1.8095e-05
9 *875:DIODE 0.000175562
10 *878:DIODE 0
11 *2334:B1 6.83569e-05
12 *2366:C1 9.2461e-06
13 *894:DIODE 0
14 *889:DIODE 0
15 *2357:B1 1.74138e-05
16 *2347:B1 0
17 *885:DIODE 0.000104852
18 *2615:X 2.08101e-05
19 *826:227 6.94142e-05
20 *826:210 0.000245253
21 *826:172 0.00146626
22 *826:164 0.000966374
23 *826:120 0.00106679
24 *826:70 0.000939654
25 *826:58 0.000951053
26 *826:56 0.000493047
27 *826:50 0.000451123
28 *826:48 0.000676551
29 *826:42 0.00173652
30 *826:40 0.000357939
31 *826:38 0.000810475
32 *826:24 0.000746816
33 *826:22 0.00105118
34 *826:6 0.00113127
35 *875:DIODE *874:DIODE 9.60582e-07
36 *875:DIODE *2327:A1 9.18292e-06
37 *885:DIODE *2347:A1 2.86975e-05
38 *895:DIODE *2400:A2 8.23457e-05
39 *895:DIODE *2404:A2 6.8725e-06
40 *924:DIODE *829:8 1.19928e-05
41 *925:DIODE *2392:A2_N 0.000155497
42 *925:DIODE *2393:A2 5.4003e-05
43 *925:DIODE *829:21 8.59365e-05
44 *925:DIODE *843:120 3.66286e-05
45 *2334:B1 *2334:A2 5.37791e-05
46 *2334:B1 *840:93 0.000122331
47 *2334:B1 *840:97 1.99109e-05
48 *2404:C1 *2400:B2 8.34281e-06
49 *2404:C1 *2551:RESET_B 5.83121e-06
50 *826:22 *2247:A 0.000278715
51 *826:22 *2278:A1 0.000290003
52 *826:22 *2548:RESET_B 8.53755e-05
53 *826:22 *837:48 0.000142635
54 *826:22 *847:80 3.97171e-05
55 *826:24 *842:62 2.75145e-05
56 *826:38 *1980:A1 8.23457e-05
57 *826:38 *2003:A 4.92062e-05
58 *826:38 *2003:B 4.21973e-05
59 *826:38 *2627:A 4.66108e-05
60 *826:38 *835:45 2.15594e-05
61 *826:38 *840:18 0
62 *826:38 *842:10 5.4003e-05
63 *826:38 *842:36 0.000348739
64 *826:38 *842:62 8.69182e-05
65 *826:40 *2327:A1 2.16389e-05
66 *826:40 *835:45 2.59981e-05
67 *826:42 *2327:A1 5.29318e-05
68 *826:42 *839:184 0
69 *826:42 *839:195 0
70 *826:42 *840:93 2.16306e-05
71 *826:48 *840:36 0.000100181
72 *826:48 *840:46 0
73 *826:48 *840:93 3.67779e-05
74 *826:50 *840:46 0
75 *826:56 *840:46 0.000415165
76 *826:58 *840:46 4.99619e-05
77 *826:70 *2347:A1 2.86975e-05
78 *826:70 *2539:RESET_B 0
79 *826:70 *839:131 8.34068e-05
80 *826:120 *839:52 0.00015639
81 *826:120 *840:93 0.000788536
82 *826:172 *2393:A2 2.75588e-05
83 *826:172 *843:67 0.000759499
84 *826:227 *829:8 5.83121e-06
85 *826:227 *837:30 5.4155e-06
86 *914:DIODE *826:38 0
87 *2000:A *826:172 8.34493e-05
88 *2022:A2 *826:38 9.14049e-05
89 *2023:A1 *826:38 2.37321e-05
90 *2023:B1 *2327:B1 8.49205e-05
91 *2025:A1 *826:120 8.73389e-06
92 *2025:B1 *826:120 5.34747e-05
93 *2042:A2 *826:120 4.92935e-05
94 *2042:B1 *826:120 3.00381e-05
95 *2042:C1 *826:120 2.26018e-05
96 *2064:B *826:48 0.000141592
97 *2249:A2 *826:22 7.28759e-05
98 *2327:A3 *2327:B1 8.49205e-05
99 *2329:B *826:120 1.19928e-05
100 *2347:A3 *885:DIODE 8.69583e-05
101 *2348:A1 *885:DIODE 2.68526e-05
102 *2348:A1 *826:70 4.46754e-05
103 *2348:B2 *885:DIODE 2.75145e-05
104 *2353:S *826:70 0
105 *2357:A1 *2357:B1 3.80008e-06
106 *2357:A1 *826:58 1.47347e-05
107 *2357:A1 *826:70 2.26018e-05
108 *2358:A1 *2357:B1 6.25566e-05
109 *2358:A1 *826:58 2.05056e-05
110 *2358:A1 *826:70 8.44338e-06
111 *2358:B2 *2357:B1 0
112 *2358:B2 *826:70 0.000164874
113 *2359:A *826:48 7.00066e-05
114 *2359:B *2366:C1 9.50342e-06
115 *2359:B *826:48 0.000230876
116 *2373:A *826:172 1.93765e-05
117 *2377:A2 *2404:C1 0.000144421
118 *2390:A2 *826:172 0.000182449
119 *2393:A1 *826:172 0.000117097
120 *2396:A1 *826:172 0.000463236
121 *2398:C1 *826:172 1.73877e-05
122 *2400:B1 *2404:C1 4.66108e-05
123 *2403:B *2404:C1 0.000115464
124 *2405:A2 *826:172 0.000159763
125 *2406:A *895:DIODE 0.00011577
126 *2540:D *826:70 7.51611e-05
127 *2541:D *826:70 0.000237249
128 *2548:CLK *826:22 0.000122331
129 *2552:D *895:DIODE 9.0444e-05
130 *2552:D *826:172 8.53113e-06
131 *2608:A *826:22 5.83121e-06
132 *2611:A *826:22 0.000255617
133 *2613:A *826:172 7.09926e-05
134 *2615:A *826:172 3.09164e-05
135 *2629:A *826:22 0
136 *242:12 *826:70 0.000163204
137 *242:19 *826:70 0.000189845
138 *243:6 *826:70 1.33293e-05
139 *245:10 *826:56 0
140 *252:10 *826:172 0.000104672
141 *252:12 *826:172 0.000222509
142 *253:33 *2404:C1 1.74678e-05
143 *254:6 *2404:C1 1.97779e-05
144 *254:55 *895:DIODE 8.73389e-06
145 *254:55 *2404:C1 2.38893e-05
146 *254:68 *895:DIODE 8.71128e-05
147 *255:25 *2404:C1 2.49909e-05
148 *255:32 *2404:C1 4.21973e-05
149 *353:18 *826:172 3.82072e-05
150 *385:10 *826:172 0.000100287
151 *385:16 *826:172 2.50049e-05
152 *414:12 *826:38 3.31204e-05
153 *414:12 *826:40 5.65627e-05
154 *414:12 *826:42 0.00013194
155 *416:18 *826:120 1.17309e-05
156 *416:26 *2334:B1 2.31329e-05
157 *438:12 *826:48 0.000164679
158 *442:10 *826:48 5.92269e-05
159 *448:24 *826:38 0.000102141
160 *448:28 *826:22 1.67513e-05
161 *457:70 *826:48 0
162 *482:12 *925:DIODE 0.000141606
163 *482:12 *826:172 0.000192583
164 *717:46 *826:38 0
165 *726:17 *826:38 0
166 *726:31 *2366:C1 4.13879e-05
167 *726:31 *826:48 8.99028e-05
168 *726:31 *826:50 0.000104457
169 *726:31 *826:56 6.92392e-05
170 *726:35 *826:56 3.09233e-05
171 *818:31 *826:22 0.00037666
172 *821:16 *826:22 6.20254e-05
173 *822:18 *826:22 0.000139095
174 *822:30 *826:24 3.83041e-05
175 *822:30 *826:38 0.000205879
176 *823:90 *2404:C1 0.000112123
177 *824:44 *826:58 9.27255e-06
178 *824:56 *826:70 0
179 *825:10 *826:22 3.64998e-06
180 *825:10 *826:164 4.01778e-05
181 *825:10 *826:172 1.01784e-05
182 *825:10 *826:210 1.19928e-05
183 *825:24 *826:172 0
184 *825:41 *826:172 0
185 *825:52 *895:DIODE 4.61256e-05
186 *825:52 *826:172 2.75604e-05
187 *825:60 *895:DIODE 3.59531e-06
*RES
1 *2615:X *826:6 1.96 
2 *826:6 *826:22 21.6303 
3 *826:22 *826:24 0.45 
4 *826:24 *826:38 19.44 
5 *826:38 *826:40 1.38 
6 *826:40 *826:42 3.42 
7 *826:42 *826:48 13.2075 
8 *826:48 *826:50 1.2525 
9 *826:50 *826:56 9.095 
10 *826:56 *826:58 1.89 
11 *826:58 *826:70 18.205 
12 *826:70 *885:DIODE 3.775 
13 *826:70 *2347:B1 1.6 
14 *826:58 *2357:B1 2.47 
15 *826:56 *889:DIODE 1.6 
16 *826:50 *894:DIODE 3.6 
17 *826:48 *2366:C1 4.0875 
18 *826:42 *826:120 17.75 
19 *826:120 *2334:B1 3.355 
20 *826:120 *878:DIODE 1.6 
21 *826:40 *875:DIODE 5.43 
22 *826:38 *2327:B1 4.395 
23 *826:24 *870:DIODE 1.6 
24 *826:22 *2247:B 1.6 
25 *826:6 *826:164 1.14 
26 *826:164 *826:172 25.865 
27 *826:172 *895:DIODE 8.97 
28 *826:172 *2404:C1 13.6862 
29 *826:164 *826:210 0.795 
30 *826:210 *925:DIODE 9.065 
31 *826:210 *826:227 0.81 
32 *826:227 *2614:A 1.6 
33 *826:227 *924:DIODE 2.05 
*END

*D_NET *827 0.00118882
*CONN
*I *2196:B I *D sky130_fd_sc_hd__or4_1
*I *2487:D I *D sky130_fd_sc_hd__dfrtp_1
*I *2728:X O *D sky130_fd_sc_hd__clkbuf_1
*CAP
1 *2196:B 0.000125822
2 *2487:D 0.000294741
3 *2728:X 0
4 *827:6 0.000420563
5 *2196:B *2490:D 1.61387e-05
6 *2196:B *860:8 4.66108e-05
7 *2487:D *2487:RESET_B 1.53577e-05
8 *2487:D *2488:RESET_B 7.70304e-07
9 *2487:D *2490:RESET_B 0
10 *2487:D *848:70 3.26223e-06
11 *2199:A *2487:D 0.000215582
12 *4:13 *2196:B 4.9968e-05
*RES
1 *2728:X *827:6 3.6 
2 *827:6 *2487:D 8.38875 
3 *827:6 *2196:B 5.43 
*END

*D_NET *828 0.0146355
*CONN
*I *2266:B1 I *D sky130_fd_sc_hd__a221o_1
*I *2264:B1 I *D sky130_fd_sc_hd__a221o_1
*I *2262:B1 I *D sky130_fd_sc_hd__a221o_1
*I *2260:B1 I *D sky130_fd_sc_hd__a221o_1
*I *2258:B1 I *D sky130_fd_sc_hd__a221o_1
*I *2256:B1 I *D sky130_fd_sc_hd__a221o_1
*I *2254:B1 I *D sky130_fd_sc_hd__a221o_1
*I *2250:B1 I *D sky130_fd_sc_hd__a221o_1
*I *2249:A3 I *D sky130_fd_sc_hd__a32o_1
*I *2252:B1 I *D sky130_fd_sc_hd__a221o_1
*I *2616:X O *D sky130_fd_sc_hd__buf_2
*CAP
1 *2266:B1 0
2 *2264:B1 2.08101e-05
3 *2262:B1 0
4 *2260:B1 0
5 *2258:B1 0.000153756
6 *2256:B1 0
7 *2254:B1 1.58384e-05
8 *2250:B1 0.000382487
9 *2249:A3 0.000191243
10 *2252:B1 3.77151e-05
11 *2616:X 0.000488533
12 *828:79 0.000693965
13 *828:68 0.000568227
14 *828:62 0.00166231
15 *828:42 0.00143691
16 *828:40 0.000995114
17 *828:32 0.000880501
18 *828:30 0.000538698
19 *828:22 0.000527524
20 *828:16 0.000696407
21 *2250:B1 *2250:A1 1.19928e-05
22 *2250:B1 *2492:RESET_B 3.48292e-05
23 *2250:B1 *2633:A 0
24 *2250:B1 *847:44 0
25 *2258:B1 *841:55 2.68526e-05
26 *828:16 *2292:A 2.16833e-05
27 *828:16 *841:14 3.5644e-05
28 *828:16 *852:117 9.04308e-05
29 *828:22 *841:20 0.000320619
30 *828:22 *841:28 2.30292e-05
31 *828:30 *841:28 0.000236694
32 *828:32 *841:34 0.00026783
33 *828:32 *841:40 2.75229e-05
34 *828:40 *836:24 0
35 *828:40 *850:88 0
36 *828:42 *2256:A1 4.77757e-05
37 *828:62 *850:62 1.63221e-05
38 *828:68 *2252:A1 0.000323144
39 *2249:A1 *2249:A3 0.00019898
40 *2251:B1 *2250:B1 0.000410433
41 *2252:B2 *2249:A3 4.13171e-05
42 *2252:B2 *828:79 9.23395e-05
43 *2254:A2 *2254:B1 1.08758e-05
44 *2256:A2 *828:40 4.77757e-05
45 *2256:A2 *828:42 0.000289644
46 *2256:C1 *828:42 2.6306e-05
47 *2257:A2 *2258:B1 0
48 *2258:A2 *2258:B1 2.0851e-06
49 *2258:B2 *2258:B1 1.24708e-05
50 *2258:C1 *2258:B1 2.50804e-05
51 *2260:A2 *828:32 1.2818e-05
52 *2260:A2 *828:40 2.60945e-05
53 *2260:B2 *828:40 7.24949e-05
54 *2260:C1 *2258:B1 2.68526e-05
55 *2261:A1 *828:30 0
56 *2262:A2 *828:30 1.07797e-05
57 *2262:B2 *828:30 0.000183036
58 *2262:B2 *828:32 2.49708e-05
59 *2262:C1 *828:30 0.000275548
60 *2264:A2 *828:22 0.000105743
61 *2264:B2 *828:30 1.12643e-05
62 *2264:C1 *828:30 0.000160641
63 *2265:A2 *828:16 5.90459e-05
64 *2266:B2 *828:16 2.92496e-05
65 *2266:B2 *828:22 2.49708e-05
66 *2266:C1 *828:22 5.36915e-05
67 *2267:B1 *828:16 0.000187547
68 *2492:D *2249:A3 2.92538e-05
69 *2492:D *2250:B1 6.90044e-05
70 *2495:D *828:62 0
71 *2498:D *828:32 0.000123225
72 *2501:D *828:16 0.000248247
73 *2658:A *2250:B1 1.54111e-05
74 *2673:A *2254:B1 1.91597e-05
75 *117:23 *2254:B1 4.66108e-05
76 *126:33 *828:16 0.000269016
77 *223:10 *828:62 9.67081e-06
78 *223:10 *828:68 8.97264e-05
79 *224:12 *2258:B1 0.00011432
80 *261:8 *2250:B1 6.71427e-05
81 *725:21 *2249:A3 2.97004e-06
82 *725:32 *2249:A3 4.19797e-05
83 *725:45 *828:68 1.52776e-05
84 *730:52 *828:32 4.82863e-05
85 *819:80 *828:62 0
86 *819:95 *2258:B1 6.97358e-05
87 *820:78 *828:16 6.16095e-05
88 *822:44 *828:40 8.52039e-05
89 *822:50 *2258:B1 1.31901e-05
90 *822:77 *828:68 0
*RES
1 *2616:X *828:16 16.685 
2 *828:16 *828:22 5.31 
3 *828:22 *828:30 11.335 
4 *828:30 *828:32 4.935 
5 *828:32 *828:40 13.57 
6 *828:40 *828:42 3.555 
7 *828:42 *828:62 6.53387 
8 *828:62 *828:68 6.96 
9 *828:68 *2252:B1 4.05 
10 *828:68 *828:79 2.145 
11 *828:79 *2249:A3 7.575 
12 *828:79 *2250:B1 12.03 
13 *828:62 *2254:B1 4.05 
14 *828:42 *2256:B1 1.6 
15 *828:40 *2258:B1 8.705 
16 *828:32 *2260:B1 1.6 
17 *828:30 *2262:B1 1.6 
18 *828:22 *2264:B1 1.96 
19 *828:16 *2266:B1 1.6 
*END

*D_NET *829 0.0156156
*CONN
*I *2373:B I *D sky130_fd_sc_hd__nor2_2
*I *2246:A2 I *D sky130_fd_sc_hd__o21bai_1
*I *2274:B1 I *D sky130_fd_sc_hd__a221o_1
*I *2268:B1 I *D sky130_fd_sc_hd__a221o_1
*I *2270:B1 I *D sky130_fd_sc_hd__a221o_1
*I *2272:B1 I *D sky130_fd_sc_hd__a221o_1
*I *2278:B1 I *D sky130_fd_sc_hd__a221o_1
*I *2276:B1 I *D sky130_fd_sc_hd__a221o_1
*I *2245:A2 I *D sky130_fd_sc_hd__o21ba_1
*I *2393:A2 I *D sky130_fd_sc_hd__o32ai_1
*I *2617:X O *D sky130_fd_sc_hd__buf_2
*CAP
1 *2373:B 0.0001647
2 *2246:A2 0.000174029
3 *2274:B1 0
4 *2268:B1 0.000434357
5 *2270:B1 0
6 *2272:B1 0
7 *2278:B1 0.000921139
8 *2276:B1 4.56896e-05
9 *2245:A2 0
10 *2393:A2 0.000511073
11 *2617:X 0
12 *829:101 0.00115632
13 *829:86 0.00107414
14 *829:76 0.000656807
15 *829:47 0.00122577
16 *829:38 0.000216373
17 *829:36 0.000700492
18 *829:21 0.000450553
19 *829:8 0.000757217
20 *829:4 0.00031607
21 *2246:A2 *856:55 0.000201508
22 *2268:B1 *2270:A1 1.23763e-05
23 *2276:B1 *845:30 6.00941e-05
24 *2278:B1 *2506:RESET_B 2.91561e-06
25 *2278:B1 *2548:RESET_B 8.31582e-05
26 *2278:B1 *856:69 0.000118033
27 *2373:B *837:18 0
28 *2373:B *837:30 0.0001289
29 *2373:B *844:8 0.000203337
30 *2373:B *854:12 0
31 *2393:A2 *854:12 0
32 *829:8 *837:30 6.52265e-05
33 *829:36 *845:30 0.000162146
34 *829:38 *845:30 0.000601718
35 *829:76 *2274:A1 4.95273e-05
36 *829:76 *845:34 6.95335e-05
37 *829:76 *856:69 4.94404e-05
38 *829:86 *845:42 0
39 *829:101 *2469:RESET_B 0.000115217
40 *829:101 *852:26 4.63911e-05
41 *829:101 *852:36 6.55328e-05
42 *924:DIODE *829:8 1.19928e-05
43 *925:DIODE *2393:A2 5.4003e-05
44 *925:DIODE *829:21 8.59365e-05
45 *2195:A *2278:B1 0.000129439
46 *2246:B1_N *2246:A2 0.00012657
47 *2268:A2 *2268:B1 5.53249e-06
48 *2268:B2 *2268:B1 6.28765e-05
49 *2272:A2 *829:86 3.08098e-05
50 *2272:B2 *829:86 1.87449e-05
51 *2272:B2 *829:101 1.49106e-05
52 *2273:A2 *829:86 0.000352156
53 *2273:A2 *829:101 2.09185e-05
54 *2273:B1 *829:86 0.00012657
55 *2273:B1 *829:101 0
56 *2274:A2 *829:76 1.59999e-05
57 *2274:C1 *829:76 1.37328e-05
58 *2275:B1 *829:76 1.59372e-05
59 *2276:A2 *2276:B1 2.91343e-05
60 *2276:A2 *2278:B1 2.92496e-05
61 *2276:A2 *829:76 8.28738e-05
62 *2278:A2 *2278:B1 3.04245e-05
63 *2278:C1 *2278:B1 0.000115458
64 *2279:B1 *2278:B1 2.36666e-05
65 *2373:A *2373:B 4.55864e-06
66 *2373:A *2393:A2 8.41015e-06
67 *2391:B1 *2393:A2 1.92979e-05
68 *2504:D *829:86 0
69 *2505:CLK *2246:A2 0
70 *2505:D *2246:A2 0
71 *2505:D *2276:B1 0.00015639
72 *2505:D *829:38 0.000382769
73 *2517:D *2373:B 4.82863e-05
74 *2613:A *2246:A2 0
75 *2616:A *829:21 0.000110683
76 *2616:A *829:36 0.000247567
77 *2617:A *2393:A2 7.30547e-05
78 *2617:A *829:21 0.000178321
79 *2634:A *2278:B1 2.04267e-05
80 *2634:A *829:101 0
81 *2680:A *2278:B1 0.00017002
82 *110:14 *2268:B1 2.47827e-05
83 *110:14 *829:101 0.000138961
84 *110:22 *2268:B1 0.000428709
85 *111:10 *829:101 0.000186194
86 *252:34 *2393:A2 2.39856e-05
87 *385:10 *2393:A2 0.000240711
88 *385:16 *2393:A2 5.07376e-05
89 *482:10 *829:21 9.16315e-05
90 *482:10 *829:36 1.1561e-05
91 *482:12 *2393:A2 0.000101747
92 *482:12 *829:21 2.42236e-05
93 *507:19 *2246:A2 0
94 *507:19 *829:36 8.48367e-05
95 *688:22 *2393:A2 0.000111892
96 *717:134 *2268:B1 0
97 *717:335 *2278:B1 0
98 *717:335 *829:76 0
99 *717:335 *829:86 9.5433e-05
100 *818:62 *829:101 2.05056e-05
101 *823:16 *2393:A2 0.000251709
102 *824:202 *829:76 0
103 *824:202 *829:86 0
104 *825:24 *2393:A2 3.80607e-05
105 *826:172 *2393:A2 2.75588e-05
106 *826:227 *829:8 5.83121e-06
*RES
1 *2617:X *829:4 1.6 
2 *829:4 *829:8 3.83 
3 *829:8 *2393:A2 13.62 
4 *829:8 *829:21 3.42 
5 *829:21 *2245:A2 3.6 
6 *829:21 *829:36 8.48 
7 *829:36 *829:38 5.625 
8 *829:38 *2276:B1 3.085 
9 *829:38 *829:47 2 
10 *829:47 *2278:B1 20.73 
11 *829:47 *829:76 7.94 
12 *829:76 *829:86 11.5 
13 *829:86 *2272:B1 1.6 
14 *829:86 *829:101 14.95 
15 *829:101 *2270:B1 1.6 
16 *829:101 *2268:B1 11.93 
17 *829:76 *2274:B1 1.6 
18 *829:36 *2246:A2 9.065 
19 *829:4 *2373:B 9.5 
*END

*D_NET *830 0.0103961
*CONN
*I *1978:A_N I *D sky130_fd_sc_hd__nand2b_1
*I *2031:A1 I *D sky130_fd_sc_hd__o22a_2
*I *2066:A1 I *D sky130_fd_sc_hd__o31a_1
*I *2013:A I *D sky130_fd_sc_hd__or3b_1
*I *2011:A I *D sky130_fd_sc_hd__nand2_1
*I *2042:A1 I *D sky130_fd_sc_hd__o211a_1
*I *2040:A1 I *D sky130_fd_sc_hd__o21ai_1
*I *1959:A I *D sky130_fd_sc_hd__inv_2
*I *2057:A1 I *D sky130_fd_sc_hd__o21ai_4
*I *1980:B1_N I *D sky130_fd_sc_hd__o21bai_2
*I *2618:X O *D sky130_fd_sc_hd__buf_2
*CAP
1 *1978:A_N 0.000858606
2 *2031:A1 3.15982e-05
3 *2066:A1 0
4 *2013:A 0
5 *2011:A 3.24785e-05
6 *2042:A1 0.000132867
7 *2040:A1 0
8 *1959:A 9.73191e-06
9 *2057:A1 1.36534e-05
10 *1980:B1_N 0.000517566
11 *2618:X 0
12 *830:108 0.00121361
13 *830:70 0.000187775
14 *830:63 0.000162304
15 *830:50 0.000180635
16 *830:48 0.000371215
17 *830:14 0.0010697
18 *830:8 0.000416702
19 *830:6 0.00054181
20 *1978:A_N *1978:B 8.23457e-05
21 *1978:A_N *1983:A 2.46298e-05
22 *1978:A_N *1989:A3 0
23 *1978:A_N *2621:A 8.27961e-05
24 *1978:A_N *832:21 0
25 *1978:A_N *832:23 0
26 *1978:A_N *834:33 6.97118e-05
27 *1978:A_N *834:46 0.000148267
28 *1978:A_N *835:39 5.6404e-05
29 *1980:B1_N *1961:A 8.84231e-05
30 *1980:B1_N *1980:A1 0
31 *2031:A1 *834:33 4.00541e-06
32 *830:48 *832:104 1.88904e-05
33 *830:108 *836:62 2.70497e-05
34 *1988:B *830:108 0.000306155
35 *2004:B1 *830:8 5.63183e-05
36 *2004:B2 *830:8 1.64087e-05
37 *2031:A2 *1978:A_N 1.03423e-05
38 *2031:A2 *2031:A1 9.53428e-06
39 *2031:A2 *830:108 1.1392e-05
40 *2040:B1 *2011:A 8.40269e-05
41 *2042:A2 *2042:A1 5.7344e-05
42 *2042:A2 *830:63 7.47284e-05
43 *2042:B1 *2042:A1 4.53623e-05
44 *2042:C1 *2042:A1 5.16348e-05
45 *2055:A2 *830:14 2.5474e-05
46 *2055:A2 *830:48 0
47 *2135:B1 *1959:A 4.82863e-05
48 *2135:B1 *830:50 0.000118081
49 *2618:A *830:108 6.36438e-07
50 *1:15 *830:48 0
51 *350:6 *1959:A 4.82863e-05
52 *350:6 *830:50 0.000108886
53 *350:23 *1980:B1_N 0.000270524
54 *350:23 *2057:A1 4.66108e-05
55 *352:8 *1980:B1_N 8.65439e-05
56 *352:8 *2057:A1 4.66108e-05
57 *379:14 *1980:B1_N 4.92861e-05
58 *379:14 *830:8 0
59 *379:14 *830:14 0.000165212
60 *403:18 *2011:A 4.82919e-05
61 *403:18 *2042:A1 2.92496e-05
62 *403:48 *830:48 1.7635e-05
63 *411:12 *1978:A_N 2.49909e-05
64 *412:18 *830:8 7.11219e-05
65 *416:18 *2011:A 5.13114e-05
66 *416:18 *830:70 8.57024e-05
67 *422:10 *1980:B1_N 2.25119e-05
68 *422:10 *830:8 0.000397634
69 *422:10 *830:14 0.000240288
70 *422:10 *830:108 6.72143e-05
71 *430:16 *830:63 0.000274771
72 *431:6 *2011:A 7.00889e-06
73 *431:6 *830:70 4.66826e-05
74 *434:22 *830:8 1.79536e-05
75 *434:45 *830:63 0.000132301
76 *443:22 *1978:A_N 0.00011496
77 *457:70 *1978:A_N 0.000173183
78 *717:81 *830:48 0.000252009
79 *727:21 *1978:A_N 0.000136884
80 *727:32 *1978:A_N 0.000103905
*RES
1 *2618:X *830:6 3.6 
2 *830:6 *830:8 4.95 
3 *830:8 *830:14 4.74 
4 *830:14 *1980:B1_N 10.8 
5 *830:14 *2057:A1 4.05 
6 *830:14 *830:48 3.85317 
7 *830:48 *830:50 1.14 
8 *830:50 *1959:A 2.05 
9 *830:50 *830:63 8.185 
10 *830:63 *2040:A1 1.6 
11 *830:63 *830:70 0.795 
12 *830:70 *2042:A1 7.94 
13 *830:70 *2011:A 2.74 
14 *830:48 *2013:A 1.6 
15 *830:8 *2066:A1 3.6 
16 *830:6 *830:108 6.425 
17 *830:108 *2031:A1 2.215 
18 *830:108 *1978:A_N 18.98 
*END

*D_NET *831 0.00473367
*CONN
*I *1988:A I *D sky130_fd_sc_hd__nand2_1
*I *1989:A1 I *D sky130_fd_sc_hd__o31ai_2
*I *1985:B1_N I *D sky130_fd_sc_hd__a21bo_2
*I *2017:B I *D sky130_fd_sc_hd__nand2b_1
*I *2052:A1 I *D sky130_fd_sc_hd__o32a_2
*I *2043:B2 I *D sky130_fd_sc_hd__a221o_2
*I *2004:A1 I *D sky130_fd_sc_hd__o32a_1
*I *2619:X O *D sky130_fd_sc_hd__clkbuf_2
*CAP
1 *1988:A 0
2 *1989:A1 0
3 *1985:B1_N 8.74954e-05
4 *2017:B 1.88663e-06
5 *2052:A1 0
6 *2043:B2 3.93563e-05
7 *2004:A1 1.87773e-05
8 *2619:X 0.000247138
9 *831:70 0.000139551
10 *831:53 0.000137829
11 *831:42 0.000195697
12 *831:25 0.000492374
13 *831:12 0.000539967
14 *831:8 0.000427121
15 *1985:B1_N *832:21 7.40473e-05
16 *1985:B1_N *832:23 2.86623e-05
17 *1985:B1_N *834:46 1.12643e-05
18 *2017:B *847:33 1.20741e-05
19 *831:8 *2002:A 5.56826e-05
20 *831:8 *836:41 8.49205e-05
21 *831:8 *836:62 1.33285e-05
22 *831:12 *833:73 1.0221e-05
23 *831:53 *832:94 0.000141569
24 *831:53 *847:33 4.9187e-05
25 *831:70 *832:94 0.000103181
26 *831:70 *847:33 8.59955e-05
27 *2004:A3 *2004:A1 1.1071e-05
28 *2004:A3 *831:12 1.97442e-05
29 *2004:B2 *831:42 2.86265e-06
30 *2008:A *2004:A1 5.10462e-05
31 *2008:A *831:12 5.97296e-05
32 *2018:B1 *831:53 4.82863e-05
33 *2043:A2 *2043:B2 2.75985e-05
34 *2043:A2 *831:25 1.0689e-05
35 *2043:A2 *831:42 7.29996e-06
36 *2043:B1 *2004:A1 2.8531e-05
37 *2043:B1 *831:12 6.72196e-05
38 *2043:B1 *831:25 0.000373573
39 *2043:C1 *831:42 0.000116397
40 *2043:C1 *831:53 4.66108e-05
41 *2619:A *831:8 0.00012411
42 *351:6 *831:8 9.80032e-06
43 *375:10 *831:42 9.50342e-06
44 *375:12 *831:42 0.000111061
45 *376:58 *1985:B1_N 1.12643e-05
46 *379:40 *831:12 1.65192e-05
47 *393:10 *831:12 7.64469e-05
48 *408:6 *831:53 0.000193801
49 *422:8 *831:8 5.83121e-06
50 *425:50 *831:12 0.000111048
51 *457:24 *1985:B1_N 0.000196303
*RES
1 *2619:X *831:8 5.08 
2 *831:8 *831:12 5.675 
3 *831:12 *2004:A1 4.215 
4 *831:12 *831:25 6.26375 
5 *831:25 *2043:B2 2.43625 
6 *831:25 *831:42 6.15625 
7 *831:42 *2052:A1 1.6 
8 *831:42 *831:53 3.0825 
9 *831:53 *2017:B 1.82125 
10 *831:53 *831:70 1.9575 
11 *831:70 *1985:B1_N 8.10875 
12 *831:70 *1989:A1 1.6 
13 *831:8 *1988:A 1.6 
*END

*D_NET *832 0.0109591
*CONN
*I *2021:A I *D sky130_fd_sc_hd__nor2_1
*I *2007:A_N I *D sky130_fd_sc_hd__and2b_1
*I *2010:A I *D sky130_fd_sc_hd__xor2_1
*I *1979:B I *D sky130_fd_sc_hd__nor2_1
*I *2020:A1 I *D sky130_fd_sc_hd__a21o_1
*I *1987:B1 I *D sky130_fd_sc_hd__o21ai_2
*I *1980:A2 I *D sky130_fd_sc_hd__o21bai_2
*I *1961:A I *D sky130_fd_sc_hd__inv_2
*I *2016:B I *D sky130_fd_sc_hd__and2b_1
*I *1983:A I *D sky130_fd_sc_hd__nand2_1
*I *2620:X O *D sky130_fd_sc_hd__clkbuf_4
*CAP
1 *2021:A 2.99333e-05
2 *2007:A_N 5.62661e-05
3 *2010:A 0
4 *1979:B 5.76349e-05
5 *2020:A1 2.7563e-05
6 *1987:B1 0
7 *1980:A2 0
8 *1961:A 0.000159465
9 *2016:B 8.96014e-05
10 *1983:A 0.000257533
11 *2620:X 0.000185183
12 *832:104 0.000181916
13 *832:100 0.00056322
14 *832:94 0.000744775
15 *832:78 5.18557e-05
16 *832:54 0.000380509
17 *832:42 0.000342893
18 *832:23 0.000361238
19 *832:21 0.000644558
20 *832:6 0.000581025
21 *1961:A *1980:A1 0
22 *1979:B *1979:A 0.000133592
23 *1983:A *834:33 2.42599e-05
24 *1983:A *834:46 1.34503e-05
25 *2016:B *2016:A_N 8.65961e-05
26 *2016:B *833:30 3.54025e-05
27 *2020:A1 *1978:B 4.41506e-05
28 *2021:A *847:33 3.18367e-05
29 *832:6 *2621:A 1.61831e-05
30 *832:6 *834:46 2.59926e-05
31 *832:23 *1989:A2 9.79137e-05
32 *832:23 *835:14 4.67069e-05
33 *832:42 *2003:B 6.57653e-06
34 *832:42 *833:10 6.58955e-06
35 *832:42 *835:14 3.02147e-05
36 *832:54 *2003:B 0.000286995
37 *832:78 *1978:B 2.05056e-05
38 *832:78 *833:14 8.65961e-05
39 *832:94 *847:33 5.00232e-05
40 *832:100 *931:DIODE 8.49205e-05
41 *832:100 *2002:B 2.15594e-05
42 *832:100 *833:67 0
43 *832:100 *833:73 0.000139915
44 *832:100 *847:33 0.000315148
45 *832:104 *2010:B 0.000113797
46 *1978:A_N *1983:A 2.46298e-05
47 *1978:A_N *832:21 0
48 *1978:A_N *832:23 0
49 *1980:B1_N *1961:A 8.84231e-05
50 *1985:A1 *832:6 8.65905e-05
51 *1985:B1_N *832:21 7.40473e-05
52 *1985:B1_N *832:23 2.86623e-05
53 *1989:B1 *2016:B 1.88904e-05
54 *1989:B1 *832:23 0.000119396
55 *2022:A2 *832:54 6.17895e-06
56 *2023:A1 *832:54 3.64972e-05
57 *2031:A2 *1983:A 5.40741e-05
58 *2043:C1 *832:94 0.000120655
59 *2056:B1 *1979:B 0.000232105
60 *2139:B2 *832:100 0.000194174
61 *2620:A *832:6 8.65961e-05
62 *126:33 *832:21 0
63 *352:8 *1961:A 4.82863e-05
64 *371:8 *1961:A 4.82863e-05
65 *371:34 *2020:A1 7.14699e-05
66 *371:34 *832:54 8.11827e-05
67 *371:34 *832:78 0.000123225
68 *376:10 *1983:A 8.65961e-05
69 *376:58 *1983:A 0.000122331
70 *376:58 *832:21 2.92496e-05
71 *378:8 *2016:B 3.66286e-05
72 *378:10 *2016:B 0.000160641
73 *403:48 *832:104 3.86447e-05
74 *404:12 *832:100 0.000139245
75 *404:12 *832:104 0.000160658
76 *409:10 *2007:A_N 4.41506e-05
77 *412:18 *2021:A 0
78 *412:18 *832:94 0.00027884
79 *412:18 *832:100 8.23457e-05
80 *430:16 *832:100 0.00019327
81 *430:16 *832:104 0.000370903
82 *434:22 *832:100 4.14843e-05
83 *434:45 *832:100 0
84 *443:22 *832:21 0
85 *443:22 *832:94 0.000416823
86 *448:24 *1961:A 0.000119756
87 *457:24 *2016:B 9.34773e-06
88 *457:24 *832:21 5.11148e-06
89 *457:24 *832:23 1.23244e-05
90 *457:24 *832:42 1.88123e-05
91 *457:24 *832:54 0
92 *717:81 *1961:A 0.000192553
93 *717:81 *832:54 0.00015829
94 *727:32 *832:21 0
95 *830:48 *832:104 1.88904e-05
96 *831:53 *832:94 0.000141569
97 *831:70 *832:94 0.000103181
*RES
1 *2620:X *832:6 4.12 
2 *832:6 *1983:A 5.53 
3 *832:6 *832:21 4.4 
4 *832:21 *832:23 3.8025 
5 *832:23 *2016:B 6.3675 
6 *832:23 *832:42 1.8075 
7 *832:42 *832:54 7.64 
8 *832:54 *1961:A 6.085 
9 *832:54 *1980:A2 1.6 
10 *832:42 *832:78 3.14 
11 *832:78 *1987:B1 1.6 
12 *832:78 *2020:A1 2.395 
13 *832:21 *832:94 10.04 
14 *832:94 *832:100 11.435 
15 *832:100 *832:104 6.44 
16 *832:104 *1979:B 3.775 
17 *832:104 *2010:A 1.6 
18 *832:100 *2007:A_N 4.395 
19 *832:94 *2021:A 2.215 
*END

*D_NET *833 0.00987674
*CONN
*I *1989:A3 I *D sky130_fd_sc_hd__o31ai_2
*I *2003:B I *D sky130_fd_sc_hd__xnor2_1
*I *1978:B I *D sky130_fd_sc_hd__nand2b_1
*I *1987:A2 I *D sky130_fd_sc_hd__o21ai_2
*I *2001:B I *D sky130_fd_sc_hd__and2_1
*I *2002:B I *D sky130_fd_sc_hd__xor2_1
*I *2008:B I *D sky130_fd_sc_hd__nand2_1
*I *2009:B I *D sky130_fd_sc_hd__nor2_1
*I *2013:C_N I *D sky130_fd_sc_hd__or3b_1
*I *2010:B I *D sky130_fd_sc_hd__xor2_1
*I *2621:X O *D sky130_fd_sc_hd__clkbuf_4
*CAP
1 *1989:A3 0.000126842
2 *2003:B 0.000218525
3 *1978:B 0.000239838
4 *1987:A2 0
5 *2001:B 2.90056e-05
6 *2002:B 0.000103529
7 *2008:B 4.03606e-05
8 *2009:B 1.36534e-05
9 *2013:C_N 0
10 *2010:B 0.00015837
11 *2621:X 0.00021637
12 *833:73 0.000356892
13 *833:67 0.000305685
14 *833:51 1.36534e-05
15 *833:32 0.000236894
16 *833:30 0.000983966
17 *833:14 0.000873619
18 *833:12 0.000271693
19 *833:10 0.00028846
20 *833:8 0.000413147
21 *1978:B *2627:A 0
22 *1989:A3 *1989:A2 0.000197578
23 *1989:A3 *835:14 2.14129e-05
24 *1989:A3 *835:39 1.0183e-05
25 *2001:B *2001:A 2.71072e-05
26 *2002:B *2002:A 4.82863e-05
27 *2002:B *847:54 0
28 *2003:B *1980:A1 8.40213e-05
29 *2008:B *847:33 8.40269e-05
30 *2010:B *835:78 4.76263e-05
31 *833:8 *835:6 0.000183819
32 *833:8 *835:10 0.000123225
33 *833:10 *835:14 0.000115582
34 *833:10 *835:39 4.41451e-05
35 *833:14 *2016:A_N 8.40269e-05
36 *833:30 *2016:A_N 7.79289e-05
37 *833:32 *2001:A 8.59365e-05
38 *833:32 *835:78 0.000158004
39 *833:67 *2001:A 7.23602e-05
40 *833:73 *2001:A 2.75145e-05
41 *1978:A_N *1978:B 8.23457e-05
42 *1978:A_N *1989:A3 0
43 *2008:A *2008:B 1.16578e-05
44 *2008:A *833:73 2.34544e-05
45 *2013:B *833:30 5.88334e-05
46 *2013:B *833:32 0.000139238
47 *2016:B *833:30 3.54025e-05
48 *2018:A1_N *833:30 9.47972e-06
49 *2018:A2_N *833:30 1.7635e-05
50 *2020:A1 *1978:B 4.41506e-05
51 *2020:A2 *2003:B 0.000299524
52 *2020:B1 *1978:B 0
53 *2022:A2 *2003:B 5.16418e-05
54 *2055:B1_N *833:30 0.000229645
55 *2065:B1 *833:30 0.000196376
56 *2066:A3 *2001:B 4.82919e-05
57 *2066:A3 *833:73 8.49205e-05
58 *2066:B1 *2001:B 0
59 *2135:B1 *2009:B 4.66108e-05
60 *2139:B2 *2002:B 3.48476e-05
61 *350:6 *2009:B 4.66108e-05
62 *350:6 *2010:B 0.000120655
63 *352:14 *833:67 3.43387e-05
64 *352:14 *833:73 0
65 *369:12 *1978:B 5.96157e-06
66 *371:34 *1978:B 2.8185e-05
67 *371:34 *833:14 1.33285e-05
68 *371:34 *833:30 5.83121e-06
69 *378:10 *833:30 6.0147e-06
70 *392:12 *833:73 0.00018471
71 *403:48 *2010:B 0.000161007
72 *403:48 *833:32 5.11827e-05
73 *403:48 *833:67 3.31204e-05
74 *403:48 *833:73 3.64998e-06
75 *404:12 *833:67 1.94723e-05
76 *404:23 *2001:B 0
77 *407:6 *833:30 4.85494e-05
78 *407:10 *833:30 1.61831e-05
79 *407:12 *833:30 5.07138e-05
80 *425:50 *2002:B 0.000175666
81 *425:50 *833:73 1.93765e-05
82 *430:16 *2010:B 1.26548e-05
83 *434:22 *833:73 3.91137e-05
84 *448:24 *2003:B 0.000149802
85 *457:24 *833:30 0.000118314
86 *826:38 *2003:B 4.21973e-05
87 *831:12 *833:73 1.0221e-05
88 *832:42 *2003:B 6.57653e-06
89 *832:42 *833:10 6.58955e-06
90 *832:54 *2003:B 0.000286995
91 *832:78 *1978:B 2.05056e-05
92 *832:78 *833:14 8.65961e-05
93 *832:100 *2002:B 2.15594e-05
94 *832:100 *833:67 0
95 *832:100 *833:73 0.000139915
96 *832:104 *2010:B 0.000113797
*RES
1 *2621:X *833:8 6.465 
2 *833:8 *833:10 1.635 
3 *833:10 *833:12 2 
4 *833:12 *833:14 1.14 
5 *833:14 *833:30 17.46 
6 *833:30 *833:32 2.91 
7 *833:32 *2010:B 10.99 
8 *833:32 *833:51 2 
9 *833:51 *2013:C_N 1.6 
10 *833:51 *2009:B 2.05 
11 *833:30 *833:67 3.635 
12 *833:67 *833:73 6.725 
13 *833:73 *2008:B 4.395 
14 *833:73 *2002:B 6.195 
15 *833:67 *2001:B 2.41 
16 *833:14 *1987:A2 1.6 
17 *833:12 *1978:B 5.63875 
18 *833:10 *2003:B 10.08 
19 *833:8 *1989:A3 6.255 
*END

*D_NET *834 0.00875229
*CONN
*I *1983:B I *D sky130_fd_sc_hd__nand2_1
*I *2621:A I *D sky130_fd_sc_hd__clkbuf_4
*I *1985:A2 I *D sky130_fd_sc_hd__a21bo_2
*I *2017:A_N I *D sky130_fd_sc_hd__nand2b_1
*I *2318:A1 I *D sky130_fd_sc_hd__o22a_1
*I *2622:X O *D sky130_fd_sc_hd__dlymetal6s2s_1
*CAP
1 *1983:B 0
2 *2621:A 0.000210381
3 *1985:A2 0
4 *2017:A_N 8.75168e-05
5 *2318:A1 0.000539089
6 *2622:X 2.08101e-05
7 *834:46 0.000287052
8 *834:33 0.000216841
9 *834:29 0.00148344
10 *834:6 0.00199068
11 *2621:A *2472:D 6.06689e-05
12 *834:29 *2635:A 0.000158138
13 *834:29 *2636:A 0.000122081
14 *834:29 *841:28 0
15 *1978:A_N *2621:A 8.27961e-05
16 *1978:A_N *834:33 6.97118e-05
17 *1978:A_N *834:46 0.000148267
18 *1983:A *834:33 2.42599e-05
19 *1983:A *834:46 1.34503e-05
20 *1984:A *834:29 6.28765e-05
21 *1985:A1 *2621:A 3.00381e-05
22 *1985:A1 *834:46 3.00381e-05
23 *1985:B1_N *834:46 1.12643e-05
24 *2031:A1 *834:33 4.00541e-06
25 *2031:A2 *834:33 0
26 *2147:B2 *834:29 2.15738e-05
27 *2178:B1 *834:29 5.83373e-05
28 *2181:A1 *834:29 0
29 *2182:B *834:29 3.31079e-05
30 *2184:A1 *834:29 6.41008e-05
31 *2184:B1 *834:29 8.69042e-06
32 *2262:A2 *834:29 0
33 *2264:B2 *834:29 0.000123751
34 *2306:A *2318:A1 0.00012657
35 *2306:D_N *2318:A1 4.66108e-05
36 *2318:B2 *2318:A1 0.00011379
37 *2325:A2 *2318:A1 0.00019071
38 *2325:A2 *834:29 3.00381e-05
39 *2325:B1 *2318:A1 1.91597e-05
40 *2465:CLK *834:29 0
41 *2465:D *834:29 0.000139238
42 *2466:D *834:29 6.10014e-05
43 *2467:D *834:29 0
44 *2499:D *834:29 0
45 *2582:A *2621:A 4.66108e-05
46 *2620:A *2621:A 4.60584e-05
47 *2622:A *834:29 0
48 *110:32 *2621:A 8.53113e-06
49 *376:10 *2017:A_N 9.19299e-05
50 *376:10 *834:29 3.25831e-05
51 *376:10 *834:33 4.80285e-05
52 *376:10 *834:46 5.83121e-06
53 *376:58 *834:29 0
54 *376:58 *834:46 5.39716e-05
55 *443:22 *2621:A 0.000120655
56 *457:24 *2017:A_N 0.000175578
57 *457:24 *834:29 0
58 *457:70 *2621:A 0.000169473
59 *551:22 *834:29 4.04174e-05
60 *627:10 *2318:A1 0.000115464
61 *717:255 *834:29 3.94429e-05
62 *727:21 *2621:A 0.000136884
63 *727:32 *2621:A 0.000157214
64 *731:34 *834:29 0.000278111
65 *819:18 *2621:A 4.82863e-05
66 *819:143 *834:29 0.000404962
67 *832:6 *2621:A 1.61831e-05
68 *832:6 *834:46 2.59926e-05
*RES
1 *2622:X *834:6 1.96 
2 *834:6 *2318:A1 13.655 
3 *834:6 *834:29 34.015 
4 *834:29 *834:33 1.5 
5 *834:33 *2017:A_N 7.745 
6 *834:33 *834:46 2.52 
7 *834:46 *1985:A2 1.6 
8 *834:46 *2621:A 12.155 
9 *834:29 *1983:B 1.6 
*END

*D_NET *835 0.00979199
*CONN
*I *1980:A1 I *D sky130_fd_sc_hd__o21bai_2
*I *2012:B I *D sky130_fd_sc_hd__or3b_2
*I *2034:A1 I *D sky130_fd_sc_hd__a21o_1
*I *2056:A1 I *D sky130_fd_sc_hd__a211o_1
*I *2001:A I *D sky130_fd_sc_hd__and2_1
*I *2007:B I *D sky130_fd_sc_hd__and2b_1
*I *1979:A I *D sky130_fd_sc_hd__nor2_1
*I *1989:A2 I *D sky130_fd_sc_hd__o31ai_2
*I *1987:A1 I *D sky130_fd_sc_hd__o21ai_2
*I *2016:A_N I *D sky130_fd_sc_hd__and2b_1
*I *2623:X O *D sky130_fd_sc_hd__buf_2
*CAP
1 *1980:A1 6.37539e-05
2 *2012:B 0
3 *2034:A1 5.7219e-05
4 *2056:A1 1.15106e-05
5 *2001:A 0.000145448
6 *2007:B 0
7 *1979:A 0.000198115
8 *1989:A2 8.02342e-05
9 *1987:A1 0
10 *2016:A_N 6.55375e-05
11 *2623:X 0.00015038
12 *835:78 0.000331317
13 *835:57 0.000453816
14 *835:55 0.00032695
15 *835:47 0.000335604
16 *835:45 0.000586026
17 *835:39 0.000847904
18 *835:14 0.000118492
19 *835:10 0.000177971
20 *835:6 0.000426065
21 *835:45 *2327:A1 4.9968e-05
22 *1961:A *1980:A1 0
23 *1978:A_N *835:39 5.6404e-05
24 *1979:B *1979:A 0.000133592
25 *1980:B1_N *1980:A1 0
26 *1981:B *835:39 3.86529e-05
27 *1989:A3 *1989:A2 0.000197578
28 *1989:A3 *835:14 2.14129e-05
29 *1989:A3 *835:39 1.0183e-05
30 *2001:B *2001:A 2.71072e-05
31 *2003:B *1980:A1 8.40213e-05
32 *2010:B *835:78 4.76263e-05
33 *2014:A *1979:A 0
34 *2014:B *1979:A 0
35 *2016:B *2016:A_N 8.65961e-05
36 *2020:A2 *835:39 0.000309028
37 *2022:A2 *835:39 6.38291e-05
38 *2022:A2 *835:45 0.000112123
39 *2056:A2 *2056:A1 0
40 *2056:A2 *835:55 6.4869e-05
41 *2056:B1 *1979:A 0.000108739
42 *2056:B1 *2056:A1 5.4155e-06
43 *2056:B1 *835:57 4.47209e-05
44 *2056:B1 *835:78 5.20263e-05
45 *2061:A2 *835:78 0.000113797
46 *2135:B2 *1979:A 1.33293e-05
47 *2135:B2 *835:45 3.27443e-05
48 *2135:B2 *835:55 7.68414e-06
49 *2135:B2 *835:57 2.86876e-05
50 *2327:A2 *835:39 5.02217e-05
51 *2327:A2 *835:45 7.81221e-05
52 *2327:A3 *835:45 0.00027042
53 *352:14 *2001:A 0.000159269
54 *352:14 *835:78 0.000158004
55 *378:8 *2016:A_N 2.05056e-05
56 *379:14 *835:78 0
57 *401:12 *1979:A 4.82863e-05
58 *401:33 *2034:A1 0.000136877
59 *401:33 *835:45 5.83121e-06
60 *401:33 *835:47 2.49909e-05
61 *401:33 *835:55 0.000151303
62 *403:12 *2034:A1 4.92096e-05
63 *403:26 *1979:A 0.000385327
64 *403:48 *835:78 3.81494e-05
65 *404:23 *2001:A 5.4155e-06
66 *411:12 *835:39 6.15258e-05
67 *413:27 *835:45 0.000181719
68 *448:24 *1980:A1 2.30292e-05
69 *457:70 *835:39 0
70 *819:18 *835:6 0.000421068
71 *819:18 *835:10 0.00015896
72 *826:38 *1980:A1 8.23457e-05
73 *826:38 *835:45 2.15594e-05
74 *826:40 *835:45 2.59981e-05
75 *832:23 *1989:A2 9.79137e-05
76 *832:23 *835:14 4.67069e-05
77 *832:42 *835:14 3.02147e-05
78 *833:8 *835:6 0.000183819
79 *833:8 *835:10 0.000123225
80 *833:10 *835:14 0.000115582
81 *833:10 *835:39 4.41451e-05
82 *833:14 *2016:A_N 8.40269e-05
83 *833:30 *2016:A_N 7.79289e-05
84 *833:32 *2001:A 8.59365e-05
85 *833:32 *835:78 0.000158004
86 *833:67 *2001:A 7.23602e-05
87 *833:73 *2001:A 2.75145e-05
*RES
1 *2623:X *835:6 5.5 
2 *835:6 *835:10 3.485 
3 *835:10 *835:14 3.635 
4 *835:14 *2016:A_N 3.43 
5 *835:14 *1987:A1 1.6 
6 *835:10 *1989:A2 6 
7 *835:6 *835:39 8.225 
8 *835:39 *835:45 10.715 
9 *835:45 *835:47 0.45 
10 *835:47 *835:55 4.035 
11 *835:55 *835:57 1.485 
12 *835:57 *1979:A 7.615 
13 *835:57 *835:78 6.485 
14 *835:78 *2007:B 3.6 
15 *835:78 *2001:A 7.005 
16 *835:55 *2056:A1 1.96 
17 *835:47 *2034:A1 7.235 
18 *835:45 *2012:B 1.6 
19 *835:39 *1980:A1 5.1 
*END

*D_NET *836 0.0121859
*CONN
*I *2312:B2 I *D sky130_fd_sc_hd__o32a_1
*I *2623:A I *D sky130_fd_sc_hd__buf_2
*I *2003:A I *D sky130_fd_sc_hd__xnor2_1
*I *1960:A I *D sky130_fd_sc_hd__inv_2
*I *2002:A I *D sky130_fd_sc_hd__xor2_1
*I *2624:X O *D sky130_fd_sc_hd__clkbuf_2
*CAP
1 *2312:B2 1.37541e-05
2 *2623:A 1.75478e-05
3 *2003:A 0.000228813
4 *1960:A 0
5 *2002:A 0.000140319
6 *2624:X 0.000355871
7 *836:62 0.00146425
8 *836:41 0.00124795
9 *836:24 0.00137688
10 *836:16 0.00157613
11 *2003:A *840:18 0.000139252
12 *836:62 *2472:RESET_B 3.68682e-05
13 *1988:B *2002:A 3.26889e-05
14 *1988:B *836:41 3.12176e-05
15 *1988:B *836:62 2.42043e-05
16 *2002:B *2002:A 4.82863e-05
17 *2039:B *836:62 0.000246682
18 *2144:B1 *836:24 8.41703e-06
19 *2178:A3 *836:24 0.000116165
20 *2179:A_N *836:24 0.00035991
21 *2249:A2 *836:62 0.000185377
22 *2260:A2 *836:24 6.57653e-06
23 *2260:B2 *836:24 0.000149741
24 *2261:B1 *836:24 2.7881e-05
25 *2312:A1 *836:24 3.25155e-05
26 *2312:A3 *2312:B2 5.30352e-05
27 *2312:A3 *836:24 0.000101841
28 *2317:A2 *836:16 4.38278e-05
29 *2318:A2 *836:24 0
30 *2321:C1 *836:16 5.30352e-05
31 *2322:A2 *836:24 0.000285291
32 *2323:C *836:16 5.34064e-05
33 *2325:A2 *836:16 3.59531e-06
34 *2498:D *836:24 3.68682e-05
35 *2582:A *2003:A 8.49205e-05
36 *2582:A *2623:A 4.66108e-05
37 *2618:A *836:62 0.000121508
38 *2619:A *836:62 4.66108e-05
39 *2667:A *836:24 0
40 *2684:A *836:24 0
41 *120:46 *836:24 3.80022e-05
42 *121:12 *836:24 0.000139933
43 *121:16 *836:24 0.00036162
44 *127:10 *836:24 0.000487279
45 *128:49 *836:24 2.90919e-05
46 *143:10 *836:16 9.50342e-06
47 *351:6 *836:62 4.66108e-05
48 *369:12 *2003:A 0.000241856
49 *379:40 *836:24 4.75576e-05
50 *393:10 *2002:A 8.57024e-05
51 *393:10 *836:41 9.80032e-06
52 *422:10 *836:62 2.16654e-05
53 *425:50 *836:24 4.28767e-05
54 *425:50 *836:62 8.08185e-05
55 *448:24 *2003:A 4.66742e-05
56 *457:45 *836:62 0
57 *457:70 *2003:A 0.000538749
58 *457:70 *836:62 0.000143898
59 *499:10 *2312:B2 8.53113e-06
60 *499:20 *2312:B2 4.39353e-05
61 *499:20 *836:24 6.95753e-05
62 *544:33 *836:24 4.13769e-05
63 *546:14 *836:24 9.75085e-05
64 *549:8 *836:24 8.5242e-05
65 *630:16 *836:24 3.91137e-05
66 *717:33 *2623:A 3.74161e-05
67 *717:33 *836:62 0
68 *717:46 *2003:A 4.05529e-05
69 *717:46 *836:62 2.73058e-05
70 *726:17 *2003:A 2.05583e-05
71 *731:24 *836:16 0
72 *819:18 *2003:A 8.65961e-05
73 *819:18 *2623:A 7.40446e-05
74 *819:22 *836:62 0.00011447
75 *826:38 *2003:A 4.92062e-05
76 *828:40 *836:24 0
77 *830:108 *836:62 2.70497e-05
78 *831:8 *2002:A 5.56826e-05
79 *831:8 *836:41 8.49205e-05
80 *831:8 *836:62 1.33285e-05
*RES
1 *2624:X *836:16 12.22 
2 *836:16 *836:24 32.24 
3 *836:24 *2002:A 4.855 
4 *836:24 *836:41 1.155 
5 *836:41 *1960:A 1.6 
6 *836:41 *836:62 12.1623 
7 *836:62 *2003:A 13.67 
8 *836:62 *2623:A 2.395 
9 *836:16 *2312:B2 4.215 
*END

*D_NET *837 0.0214463
*CONN
*I *2085:B1 I *D sky130_fd_sc_hd__a21o_1
*I *2244:A I *D sky130_fd_sc_hd__nor2_1
*I *2388:A1 I *D sky130_fd_sc_hd__a32o_1
*I *2400:B2 I *D sky130_fd_sc_hd__a221o_1
*I *2407:B2 I *D sky130_fd_sc_hd__a22o_1
*I *2404:B2 I *D sky130_fd_sc_hd__a221o_1
*I *2396:B2 I *D sky130_fd_sc_hd__a221o_1
*I *2371:A1 I *D sky130_fd_sc_hd__a32o_1
*I *2380:A1 I *D sky130_fd_sc_hd__a32o_1
*I *2247:A I *D sky130_fd_sc_hd__nor2_1
*I *2625:X O *D sky130_fd_sc_hd__buf_2
*CAP
1 *2085:B1 1.77753e-05
2 *2244:A 0
3 *2388:A1 0
4 *2400:B2 9.76151e-06
5 *2407:B2 0.00064402
6 *2404:B2 2.60626e-05
7 *2396:B2 0
8 *2371:A1 0.000958999
9 *2380:A1 7.12033e-07
10 *2247:A 0.000882194
11 *2625:X 0.000434812
12 *837:130 0.000819002
13 *837:124 0.00049294
14 *837:113 0.000813145
15 *837:81 0.00116364
16 *837:73 0.00102143
17 *837:69 0.000585008
18 *837:48 0.00182004
19 *837:30 0.000890474
20 *837:18 0.0006516
21 *2247:A *2326:A1_N 0.000172577
22 *2371:A1 *2371:B1 5.07073e-05
23 *2371:A1 *844:51 0
24 *2404:B2 *2400:A2 8.34281e-06
25 *2407:B2 *854:33 0.000310037
26 *837:18 *2518:D 7.00889e-06
27 *837:18 *843:12 0.000313657
28 *837:18 *856:98 0
29 *837:30 *2392:A2_N 3.57349e-05
30 *837:30 *854:12 8.44359e-05
31 *837:48 *2244:B 0
32 *837:48 *2392:A2_N 0.000597387
33 *837:48 *2548:RESET_B 0.000153913
34 *837:69 *2388:B1 5.45736e-05
35 *837:73 *2388:B1 8.7152e-06
36 *837:81 *2380:B1 0.000103179
37 *837:130 *854:33 0.000175734
38 *1992:A *837:73 0.000138387
39 *1992:B *837:73 0.000100111
40 *1999:A *837:73 0
41 *2075:A1_N *2371:A1 0
42 *2077:B *837:81 4.88702e-05
43 *2077:B *837:113 0.000261321
44 *2100:B *837:30 4.66108e-05
45 *2100:B *837:48 4.66108e-05
46 *2371:A3 *2371:A1 0.000584544
47 *2373:B *837:18 0
48 *2373:B *837:30 0.0001289
49 *2376:A1_N *2371:A1 0.000374437
50 *2376:A2_N *2371:A1 1.34361e-05
51 *2376:B1 *2371:A1 8.71079e-05
52 *2379:A *837:81 0.000122331
53 *2379:C *837:81 8.73389e-06
54 *2380:A2 *2371:A1 8.97315e-06
55 *2380:A2 *837:81 2.17919e-05
56 *2380:A3 *2371:A1 7.00889e-06
57 *2380:A3 *837:73 5.53249e-06
58 *2380:B2 *2371:A1 0
59 *2382:A1 *2371:A1 1.53032e-05
60 *2382:A2 *2371:A1 0.000177442
61 *2382:B1 *2371:A1 0
62 *2384:A1_N *2371:A1 9.71067e-05
63 *2386:A2 *837:73 7.47215e-05
64 *2388:A3 *837:69 8.7152e-06
65 *2388:A3 *837:73 3.30152e-05
66 *2389:B1 *837:69 7.23533e-05
67 *2389:B2 *837:69 0.000113797
68 *2396:B1 *837:113 0.000119676
69 *2396:B1 *837:124 3.62122e-05
70 *2396:C1 *837:124 2.7881e-05
71 *2397:B1 *837:124 0.000300109
72 *2398:B1 *837:124 0.000107634
73 *2404:C1 *2400:B2 8.34281e-06
74 *2407:B1 *2407:B2 0
75 *2408:A1 *2407:B2 0.000162318
76 *2506:D *837:48 0.000160641
77 *2516:D *837:48 4.66742e-05
78 *2517:D *837:18 0.000272984
79 *2517:D *837:30 1.33285e-05
80 *2548:CLK *2247:A 6.71882e-05
81 *2548:CLK *837:48 5.83121e-06
82 *2548:D *837:69 3.68804e-05
83 *2550:D *837:124 3.68682e-05
84 *2552:D *2404:B2 1.9488e-05
85 *2607:A *2247:A 7.67415e-06
86 *2608:A *2247:A 0.000228721
87 *2611:A *2247:A 0.000211122
88 *2617:A *837:30 0.000207557
89 *2714:A *837:18 1.03423e-05
90 *248:8 *2371:A1 0.000170809
91 *248:29 *2371:A1 0.000559517
92 *248:40 *2371:A1 0
93 *250:27 *837:69 0
94 *253:33 *2400:B2 2.48591e-05
95 *254:23 *837:124 4.9968e-05
96 *254:23 *837:130 0.000167
97 *254:55 *2404:B2 1.58605e-05
98 *254:68 *2407:B2 0
99 *256:10 *2407:B2 3.16237e-05
100 *376:104 *837:48 9.8549e-05
101 *377:16 *837:73 6.61973e-05
102 *377:20 *837:73 9.37731e-05
103 *384:16 *837:73 2.88322e-05
104 *462:18 *2371:A1 0
105 *462:18 *837:81 5.5694e-05
106 *677:22 *837:69 0.000126613
107 *681:6 *837:81 0.000145515
108 *681:8 *2371:A1 9.80943e-06
109 *681:8 *2380:A1 2.50318e-07
110 *681:8 *837:81 0.00023337
111 *681:53 *837:73 0.000197414
112 *688:10 *837:73 3.31204e-05
113 *717:335 *837:69 5.75134e-05
114 *717:339 *837:69 0.00011273
115 *720:16 *837:18 0
116 *732:10 *837:124 0
117 *732:14 *837:124 0
118 *733:87 *837:48 0
119 *822:30 *2247:A 8.65905e-05
120 *823:90 *837:124 0.000274771
121 *823:90 *837:130 0.000167955
122 *824:22 *837:73 0
123 *825:41 *837:124 0.000113695
124 *825:60 *2404:B2 4.00257e-05
125 *826:22 *2247:A 0.000278715
126 *826:22 *837:48 0.000142635
127 *826:227 *837:30 5.4155e-06
128 *829:8 *837:30 6.52265e-05
*RES
1 *2625:X *837:18 13.265 
2 *837:18 *837:30 9.22 
3 *837:30 *837:48 17.71 
4 *837:48 *2247:A 15.055 
5 *837:48 *837:69 7.91 
6 *837:69 *837:73 9.755 
7 *837:73 *837:81 5.41125 
8 *837:81 *2380:A1 1.70875 
9 *837:81 *2371:A1 27.4737 
10 *837:73 *837:113 6.34875 
11 *837:113 *2396:B2 1.6 
12 *837:113 *837:124 10.7113 
13 *837:124 *837:130 2.78857 
14 *837:130 *2404:B2 4.8275 
15 *837:130 *2407:B2 7.51757 
16 *837:124 *2400:B2 3.84 
17 *837:69 *2388:A1 3.6 
18 *837:30 *2244:A 1.6 
19 *837:18 *2085:B1 1.96 
*END

*D_NET *838 0.00197017
*CONN
*I *2196:A I *D sky130_fd_sc_hd__or4_1
*I *2488:D I *D sky130_fd_sc_hd__dfrtp_1
*I *2729:X O *D sky130_fd_sc_hd__clkbuf_1
*CAP
1 *2196:A 0.000405927
2 *2488:D 0.000172865
3 *2729:X 0
4 *838:4 0.000578792
5 *2196:A *2196:D 0.000122702
6 *2196:A *2490:D 4.77757e-05
7 *2196:A *860:8 1.56651e-05
8 *2488:D *2488:RESET_B 5.88949e-05
9 *942:DIODE *2196:A 8.23374e-05
10 *1965:A *2488:D 2.92496e-05
11 *2296:B *2488:D 6.38291e-05
12 *2488:CLK *2488:D 7.35729e-05
13 *2728:A *2196:A 5.4155e-06
14 *2729:A *2196:A 4.99619e-05
15 *2731:A *2196:A 0.000125264
16 *4:13 *2196:A 9.13092e-05
17 *132:8 *2488:D 4.66108e-05
18 *141:22 *2488:D 0
*RES
1 *2729:X *838:4 1.6 
2 *838:4 *2488:D 8.9 
3 *838:4 *2196:A 9.085 
*END

*D_NET *839 0.0250618
*CONN
*I *927:DIODE I *D sky130_fd_sc_hd__diode_2
*I *926:DIODE I *D sky130_fd_sc_hd__diode_2
*I *2625:A I *D sky130_fd_sc_hd__buf_2
*I *876:DIODE I *D sky130_fd_sc_hd__diode_2
*I *874:DIODE I *D sky130_fd_sc_hd__diode_2
*I *2327:A1 I *D sky130_fd_sc_hd__a31o_1
*I *2330:B2 I *D sky130_fd_sc_hd__a22o_1
*I *869:DIODE I *D sky130_fd_sc_hd__diode_2
*I *888:DIODE I *D sky130_fd_sc_hd__diode_2
*I *2356:A I *D sky130_fd_sc_hd__and3_1
*I *884:DIODE I *D sky130_fd_sc_hd__diode_2
*I *882:DIODE I *D sky130_fd_sc_hd__diode_2
*I *2342:A1 I *D sky130_fd_sc_hd__a32o_1
*I *2347:A1 I *D sky130_fd_sc_hd__a31o_1
*I *1963:A I *D sky130_fd_sc_hd__inv_2
*I *877:DIODE I *D sky130_fd_sc_hd__diode_2
*I *2333:C I *D sky130_fd_sc_hd__and3b_1
*I *880:DIODE I *D sky130_fd_sc_hd__diode_2
*I *2338:B2 I *D sky130_fd_sc_hd__a22o_1
*I *892:DIODE I *D sky130_fd_sc_hd__diode_2
*I *2365:B1 I *D sky130_fd_sc_hd__o31a_1
*I *2626:X O *D sky130_fd_sc_hd__clkbuf_4
*CAP
1 *927:DIODE 5.28032e-05
2 *926:DIODE 0
3 *2625:A 3.55506e-05
4 *876:DIODE 0
5 *874:DIODE 7.50561e-05
6 *2327:A1 0.000161013
7 *2330:B2 0
8 *869:DIODE 0
9 *888:DIODE 0
10 *2356:A 0
11 *884:DIODE 0
12 *882:DIODE 0
13 *2342:A1 0.000131598
14 *2347:A1 6.6031e-05
15 *1963:A 3.9347e-05
16 *877:DIODE 0
17 *2333:C 2.2288e-05
18 *880:DIODE 0.000200182
19 *2338:B2 2.09808e-05
20 *892:DIODE 0
21 *2365:B1 0.000213865
22 *2626:X 0
23 *839:233 8.0756e-05
24 *839:224 0.000277846
25 *839:195 0.000289735
26 *839:184 8.28607e-05
27 *839:148 0.000563296
28 *839:131 0.000680244
29 *839:129 0.00055761
30 *839:127 0.000391904
31 *839:125 0.000447505
32 *839:112 0.000539999
33 *839:108 0.000208446
34 *839:72 0.000515845
35 *839:62 0.000387859
36 *839:58 0.000857555
37 *839:52 0.0013111
38 *839:42 0.00061996
39 *839:40 0.000204818
40 *839:18 0.000489741
41 *839:16 0.00302207
42 *839:4 0.00296053
43 *2365:B1 *842:10 0
44 *839:16 *2420:A2 0
45 *839:16 *2549:RESET_B 7.47215e-05
46 *839:16 *842:10 5.05716e-06
47 *839:16 *843:18 0
48 *839:16 *856:98 0.000259891
49 *839:16 *856:100 0.000174295
50 *839:18 *842:10 0.000182483
51 *839:52 *840:36 3.09233e-05
52 *839:52 *840:93 8.35683e-05
53 *839:129 *2352:B2 0.000167024
54 *839:224 *843:120 0
55 *875:DIODE *874:DIODE 9.60582e-07
56 *875:DIODE *2327:A1 9.18292e-06
57 *885:DIODE *2347:A1 2.86975e-05
58 *1992:B *839:16 0.000267535
59 *1995:B1 *839:16 0.00029893
60 *2023:B1 *2327:A1 3.69338e-05
61 *2024:B *839:52 8.65961e-05
62 *2024:B *839:108 3.09164e-05
63 *2025:A1 *839:52 1.47347e-05
64 *2029:A1 *839:72 0.000194045
65 *2029:B1 *839:72 0.000122701
66 *2029:C1 *839:62 4.99619e-05
67 *2029:C1 *839:72 0.000159851
68 *2041:A_N *839:58 8.49205e-05
69 *2063:A *839:125 0
70 *2070:C_N *2365:B1 0.000109449
71 *2327:A2 *2327:A1 9.50342e-06
72 *2328:A1 *839:16 1.08523e-05
73 *2328:A1 *839:18 0.000338226
74 *2329:B *839:52 2.49909e-05
75 *2330:A2 *2327:A1 4.78859e-05
76 *2330:A2 *839:42 2.39856e-05
77 *2330:A2 *839:195 9.5433e-05
78 *2330:B1 *839:42 8.49205e-05
79 *2330:B1 *839:52 0.000124895
80 *2333:A_N *839:72 0.000175109
81 *2334:C1 *839:62 2.11084e-05
82 *2335:B1 *839:72 0.000193113
83 *2342:A2 *2342:A1 8.70195e-05
84 *2342:A2 *839:148 3.86943e-05
85 *2342:A3 *2342:A1 4.66108e-05
86 *2347:A3 *839:148 0
87 *2352:A2_N *839:129 0.000198945
88 *2352:B1 *839:129 0.000139583
89 *2353:A0 *839:129 8.65961e-05
90 *2356:C *839:125 0
91 *2356:C *839:127 8.49205e-05
92 *2356:C *839:129 9.06829e-05
93 *2362:A1 *839:127 4.47209e-05
94 *2362:A1 *839:129 5.83121e-06
95 *2362:B2 *839:125 0
96 *2364:A1 *2365:B1 1.07797e-05
97 *2364:A2 *2365:B1 5.23362e-05
98 *2380:A3 *839:16 0
99 *2391:B1 *839:16 0
100 *2420:B1 *839:16 0.000164686
101 *2421:B2 *839:16 1.73877e-05
102 *2535:D *839:18 0.000183043
103 *2536:D *880:DIODE 1.05984e-05
104 *2536:D *839:72 8.80473e-05
105 *2626:A *839:16 0.000308261
106 *2626:A *839:224 7.22354e-05
107 *237:10 *874:DIODE 4.11678e-06
108 *238:8 *839:52 2.75229e-05
109 *238:10 *839:52 0.000115762
110 *238:16 *839:52 3.7712e-05
111 *238:16 *839:58 2.49909e-05
112 *238:16 *839:108 5.23362e-05
113 *239:8 *880:DIODE 0.000164358
114 *239:21 *880:DIODE 8.52845e-05
115 *242:12 *839:131 0.000163204
116 *242:19 *839:129 0.000228149
117 *242:19 *839:131 8.8266e-05
118 *244:38 *839:125 0.000191093
119 *272:10 *839:16 0.000529421
120 *272:12 *839:16 0.000189919
121 *354:10 *839:125 0.000265931
122 *373:18 *839:16 0.000673765
123 *395:32 *839:72 1.79486e-05
124 *415:12 *839:52 0.000141371
125 *422:10 *839:125 0
126 *425:16 *839:108 0
127 *425:16 *839:125 0
128 *432:12 *839:58 4.60584e-05
129 *432:12 *839:62 8.65961e-05
130 *438:12 *1963:A 5.05437e-05
131 *438:12 *839:108 1.33293e-05
132 *438:12 *839:112 4.47209e-05
133 *452:60 *839:52 1.07797e-05
134 *452:60 *839:108 0
135 *457:70 *2365:B1 0
136 *457:70 *839:18 0
137 *457:70 *839:184 2.7881e-05
138 *457:70 *839:195 1.34361e-05
139 *460:6 *2365:B1 5.05521e-05
140 *460:8 *2365:B1 2.75145e-05
141 *472:18 *839:16 0
142 *651:23 *839:148 0.000232403
143 *651:34 *839:148 6.43107e-05
144 *651:46 *839:148 7.97197e-06
145 *667:30 *2365:B1 6.97118e-05
146 *677:80 *839:16 5.89912e-05
147 *720:10 *2625:A 0
148 *823:20 *839:16 0
149 *826:40 *2327:A1 2.16389e-05
150 *826:42 *2327:A1 5.29318e-05
151 *826:42 *839:184 0
152 *826:42 *839:195 0
153 *826:70 *2347:A1 2.86975e-05
154 *826:70 *839:131 8.34068e-05
155 *826:120 *839:52 0.00015639
156 *835:45 *2327:A1 4.9968e-05
*RES
1 *2626:X *839:4 1.6 
2 *839:4 *839:16 20.6518 
3 *839:16 *839:18 7.5 
4 *839:18 *2365:B1 8.19 
5 *839:18 *892:DIODE 3.6 
6 *839:16 *839:40 2 
7 *839:40 *839:42 2.865 
8 *839:42 *839:52 12.145 
9 *839:52 *839:58 11.265 
10 *839:58 *839:62 1.845 
11 *839:62 *839:72 11.35 
12 *839:72 *2338:B2 1.96 
13 *839:72 *880:DIODE 4.48 
14 *839:62 *2333:C 1.96 
15 *839:58 *877:DIODE 1.6 
16 *839:52 *839:108 6.34 
17 *839:108 *839:112 1.41 
18 *839:112 *1963:A 2.395 
19 *839:112 *839:125 12.01 
20 *839:125 *839:127 0.795 
21 *839:127 *839:129 8.04 
22 *839:129 *839:131 3.555 
23 *839:131 *2347:A1 2.755 
24 *839:131 *839:148 11.05 
25 *839:148 *2342:A1 3.775 
26 *839:148 *882:DIODE 1.6 
27 *839:129 *884:DIODE 1.6 
28 *839:127 *2356:A 1.6 
29 *839:125 *888:DIODE 1.6 
30 *839:108 *869:DIODE 1.6 
31 *839:42 *839:184 2.615 
32 *839:184 *2330:B2 3.6 
33 *839:184 *839:195 3.38 
34 *839:195 *2327:A1 9.05 
35 *839:195 *874:DIODE 2.395 
36 *839:40 *876:DIODE 1.6 
37 *839:4 *839:224 3.225 
38 *839:224 *2625:A 2.215 
39 *839:224 *839:233 0.45 
40 *839:233 *926:DIODE 1.6 
41 *839:233 *927:DIODE 2.395 
*END

*D_NET *840 0.022949
*CONN
*I *2326:A1_N I *D sky130_fd_sc_hd__o2bb2ai_1
*I *2330:A1 I *D sky130_fd_sc_hd__a22o_1
*I *2250:A1 I *D sky130_fd_sc_hd__a221o_1
*I *2334:A2 I *D sky130_fd_sc_hd__a211o_1
*I *2338:A2 I *D sky130_fd_sc_hd__a22o_1
*I *2342:B1 I *D sky130_fd_sc_hd__a32o_1
*I *2346:B I *D sky130_fd_sc_hd__and2_1
*I *2362:A2 I *D sky130_fd_sc_hd__a22o_1
*I *2357:A2 I *D sky130_fd_sc_hd__a21o_1
*I *2352:B2 I *D sky130_fd_sc_hd__a2bb2o_1
*I *2627:X O *D sky130_fd_sc_hd__buf_2
*CAP
1 *2326:A1_N 0.000558349
2 *2330:A1 0
3 *2250:A1 0.000673189
4 *2334:A2 6.41816e-05
5 *2338:A2 2.83046e-05
6 *2342:B1 7.5803e-05
7 *2346:B 0.000456317
8 *2362:A2 0
9 *2357:A2 0
10 *2352:B2 0.000280905
11 *2627:X 0
12 *840:105 0.000868516
13 *840:99 0.00066672
14 *840:97 0.000425296
15 *840:93 0.00171589
16 *840:46 0.000540097
17 *840:36 0.000737299
18 *840:26 0.0018354
19 *840:18 0.000866709
20 *840:4 0.00105137
21 *2346:B *2540:RESET_B 0.000122801
22 *2346:B *846:64 0.000194588
23 *840:18 *2627:A 3.23663e-05
24 *840:105 *846:46 0
25 *840:105 *846:64 0.000199836
26 *879:DIODE *840:99 0.000154981
27 *891:DIODE *840:46 8.8266e-05
28 *913:DIODE *2250:A1 4.77386e-05
29 *914:DIODE *840:18 7.5416e-05
30 *1981:A *840:18 1.91597e-05
31 *1981:B *840:18 8.73389e-06
32 *2003:A *840:18 0.000139252
33 *2018:B2 *840:18 5.83121e-06
34 *2025:A1 *840:93 0.000123225
35 *2025:B1 *840:93 0.000111295
36 *2029:A1 *840:99 7.68414e-06
37 *2029:C1 *2250:A1 0.000257753
38 *2041:B *2250:A1 0
39 *2042:B1 *840:93 1.22762e-05
40 *2042:C1 *840:93 0
41 *2062:B *840:36 0.000204456
42 *2064:B *840:36 5.72091e-05
43 *2134:B2 *2250:A1 0
44 *2135:A2 *2250:A1 0.000183043
45 *2135:B2 *2250:A1 6.36578e-05
46 *2138:A2 *2250:A1 9.54551e-05
47 *2141:A1 *2250:A1 0.000261594
48 *2247:A *2326:A1_N 0.000172577
49 *2249:B1 *2250:A1 9.80917e-05
50 *2250:B1 *2250:A1 1.19928e-05
51 *2279:A2 *2326:A1_N 4.80414e-05
52 *2331:A0 *840:36 0.000111884
53 *2334:A1 *2334:A2 6.63619e-05
54 *2334:A1 *840:99 8.40213e-05
55 *2334:B1 *2334:A2 5.37791e-05
56 *2334:B1 *840:93 0.000122331
57 *2334:B1 *840:97 1.99109e-05
58 *2334:C1 *2250:A1 6.79851e-05
59 *2335:A2 *840:99 4.77153e-05
60 *2335:B1 *840:99 8.23329e-05
61 *2338:B1 *2338:A2 3.69428e-05
62 *2338:B1 *840:105 0
63 *2339:A1 *840:105 0.000315883
64 *2342:B2 *2346:B 3.09164e-05
65 *2342:B2 *840:105 0.000162325
66 *2343:A1 *2346:B 0
67 *2352:A2_N *2352:B2 0.000124007
68 *2353:A1 *2352:B2 0.000238919
69 *2356:B *2352:B2 3.25591e-05
70 *2358:B1 *2352:B2 2.30292e-05
71 *2362:A1 *2352:B2 8.49205e-05
72 *2363:A1 *840:46 6.5525e-05
73 *2536:D *840:99 0.00037969
74 *2536:D *840:105 0.000161529
75 *2538:D *2346:B 7.3664e-05
76 *2658:A *2250:A1 1.78675e-05
77 *2695:A *840:105 0
78 *115:79 *2250:A1 4.9968e-05
79 *238:8 *840:26 1.83847e-05
80 *240:18 *840:105 0
81 *241:23 *2346:B 0
82 *244:8 *2352:B2 1.70935e-05
83 *244:21 *2352:B2 7.17811e-05
84 *245:10 *2352:B2 0
85 *245:10 *840:46 6.56448e-06
86 *245:23 *840:36 5.7266e-05
87 *245:23 *840:46 1.58293e-05
88 *261:8 *2250:A1 6.44782e-05
89 *372:10 *2326:A1_N 0.000137591
90 *379:14 *840:93 3.26892e-05
91 *380:14 *2326:A1_N 0.000466203
92 *395:32 *2250:A1 8.08153e-06
93 *404:33 *2250:A1 6.75059e-05
94 *406:8 *2250:A1 5.39718e-05
95 *414:12 *840:93 4.9968e-05
96 *415:12 *840:93 2.4997e-05
97 *416:18 *840:93 0.000727506
98 *416:26 *2250:A1 5.02217e-05
99 *416:26 *2334:A2 8.23457e-05
100 *416:26 *840:97 2.19562e-06
101 *431:14 *2250:A1 0.000268754
102 *448:58 *2326:A1_N 0.00022448
103 *452:60 *840:36 0.000401197
104 *452:60 *840:93 1.52945e-05
105 *457:70 *840:18 0.000471877
106 *457:70 *840:26 0.000136884
107 *717:46 *840:18 0.000113797
108 *717:59 *840:18 1.19928e-05
109 *717:98 *2250:A1 6.56448e-06
110 *726:17 *840:18 0.00047778
111 *726:21 *840:18 0.000163992
112 *726:21 *840:26 0.000139245
113 *726:31 *840:26 0.000115779
114 *819:43 *2250:A1 4.13879e-05
115 *822:30 *2326:A1_N 0.000421068
116 *822:30 *840:18 1.16578e-05
117 *824:24 *2352:B2 0
118 *824:28 *2352:B2 0
119 *824:44 *840:46 9.43751e-05
120 *824:106 *2346:B 0
121 *824:119 *840:105 8.87475e-05
122 *826:38 *840:18 0
123 *826:42 *840:93 2.16306e-05
124 *826:48 *840:36 0.000100181
125 *826:48 *840:46 0
126 *826:48 *840:93 3.67779e-05
127 *826:50 *840:46 0
128 *826:56 *840:46 0.000415165
129 *826:58 *840:46 4.99619e-05
130 *826:120 *840:93 0.000788536
131 *839:52 *840:36 3.09233e-05
132 *839:52 *840:93 8.35683e-05
133 *839:129 *2352:B2 0.000167024
*RES
1 *2627:X *840:4 1.6 
2 *840:4 *840:18 17.925 
3 *840:18 *840:26 9.535 
4 *840:26 *840:36 11.925 
5 *840:36 *840:46 8.855 
6 *840:46 *2352:B2 12.545 
7 *840:46 *2357:A2 1.6 
8 *840:36 *2362:A2 3.6 
9 *840:26 *840:93 25.125 
10 *840:93 *840:97 0.81 
11 *840:97 *840:99 6.315 
12 *840:99 *840:105 10.985 
13 *840:105 *2346:B 12.855 
14 *840:105 *2342:B1 4.5675 
15 *840:99 *2338:A2 6.215 
16 *840:97 *2334:A2 3.625 
17 *840:93 *2250:A1 21.935 
18 *840:18 *2330:A1 3.6 
19 *840:4 *2326:A1_N 16.685 
*END

*D_NET *841 0.0137706
*CONN
*I *2292:A I *D sky130_fd_sc_hd__and3_1
*I *2268:A1 I *D sky130_fd_sc_hd__a221o_1
*I *2266:A1 I *D sky130_fd_sc_hd__a221o_1
*I *2264:A1 I *D sky130_fd_sc_hd__a221o_1
*I *2262:A1 I *D sky130_fd_sc_hd__a221o_1
*I *2260:A1 I *D sky130_fd_sc_hd__a221o_1
*I *2256:A1 I *D sky130_fd_sc_hd__a221o_1
*I *2254:A1 I *D sky130_fd_sc_hd__a221o_1
*I *2252:A1 I *D sky130_fd_sc_hd__a221o_1
*I *2258:A1 I *D sky130_fd_sc_hd__a221o_1
*I *2628:X O *D sky130_fd_sc_hd__buf_2
*CAP
1 *2292:A 0.000256792
2 *2268:A1 0.000192214
3 *2266:A1 0
4 *2264:A1 0
5 *2262:A1 0
6 *2260:A1 1.04051e-05
7 *2256:A1 2.1951e-05
8 *2254:A1 1.84676e-05
9 *2252:A1 0.000303009
10 *2258:A1 0
11 *2628:X 0.000427478
12 *841:113 0.000213024
13 *841:65 0.000780553
14 *841:55 0.00108597
15 *841:40 0.000945322
16 *841:34 0.000513843
17 *841:28 0.000560529
18 *841:20 0.000737263
19 *841:14 0.000553845
20 *841:8 0.000877512
21 *841:8 *2501:RESET_B 7.81924e-05
22 *841:8 *852:84 0.00010978
23 *841:55 *2495:RESET_B 0.000116108
24 *2170:A2 *841:65 0.000372498
25 *2170:B1 *2254:A1 1.23017e-05
26 *2251:B1 *2252:A1 0
27 *2254:A2 *2254:A1 5.09682e-05
28 *2255:B1 *841:65 0.000140526
29 *2256:B2 *841:65 0.000118216
30 *2256:C1 *2256:A1 8.52883e-05
31 *2256:C1 *841:65 1.04328e-05
32 *2258:A2 *841:40 1.2818e-05
33 *2258:B1 *841:55 2.68526e-05
34 *2258:B2 *841:55 2.62749e-05
35 *2259:A1 *841:40 0.000163199
36 *2259:B1 *841:40 0.0001249
37 *2260:A2 *841:34 1.37395e-05
38 *2260:B2 *841:34 7.49327e-05
39 *2260:B2 *841:40 0.000141547
40 *2260:C1 *841:40 0.00010846
41 *2260:C1 *841:55 1.51079e-05
42 *2261:B1 *841:34 0.000122331
43 *2262:A2 *841:28 8.53113e-06
44 *2262:B2 *841:28 2.42236e-05
45 *2262:B2 *841:34 2.49708e-05
46 *2262:C1 *841:28 0.000238137
47 *2263:B1 *841:34 0
48 *2264:A2 *841:20 6.92308e-05
49 *2264:B2 *841:28 1.12643e-05
50 *2264:C1 *841:28 0.000149765
51 *2265:A2 *2292:A 3.67082e-05
52 *2266:A2 *2268:A1 0.000178899
53 *2266:C1 *2268:A1 5.50494e-05
54 *2266:C1 *841:20 1.12578e-05
55 *2267:B1 *2292:A 0.000400738
56 *2267:B1 *841:14 0.000244775
57 *2268:B2 *2268:A1 1.12643e-05
58 *2292:B *2292:A 2.75229e-05
59 *2293:B1 *2292:A 9.66021e-05
60 *2462:D *841:65 8.93844e-05
61 *2468:CLK *841:14 0.000132875
62 *2495:D *841:55 0
63 *2497:D *841:40 4.99619e-05
64 *117:23 *2254:A1 8.52883e-05
65 *118:10 *841:65 0.000137571
66 *118:12 *841:65 0.000137571
67 *126:33 *2292:A 0
68 *223:10 *2252:A1 3.23981e-05
69 *223:10 *841:65 0
70 *262:10 *2252:A1 2.05568e-05
71 *539:23 *2252:A1 0
72 *539:23 *841:65 0
73 *539:36 *841:65 0
74 *725:45 *2252:A1 4.43871e-06
75 *730:8 *2292:A 1.1561e-05
76 *730:10 *2292:A 8.6099e-05
77 *730:12 *2292:A 0.00010141
78 *730:14 *2292:A 4.06585e-05
79 *730:14 *841:14 5.38577e-05
80 *730:38 *841:8 3.1835e-05
81 *730:52 *841:34 1.91597e-05
82 *791:47 *841:65 2.38114e-05
83 *814:25 *2268:A1 7.70093e-05
84 *819:80 *841:65 0
85 *820:78 *2292:A 0.000129612
86 *822:32 *841:34 0.000123894
87 *822:34 *841:34 5.68801e-05
88 *822:34 *841:40 9.27255e-06
89 *828:16 *2292:A 2.16833e-05
90 *828:16 *841:14 3.5644e-05
91 *828:22 *841:20 0.000320619
92 *828:22 *841:28 2.30292e-05
93 *828:30 *841:28 0.000236694
94 *828:32 *841:34 0.00026783
95 *828:32 *841:40 2.75229e-05
96 *828:42 *2256:A1 4.77757e-05
97 *828:68 *2252:A1 0.000323144
98 *834:29 *841:28 0
*RES
1 *2628:X *841:8 8.535 
2 *841:8 *841:14 6.98 
3 *841:14 *841:20 5.055 
4 *841:20 *841:28 11.59 
5 *841:28 *841:34 5.4 
6 *841:34 *841:40 7.035 
7 *841:40 *2258:A1 1.6 
8 *841:40 *841:55 11.86 
9 *841:55 *841:65 12.56 
10 *841:65 *2252:A1 9.615 
11 *841:65 *2254:A1 4.395 
12 *841:55 *2256:A1 2.395 
13 *841:34 *2260:A1 1.96 
14 *841:28 *2262:A1 1.6 
15 *841:20 *2264:A1 1.6 
16 *841:14 *841:113 0.36 
17 *841:113 *2266:A1 1.6 
18 *841:113 *2268:A1 5.5 
19 *841:8 *2292:A 12.24 
*END

*D_NET *842 0.0168453
*CONN
*I *930:DIODE I *D sky130_fd_sc_hd__diode_2
*I *2290:A I *D sky130_fd_sc_hd__and3_1
*I *872:DIODE I *D sky130_fd_sc_hd__diode_2
*I *2288:A I *D sky130_fd_sc_hd__and3_1
*I *871:DIODE I *D sky130_fd_sc_hd__diode_2
*I *929:DIODE I *D sky130_fd_sc_hd__diode_2
*I *2628:A I *D sky130_fd_sc_hd__buf_2
*I *928:DIODE I *D sky130_fd_sc_hd__diode_2
*I *2627:A I *D sky130_fd_sc_hd__buf_2
*I *2366:A2 I *D sky130_fd_sc_hd__a221o_1
*I *893:DIODE I *D sky130_fd_sc_hd__diode_2
*I *2629:X O *D sky130_fd_sc_hd__dlymetal6s2s_1
*CAP
1 *930:DIODE 0.000386999
2 *2290:A 5.02911e-05
3 *872:DIODE 3.24135e-05
4 *2288:A 0
5 *871:DIODE 0.000105457
6 *929:DIODE 0
7 *2628:A 0
8 *928:DIODE 0
9 *2627:A 8.93023e-05
10 *2366:A2 0.000207063
11 *893:DIODE 9.10826e-05
12 *2629:X 0
13 *842:118 0.00093579
14 *842:90 0.000231361
15 *842:84 0.00129585
16 *842:75 0.000413744
17 *842:62 0.00131394
18 *842:36 0.00144238
19 *842:10 0.0011874
20 *842:8 0.00104956
21 *842:4 0.000411283
22 *893:DIODE *847:108 1.01152e-05
23 *842:10 *847:90 0
24 *842:10 *847:96 0
25 *842:10 *847:100 4.70261e-05
26 *842:10 *847:108 0.000364846
27 *842:62 *847:80 0.000158725
28 *842:62 *852:20 0
29 *842:62 *852:26 0
30 *842:62 *852:36 0
31 *842:62 *852:84 8.65961e-05
32 *842:75 *852:84 2.30292e-05
33 *842:75 *853:46 6.55406e-05
34 *842:84 *2474:RESET_B 9.47454e-05
35 *842:84 *2514:RESET_B 0.000166346
36 *842:84 *851:19 0.000148092
37 *842:84 *853:46 0.000205191
38 *842:118 *2474:RESET_B 0.000118527
39 *919:DIODE *842:118 0
40 *1978:B *2627:A 0
41 *2067:A *2366:A2 0.000190796
42 *2068:B *2366:A2 5.97622e-05
43 *2068:B *842:10 0.000114492
44 *2148:B *842:62 0
45 *2151:B2 *842:62 0.000163992
46 *2153:C1 *842:62 7.84247e-05
47 *2155:B1 *842:62 0
48 *2155:B2 *842:62 0.000106285
49 *2190:A *842:62 8.35042e-05
50 *2193:C *842:62 2.68721e-05
51 *2270:C1 *842:62 0
52 *2278:B2 *842:62 0
53 *2279:A1 *930:DIODE 4.82863e-05
54 *2279:A2 *930:DIODE 1.19928e-05
55 *2287:B1 *842:90 4.82919e-05
56 *2288:C *842:90 1.70906e-05
57 *2289:A2 *871:DIODE 2.84224e-05
58 *2290:B *842:118 0.00012657
59 *2290:C *842:118 4.17708e-06
60 *2291:A1 *842:90 5.83121e-06
61 *2291:A1 *842:118 5.07478e-05
62 *2291:A2 *842:90 8.65961e-05
63 *2291:B1 *2290:A 0
64 *2291:B1 *842:90 5.4155e-06
65 *2291:B1 *842:118 0.000112902
66 *2326:A2_N *842:10 0
67 *2326:A2_N *842:36 0
68 *2328:A1 *842:10 0
69 *2364:A1 *893:DIODE 0.000107838
70 *2364:A1 *842:10 3.41502e-05
71 *2365:B1 *842:10 0
72 *2366:A1 *2366:A2 0
73 *2367:A1 *893:DIODE 0.000251595
74 *2507:D *930:DIODE 1.7386e-05
75 *2511:D *842:84 0.00011852
76 *2512:D *842:118 0.000204062
77 *2534:D *842:10 0
78 *2535:D *842:10 0.000100536
79 *2611:A *842:62 4.82919e-05
80 *2629:A *842:36 0
81 *2676:A *842:62 1.83847e-05
82 *2676:A *842:75 3.86607e-05
83 *2676:A *842:84 2.68721e-05
84 *2685:A *842:10 0
85 *111:25 *842:62 0.00017354
86 *219:14 *871:DIODE 3.76596e-05
87 *219:22 *871:DIODE 6.61752e-05
88 *372:10 *842:62 0
89 *376:77 *842:62 0
90 *443:22 *842:62 2.59981e-05
91 *448:24 *930:DIODE 3.00381e-05
92 *448:24 *842:8 2.75229e-05
93 *448:28 *842:36 0.000180658
94 *448:28 *842:62 0
95 *448:58 *930:DIODE 0.000194263
96 *457:70 *2366:A2 6.90876e-05
97 *458:12 *842:10 2.4997e-05
98 *717:18 *842:62 0.000531401
99 *717:134 *842:62 0.000970353
100 *717:234 *842:62 1.88656e-05
101 *717:234 *842:75 0
102 *717:234 *842:84 0
103 *722:36 *871:DIODE 2.16389e-05
104 *726:17 *842:10 0
105 *814:84 *871:DIODE 2.92496e-05
106 *814:84 *842:90 0.000113237
107 *819:18 *842:62 6.55328e-05
108 *820:111 *842:84 0.000364911
109 *821:16 *842:62 0
110 *822:30 *2627:A 2.70988e-05
111 *822:30 *842:36 1.01152e-05
112 *822:30 *842:62 9.80032e-06
113 *826:24 *842:62 2.75145e-05
114 *826:38 *2627:A 4.66108e-05
115 *826:38 *842:10 5.4003e-05
116 *826:38 *842:36 0.000348739
117 *826:38 *842:62 8.69182e-05
118 *839:16 *842:10 5.05716e-06
119 *839:18 *842:10 0.000182483
120 *840:18 *2627:A 3.23663e-05
*RES
1 *2629:X *842:4 1.6 
2 *842:4 *842:8 2.45 
3 *842:8 *842:10 18.72 
4 *842:10 *893:DIODE 6.765 
5 *842:10 *2366:A2 7.7025 
6 *842:8 *842:36 6.44 
7 *842:36 *2627:A 3.445 
8 *842:36 *928:DIODE 1.6 
9 *842:36 *842:62 31.75 
10 *842:62 *2628:A 1.6 
11 *842:62 *842:75 4.19 
12 *842:75 *929:DIODE 3.6 
13 *842:75 *842:84 10.305 
14 *842:84 *842:90 4.535 
15 *842:90 *871:DIODE 7.94 
16 *842:90 *2288:A 1.6 
17 *842:84 *842:118 13.955 
18 *842:118 *872:DIODE 2.05 
19 *842:118 *2290:A 2.47 
20 *842:4 *930:DIODE 8.38 
*END

*D_NET *843 0.0156207
*CONN
*I *2244:B I *D sky130_fd_sc_hd__nor2_1
*I *2392:A2_N I *D sky130_fd_sc_hd__o2bb2a_1
*I *2518:D I *D sky130_fd_sc_hd__dfrtp_1
*I *2417:A2 I *D sky130_fd_sc_hd__a22o_1
*I *2414:A2 I *D sky130_fd_sc_hd__a22o_1
*I *2400:A2 I *D sky130_fd_sc_hd__a221o_1
*I *2404:A2 I *D sky130_fd_sc_hd__a221o_1
*I *2396:A2 I *D sky130_fd_sc_hd__a221o_1
*I *2411:A2 I *D sky130_fd_sc_hd__a22o_1
*I *2407:A2 I *D sky130_fd_sc_hd__a22o_1
*I *2630:X O *D sky130_fd_sc_hd__buf_2
*CAP
1 *2244:B 2.08101e-05
2 *2392:A2_N 0.00065427
3 *2518:D 6.96376e-05
4 *2417:A2 0
5 *2414:A2 0
6 *2400:A2 0.000380662
7 *2404:A2 4.92012e-05
8 *2396:A2 5.16221e-05
9 *2411:A2 0.000114671
10 *2407:A2 0.000455867
11 *2630:X 0
12 *843:120 0.000958705
13 *843:67 0.00082503
14 *843:56 0.00101553
15 *843:28 0.000874443
16 *843:26 0.000886788
17 *843:24 0.000119203
18 *843:18 0.000962236
19 *843:12 0.00110008
20 *843:4 0.000456888
21 *2407:A2 *2553:RESET_B 9.28188e-05
22 *2518:D *2518:RESET_B 7.45636e-05
23 *843:12 *2518:RESET_B 2.65337e-05
24 *843:18 *2420:A2 8.89971e-05
25 *843:18 *2549:RESET_B 0
26 *843:18 *855:72 0
27 *843:18 *855:74 0
28 *843:18 *856:98 0
29 *843:28 *2553:RESET_B 6.73751e-05
30 *843:28 *855:74 3.35338e-05
31 *843:28 *855:76 0.000137752
32 *843:67 *854:12 0
33 *843:67 *854:16 0
34 *843:120 *2630:A 0.000163204
35 *895:DIODE *2400:A2 8.23457e-05
36 *895:DIODE *2404:A2 6.8725e-06
37 *925:DIODE *2392:A2_N 0.000155497
38 *925:DIODE *843:120 3.66286e-05
39 *2082:A1 *843:56 0
40 *2083:A2 *843:56 6.05134e-05
41 *2100:B *2392:A2_N 2.16917e-05
42 *2100:B *843:120 7.00889e-06
43 *2377:A2 *2400:A2 0.000262696
44 *2393:A3 *2392:A2_N 8.7152e-06
45 *2396:A1 *2396:A2 6.9114e-05
46 *2399:A *2400:A2 4.43871e-06
47 *2400:B1 *2400:A2 1.54111e-05
48 *2401:B1 *2400:A2 7.23602e-05
49 *2403:B *2400:A2 0.000137578
50 *2404:B2 *2400:A2 8.34281e-06
51 *2405:B1 *2404:A2 4.43871e-06
52 *2405:B1 *843:67 7.17811e-05
53 *2406:B *2404:A2 0
54 *2408:B1 *2407:A2 0
55 *2412:B2 *2411:A2 3.00381e-05
56 *2412:B2 *843:28 0
57 *2413:A *843:56 0.000280796
58 *2414:A1 *843:26 4.31106e-05
59 *2414:A1 *843:28 0.000183738
60 *2414:B2 *843:24 3.60364e-05
61 *2415:A2 *843:18 0
62 *2417:A1 *843:18 5.53249e-06
63 *2417:A1 *843:24 0.000117108
64 *2417:A1 *843:26 2.23922e-05
65 *2506:D *2392:A2_N 6.52265e-05
66 *2517:D *843:12 7.23602e-05
67 *2520:CLK *843:18 0
68 *2549:CLK *2392:A2_N 7.73782e-05
69 *2552:D *2404:A2 7.0021e-05
70 *2552:D *843:67 6.21553e-05
71 *2553:D *2407:A2 7.44375e-05
72 *2629:A *843:12 0.000115464
73 *2714:A *843:12 0.000119096
74 *2714:A *843:18 0
75 *251:20 *2392:A2_N 7.97547e-05
76 *253:26 *2400:A2 2.87433e-05
77 *254:55 *2400:A2 3.81908e-06
78 *254:68 *2404:A2 1.37395e-05
79 *257:19 *843:28 0.000163992
80 *257:28 *843:28 0.00011852
81 *258:17 *843:26 2.92496e-05
82 *258:17 *843:28 9.54399e-05
83 *260:21 *843:18 9.14049e-05
84 *376:104 *2392:A2_N 0
85 *467:78 *843:56 0.000237249
86 *467:89 *843:56 3.66286e-05
87 *470:10 *2407:A2 0
88 *470:10 *2411:A2 5.83121e-06
89 *470:10 *843:28 0
90 *470:25 *843:56 0.00015639
91 *470:29 *843:56 0.00015639
92 *720:16 *843:18 0
93 *732:14 *2400:A2 2.24992e-05
94 *733:78 *2392:A2_N 0.000315845
95 *733:87 *2392:A2_N 9.50342e-06
96 *824:22 *2392:A2_N 4.56214e-05
97 *824:202 *2392:A2_N 0
98 *825:24 *2396:A2 8.1218e-05
99 *825:24 *843:56 8.82557e-05
100 *825:24 *843:67 0
101 *825:160 *2392:A2_N 4.66108e-05
102 *826:172 *843:67 0.000759499
103 *837:18 *2518:D 7.00889e-06
104 *837:18 *843:12 0.000313657
105 *837:30 *2392:A2_N 3.57349e-05
106 *837:48 *2244:B 0
107 *837:48 *2392:A2_N 0.000597387
108 *839:16 *843:18 0
109 *839:224 *843:120 0
*RES
1 *2630:X *843:4 1.6 
2 *843:4 *843:12 9.28 
3 *843:12 *843:18 15.05 
4 *843:18 *843:24 2.445 
5 *843:24 *843:26 0.615 
6 *843:26 *843:28 7.755 
7 *843:28 *2407:A2 11.34 
8 *843:28 *2411:A2 5.43 
9 *843:26 *843:56 13.175 
10 *843:56 *2396:A2 2.9125 
11 *843:56 *843:67 11.795 
12 *843:67 *2404:A2 4.59375 
13 *843:67 *2400:A2 13.4125 
14 *843:24 *2414:A2 3.6 
15 *843:18 *2417:A2 3.6 
16 *843:12 *2518:D 3.085 
17 *843:4 *843:120 4.86 
18 *843:120 *2392:A2_N 20 
19 *843:120 *2244:B 1.96 
*END

*D_NET *844 0.016352
*CONN
*I *2630:A I *D sky130_fd_sc_hd__buf_2
*I *2420:A2 I *D sky130_fd_sc_hd__a22o_1
*I *2278:A1 I *D sky130_fd_sc_hd__a221o_1
*I *2384:B2 I *D sky130_fd_sc_hd__a2bb2o_1
*I *2380:B1 I *D sky130_fd_sc_hd__a32o_1
*I *2376:B2 I *D sky130_fd_sc_hd__a2bb2o_1
*I *2371:B1 I *D sky130_fd_sc_hd__a32o_1
*I *2388:B1 I *D sky130_fd_sc_hd__a32o_1
*I *2631:X O *D sky130_fd_sc_hd__clkbuf_2
*CAP
1 *2630:A 0.000102499
2 *2420:A2 0.00058371
3 *2278:A1 0.000614388
4 *2384:B2 0
5 *2380:B1 5.02231e-05
6 *2376:B2 0
7 *2371:B1 0.00056519
8 *2388:B1 6.46574e-05
9 *2631:X 0
10 *844:51 0.00111226
11 *844:47 0.000782163
12 *844:41 0.000287459
13 *844:39 0.00103007
14 *844:14 0.00111209
15 *844:8 0.00163627
16 *844:6 0.000420713
17 *2278:A1 *854:112 0.00034253
18 *2371:B1 *2544:RESET_B 0
19 *2371:B1 *854:47 0
20 *2420:A2 *2549:RESET_B 0.000415935
21 *2630:A *854:12 0
22 *844:8 *854:12 0
23 *844:41 *2546:RESET_B 0.000130529
24 *844:47 *2546:RESET_B 8.54103e-05
25 *923:DIODE *844:8 7.00115e-05
26 *1992:A *2388:B1 3.59531e-06
27 *2077:C *844:47 0.000144833
28 *2084:A *2420:A2 6.6564e-05
29 *2085:A1 *844:8 0.000101629
30 *2085:A2 *844:8 2.03321e-05
31 *2243:B1 *2420:A2 1.7635e-05
32 *2243:B1 *844:8 4.97258e-05
33 *2248:A *2278:A1 0.000100919
34 *2248:A *844:39 1.88904e-05
35 *2248:A *844:41 6.34932e-05
36 *2249:A2 *2278:A1 4.51417e-05
37 *2371:A1 *2371:B1 5.07073e-05
38 *2371:A1 *844:51 0
39 *2371:A3 *2371:B1 0.00104493
40 *2371:A3 *844:51 8.60912e-05
41 *2373:A *844:8 1.0911e-05
42 *2373:B *844:8 0.000203337
43 *2376:A1_N *844:51 0
44 *2380:B2 *844:51 0.000206123
45 *2383:A2 *844:47 0.00025887
46 *2383:A2 *844:51 1.01152e-05
47 *2383:B1 *844:41 0.000108355
48 *2384:B1 *844:41 9.50342e-06
49 *2384:B1 *844:47 0.000311109
50 *2385:A2 *844:39 0.000378519
51 *2388:A2 *2388:B1 1.35171e-05
52 *2420:B1 *2420:A2 2.84224e-05
53 *2421:B2 *2420:A2 0.000139245
54 *2547:CLK *2388:B1 2.09749e-05
55 *2547:D *2278:A1 1.03592e-05
56 *2547:D *844:41 8.37282e-05
57 *2551:CLK *844:51 0
58 *2629:A *2278:A1 0
59 *2629:A *2630:A 0
60 *2629:A *844:8 0
61 *2629:A *844:14 0.000358233
62 *248:40 *844:51 0.000137578
63 *250:27 *2388:B1 2.96342e-05
64 *250:29 *2388:B1 2.07977e-05
65 *260:21 *2420:A2 4.75576e-05
66 *372:10 *2278:A1 0.000124192
67 *380:14 *2278:A1 0.000122525
68 *466:10 *844:51 0.000245199
69 *466:27 *844:47 7.9642e-06
70 *466:27 *844:51 6.66005e-05
71 *681:38 *844:47 5.11148e-06
72 *717:335 *2278:A1 0
73 *717:339 *2278:A1 0
74 *733:60 *2278:A1 0
75 *821:16 *2278:A1 0.000684902
76 *822:18 *2278:A1 1.35034e-05
77 *823:16 *844:14 0.000585918
78 *823:20 *844:14 0.000179938
79 *826:22 *2278:A1 0.000290003
80 *837:69 *2388:B1 5.45736e-05
81 *837:73 *2388:B1 8.7152e-06
82 *837:81 *2380:B1 0.000103179
83 *839:16 *2420:A2 0
84 *843:18 *2420:A2 8.89971e-05
85 *843:120 *2630:A 0.000163204
*RES
1 *2631:X *844:6 3.6 
2 *844:6 *844:8 6.6075 
3 *844:8 *844:14 3.01907 
4 *844:14 *2388:B1 5.1825 
5 *844:14 *844:39 8.2375 
6 *844:39 *844:41 3.8025 
7 *844:41 *844:47 6.27 
8 *844:47 *844:51 11.265 
9 *844:51 *2371:B1 15.8775 
10 *844:51 *2376:B2 3.6 
11 *844:47 *2380:B1 4.5675 
12 *844:41 *2384:B2 3.6 
13 *844:39 *2278:A1 13.0258 
14 *844:8 *2420:A2 16.8925 
15 *844:6 *2630:A 5.7 
*END

*D_NET *845 0.0141232
*CONN
*I *2631:A I *D sky130_fd_sc_hd__clkbuf_2
*I *2276:A1 I *D sky130_fd_sc_hd__a221o_1
*I *2274:A1 I *D sky130_fd_sc_hd__a221o_1
*I *2284:A I *D sky130_fd_sc_hd__and3_1
*I *2286:A I *D sky130_fd_sc_hd__and3_1
*I *2280:A I *D sky130_fd_sc_hd__and3_1
*I *2270:A1 I *D sky130_fd_sc_hd__a221o_1
*I *2282:A I *D sky130_fd_sc_hd__and3_1
*I *2272:A1 I *D sky130_fd_sc_hd__a221o_1
*I *2632:X O *D sky130_fd_sc_hd__clkbuf_2
*CAP
1 *2631:A 7.39436e-05
2 *2276:A1 0
3 *2274:A1 4.59732e-05
4 *2284:A 9.99266e-05
5 *2286:A 0.000570319
6 *2280:A 0
7 *2270:A1 0.0003582
8 *2282:A 0.000133201
9 *2272:A1 0
10 *2632:X 8.98463e-05
11 *845:98 0.000941778
12 *845:55 0.000586366
13 *845:51 0.000753117
14 *845:42 0.000846962
15 *845:34 0.000614668
16 *845:30 0.000756012
17 *845:10 0.000811448
18 *2270:A1 *852:16 0.000193801
19 *2270:A1 *852:26 0
20 *2631:A *854:12 0
21 *845:30 *854:10 0
22 *845:30 *854:12 0
23 *845:42 *2470:RESET_B 9.9468e-05
24 *845:51 *2469:RESET_B 0
25 *845:51 *857:85 0
26 *845:98 *2509:RESET_B 1.73877e-05
27 *2091:B *845:30 0.000352072
28 *2092:A_N *845:10 4.82919e-05
29 *2092:A_N *845:30 1.07797e-05
30 *2205:B *845:51 5.39961e-05
31 *2205:B *845:98 0.000509603
32 *2207:A *845:98 4.66108e-05
33 *2207:B *845:98 0.000471294
34 *2209:B *2286:A 0.000100528
35 *2268:B1 *2270:A1 1.23763e-05
36 *2270:A2 *2270:A1 0.00029515
37 *2271:A2 *2282:A 1.52184e-05
38 *2271:A2 *845:51 0.000274351
39 *2271:A2 *845:98 7.21296e-06
40 *2271:B1 *845:51 0
41 *2272:A2 *845:42 5.53249e-06
42 *2272:A2 *845:51 0.00019194
43 *2274:B2 *2274:A1 1.87449e-05
44 *2275:B1 *2274:A1 2.75229e-05
45 *2275:B1 *845:42 0.000302232
46 *2276:A2 *845:30 3.08098e-05
47 *2276:A2 *845:34 6.02123e-05
48 *2276:B1 *845:30 6.00941e-05
49 *2277:B1 *845:30 0.000114912
50 *2282:B *2282:A 2.77283e-05
51 *2284:B *2284:A 4.21973e-05
52 *2284:C *2284:A 4.11961e-05
53 *2284:C *845:98 8.69182e-05
54 *2285:A1 *2284:A 2.6801e-05
55 *2285:B1 *845:98 0.000196376
56 *2286:B *2286:A 0.000256469
57 *2293:A2 *2270:A1 0.00013194
58 *2503:CLK *2270:A1 1.76441e-05
59 *2504:D *845:42 0
60 *2516:CLK *845:30 0.000278117
61 *2629:A *2631:A 4.91189e-05
62 *2632:A *845:10 1.08758e-05
63 *2639:A *2270:A1 5.37442e-05
64 *2668:A *2270:A1 0.000154106
65 *112:10 *845:42 1.91597e-05
66 *215:21 *845:55 4.65607e-05
67 *216:13 *2282:A 1.03323e-05
68 *218:14 *2286:A 0.000115837
69 *222:34 *845:98 0.000152127
70 *222:62 *2286:A 8.65905e-05
71 *268:8 *845:30 3.08098e-05
72 *268:14 *845:30 0.000116165
73 *271:8 *2631:A 8.08153e-06
74 *271:8 *845:30 0
75 *717:218 *2286:A 0.000468231
76 *717:335 *2274:A1 4.31106e-05
77 *717:335 *845:34 0.000288997
78 *814:47 *2282:A 4.04796e-05
79 *814:47 *845:98 0
80 *814:112 *845:51 3.91475e-05
81 *818:42 *845:42 0
82 *820:31 *2270:A1 0.000198939
83 *820:31 *845:55 9.11353e-05
84 *821:44 *845:42 0.000109429
85 *829:36 *845:30 0.000162146
86 *829:38 *845:30 0.000601718
87 *829:76 *2274:A1 4.95273e-05
88 *829:76 *845:34 6.95335e-05
89 *829:86 *845:42 0
*RES
1 *2632:X *845:10 5.1 
2 *845:10 *845:30 19.205 
3 *845:30 *845:34 5.42 
4 *845:34 *845:42 11.815 
5 *845:42 *2272:A1 3.6 
6 *845:42 *845:51 8.52 
7 *845:51 *845:55 3.83 
8 *845:55 *2282:A 8.12 
9 *845:55 *2270:A1 15.035 
10 *845:55 *2280:A 1.6 
11 *845:51 *845:98 11.585 
12 *845:98 *2286:A 17.99 
13 *845:98 *2284:A 3.805 
14 *845:34 *2274:A1 5.025 
15 *845:30 *2276:A1 1.6 
16 *845:10 *2631:A 5.235 
*END

*D_NET *846 0.0122017
*CONN
*I *2493:RESET_B I *D sky130_fd_sc_hd__dfrtp_1
*I *2492:RESET_B I *D sky130_fd_sc_hd__dfrtp_1
*I *2458:RESET_B I *D sky130_fd_sc_hd__dfrtp_2
*I *2457:RESET_B I *D sky130_fd_sc_hd__dfrtp_2
*I *2536:RESET_B I *D sky130_fd_sc_hd__dfrtp_1
*I *2539:RESET_B I *D sky130_fd_sc_hd__dfrtp_1
*I *2540:RESET_B I *D sky130_fd_sc_hd__dfrtp_1
*I *2538:RESET_B I *D sky130_fd_sc_hd__dfrtp_1
*I *2537:RESET_B I *D sky130_fd_sc_hd__dfrtp_1
*I *2459:RESET_B I *D sky130_fd_sc_hd__dfrtp_1
*I *2633:X O *D sky130_fd_sc_hd__clkbuf_4
*CAP
1 *2493:RESET_B 0
2 *2492:RESET_B 0.000326029
3 *2458:RESET_B 0
4 *2457:RESET_B 0
5 *2536:RESET_B 0
6 *2539:RESET_B 0.000163689
7 *2540:RESET_B 0.000619441
8 *2538:RESET_B 8.50931e-06
9 *2537:RESET_B 2.28079e-05
10 *2459:RESET_B 0.000615986
11 *2633:X 0.00093747
12 *846:64 0.00101894
13 *846:46 0.000818083
14 *846:42 0.000503418
15 *846:40 0.00038065
16 *846:34 0.000630056
17 *846:22 0.000520182
18 *846:18 0.00102787
19 *846:18 *847:54 5.93761e-05
20 *2039:B *846:18 6.06593e-05
21 *2140:B1 *846:18 0.000111149
22 *2145:A1 *846:18 0.000490938
23 *2145:B1 *846:18 4.82863e-05
24 *2160:C *846:34 1.07797e-05
25 *2162:A1 *846:34 0.000351079
26 *2162:B1 *2459:RESET_B 5.05521e-05
27 *2162:B1 *846:34 3.86607e-05
28 *2250:B1 *2492:RESET_B 3.48292e-05
29 *2251:A1 *846:18 0.000163199
30 *2251:A2 *846:18 0.000104639
31 *2251:B1 *2492:RESET_B 7.40752e-05
32 *2251:B1 *846:18 8.49205e-05
33 *2252:B2 *2492:RESET_B 6.57705e-05
34 *2346:A *2540:RESET_B 0.000210839
35 *2346:B *2540:RESET_B 0.000122801
36 *2346:B *846:64 0.000194588
37 *2348:B1 *2540:RESET_B 0.000125264
38 *2348:B2 *2540:RESET_B 0
39 *2457:D *846:34 0
40 *2457:D *846:40 0
41 *2458:D *846:34 0
42 *2458:D *846:40 0
43 *2492:D *2492:RESET_B 0.000121643
44 *2537:D *2537:RESET_B 1.86458e-05
45 *2537:D *846:64 2.7441e-05
46 *2538:D *2538:RESET_B 2.46073e-05
47 *2538:D *2540:RESET_B 4.91679e-05
48 *2538:D *846:64 3.27338e-05
49 *2539:D *2540:RESET_B 0.000160314
50 *2540:CLK *2540:RESET_B 7.18771e-05
51 *2540:D *2540:RESET_B 5.61465e-05
52 *2541:CLK *2539:RESET_B 0.000201508
53 *2541:D *2539:RESET_B 0
54 *108:10 *846:40 0
55 *116:27 *2459:RESET_B 2.75145e-05
56 *116:42 *2459:RESET_B 5.83121e-06
57 *116:42 *2492:RESET_B 0.000107415
58 *116:50 *846:34 0
59 *240:8 *846:64 0.000124895
60 *241:8 *2540:RESET_B 4.82863e-05
61 *242:12 *2539:RESET_B 7.21296e-06
62 *431:14 *846:18 0
63 *539:23 *846:18 0.000139238
64 *539:23 *846:22 0.000210846
65 *539:23 *846:34 0
66 *718:57 *2539:RESET_B 4.24575e-05
67 *725:73 *846:18 0
68 *791:61 *846:34 0
69 *824:56 *2539:RESET_B 4.82863e-05
70 *824:70 *2539:RESET_B 7.06865e-05
71 *824:70 *2540:RESET_B 0.000345081
72 *824:76 *2540:RESET_B 6.45107e-05
73 *826:70 *2539:RESET_B 0
74 *840:105 *846:46 0
75 *840:105 *846:64 0.000199836
*RES
1 *2633:X *846:18 24.685 
2 *846:18 *846:22 4.4 
3 *846:22 *2459:RESET_B 1.7775 
4 *2459:RESET_B *846:34 11.075 
5 *846:34 *846:40 1.935 
6 *846:40 *846:42 4.44 
7 *846:42 *846:46 5.93 
8 *846:46 *2537:RESET_B 0.3975 
9 *846:46 *846:64 15.34 
10 *846:64 *2538:RESET_B 0.3975 
11 *846:64 *2540:RESET_B 15.3475 
12 *2540:RESET_B *2539:RESET_B 7.5025 
13 *846:42 *2536:RESET_B 2 
14 *846:40 *2457:RESET_B 2 
15 *846:34 *2458:RESET_B 2 
16 *846:22 *2492:RESET_B 6.2775 
17 *846:18 *2493:RESET_B 2 
*END

*D_NET *847 0.0196806
*CONN
*I *896:DIODE I *D sky130_fd_sc_hd__diode_2
*I *2507:RESET_B I *D sky130_fd_sc_hd__dfrtp_1
*I *932:DIODE I *D sky130_fd_sc_hd__diode_2
*I *898:DIODE I *D sky130_fd_sc_hd__diode_2
*I *899:DIODE I *D sky130_fd_sc_hd__diode_2
*I *2534:RESET_B I *D sky130_fd_sc_hd__dfrtp_1
*I *900:DIODE I *D sky130_fd_sc_hd__diode_2
*I *2535:RESET_B I *D sky130_fd_sc_hd__dfrtp_1
*I *903:DIODE I *D sky130_fd_sc_hd__diode_2
*I *2543:RESET_B I *D sky130_fd_sc_hd__dfrtp_1
*I *902:DIODE I *D sky130_fd_sc_hd__diode_2
*I *2542:RESET_B I *D sky130_fd_sc_hd__dfrtp_1
*I *901:DIODE I *D sky130_fd_sc_hd__diode_2
*I *2541:RESET_B I *D sky130_fd_sc_hd__dfrtp_1
*I *931:DIODE I *D sky130_fd_sc_hd__diode_2
*I *897:DIODE I *D sky130_fd_sc_hd__diode_2
*I *2494:RESET_B I *D sky130_fd_sc_hd__dfrtp_1
*I *2633:A I *D sky130_fd_sc_hd__clkbuf_4
*I *2472:RESET_B I *D sky130_fd_sc_hd__dfrtp_1
*I *2634:X O *D sky130_fd_sc_hd__clkbuf_4
*CAP
1 *896:DIODE 2.27971e-05
2 *2507:RESET_B 0
3 *932:DIODE 0.000118773
4 *898:DIODE 0
5 *899:DIODE 7.73087e-05
6 *2534:RESET_B 5.72478e-05
7 *900:DIODE 0
8 *2535:RESET_B 0.000308655
9 *903:DIODE 0.000138319
10 *2543:RESET_B 3.87255e-05
11 *902:DIODE 0
12 *2542:RESET_B 8.7117e-05
13 *901:DIODE 0
14 *2541:RESET_B 0.000247499
15 *931:DIODE 8.45151e-05
16 *897:DIODE 0
17 *2494:RESET_B 0.000244072
18 *2633:A 4.3521e-05
19 *2472:RESET_B 0.00128678
20 *2634:X 0
21 *847:214 0.0006345
22 *847:193 0.000134557
23 *847:128 0.000506615
24 *847:126 0.00060072
25 *847:124 0.000810908
26 *847:110 0.000630698
27 *847:108 0.000688897
28 *847:100 0.00088317
29 *847:96 0.000442479
30 *847:90 0.000707959
31 *847:86 0.000994907
32 *847:80 0.000363072
33 *847:76 0.000318098
34 *847:54 0.000986672
35 *847:44 0.00085963
36 *847:33 0.00114879
37 *847:4 0.000300475
38 *847:214 *854:112 0
39 *893:DIODE *847:108 1.01152e-05
40 *1974:A *847:54 4.66108e-05
41 *1989:B1 *847:33 0.000348299
42 *2002:B *847:54 0
43 *2008:A *2633:A 0
44 *2008:A *847:33 5.89104e-05
45 *2008:B *847:33 8.40269e-05
46 *2017:B *847:33 1.20741e-05
47 *2018:B1 *847:33 3.66286e-05
48 *2021:A *847:33 3.18367e-05
49 *2052:B1 *847:33 0.000120923
50 *2068:A *847:108 3.3207e-05
51 *2073:A *847:108 8.30822e-05
52 *2139:B2 *847:54 9.04308e-05
53 *2140:B1 *847:54 5.65694e-05
54 *2142:A1 *847:54 3.04982e-05
55 *2143:B1 *847:54 0.000270653
56 *2144:A1 *847:54 0
57 *2145:A2 *847:54 0
58 *2195:A *932:DIODE 7.9642e-06
59 *2248:A *847:214 0.000122325
60 *2248:B *847:214 7.37606e-05
61 *2250:B1 *2633:A 0
62 *2250:B1 *847:44 0
63 *2253:B1 *2494:RESET_B 4.77719e-05
64 *2279:A2 *847:80 0
65 *2279:A2 *847:86 0
66 *2279:A2 *847:90 3.11262e-05
67 *2326:A2_N *847:90 0
68 *2364:A2 *847:124 0.000186099
69 *2367:A1 *847:108 7.4027e-05
70 *2367:A1 *847:124 0
71 *2367:A2 *847:124 7.00889e-06
72 *2367:B1 *847:124 0.000143188
73 *2370:B *847:108 9.71067e-05
74 *2494:D *2494:RESET_B 8.70995e-05
75 *2507:CLK *847:214 1.33293e-05
76 *2542:D *2542:RESET_B 0
77 *2543:D *847:124 4.99619e-05
78 *2546:CLK *2535:RESET_B 2.96334e-05
79 *2546:CLK *847:96 7.35813e-05
80 *2546:D *847:96 4.05674e-06
81 *2608:A *932:DIODE 1.42329e-05
82 *2608:A *847:214 4.18603e-06
83 *2634:A *896:DIODE 4.66826e-05
84 *2634:A *847:76 3.98908e-05
85 *2685:A *847:90 6.28843e-05
86 *236:10 *847:86 7.9642e-06
87 *236:10 *847:90 0
88 *237:6 *899:DIODE 0.000122337
89 *237:6 *2534:RESET_B 1.2263e-05
90 *245:6 *2541:RESET_B 2.75145e-05
91 *245:10 *2541:RESET_B 0
92 *245:10 *2542:RESET_B 5.4003e-05
93 *246:19 *847:108 4.05193e-05
94 *354:61 *847:90 7.17811e-05
95 *354:61 *847:96 0.000185342
96 *354:61 *847:100 0
97 *354:61 *847:108 0
98 *365:12 *847:54 2.01259e-05
99 *372:10 *847:86 7.10578e-05
100 *372:10 *847:214 9.27495e-05
101 *380:8 *847:33 0.000102586
102 *408:6 *847:33 0.000255288
103 *412:18 *847:33 5.61539e-05
104 *425:50 *847:54 0
105 *443:22 *847:33 7.00751e-05
106 *443:52 *847:214 0
107 *448:28 *847:80 0
108 *448:28 *847:86 0
109 *448:58 *847:90 0
110 *717:33 *2472:RESET_B 0.000142059
111 *726:31 *2535:RESET_B 3.50445e-06
112 *726:35 *2542:RESET_B 0
113 *726:62 *2535:RESET_B 0.000115378
114 *733:21 *932:DIODE 0.000241327
115 *733:21 *847:214 3.09233e-05
116 *819:18 *896:DIODE 7.3151e-05
117 *819:18 *2472:RESET_B 6.61613e-05
118 *819:18 *847:76 0.000161529
119 *822:18 *932:DIODE 5.39357e-05
120 *822:18 *847:80 1.37895e-05
121 *823:58 *847:108 0
122 *826:22 *847:80 3.97171e-05
123 *831:53 *847:33 4.9187e-05
124 *831:70 *847:33 8.59955e-05
125 *832:94 *847:33 5.00232e-05
126 *832:100 *931:DIODE 8.49205e-05
127 *832:100 *847:33 0.000315148
128 *836:62 *2472:RESET_B 3.68682e-05
129 *842:10 *847:90 0
130 *842:10 *847:96 0
131 *842:10 *847:100 4.70261e-05
132 *842:10 *847:108 0.000364846
133 *842:62 *847:80 0.000158725
134 *846:18 *847:54 5.93761e-05
*RES
1 *2634:X *847:4 1.6 
2 *847:4 *2472:RESET_B 7.3 
3 *2472:RESET_B *847:33 19.3275 
4 *847:33 *2633:A 2.41 
5 *847:33 *847:44 0.615 
6 *847:44 *847:54 16.735 
7 *847:54 *2494:RESET_B 3.5025 
8 *847:54 *897:DIODE 1.6 
9 *847:44 *931:DIODE 2.74 
10 *847:4 *847:76 2.1 
11 *847:76 *847:80 5.93 
12 *847:80 *847:86 4.265 
13 *847:86 *847:90 7.205 
14 *847:90 *847:96 8.105 
15 *847:96 *847:100 3.38 
16 *847:100 *847:108 13.625 
17 *847:108 *847:110 0.615 
18 *847:110 *847:124 13.525 
19 *847:124 *847:126 3.555 
20 *847:126 *847:128 3.555 
21 *847:128 *2541:RESET_B 7.9225 
22 *847:128 *901:DIODE 1.6 
23 *847:126 *2542:RESET_B 6.145 
24 *847:124 *902:DIODE 1.6 
25 *847:110 *2543:RESET_B 0.7575 
26 *847:108 *903:DIODE 3.085 
27 *847:100 *2535:RESET_B 5.9675 
28 *847:96 *900:DIODE 1.6 
29 *847:90 *847:193 2 
30 *847:193 *2534:RESET_B 1.0125 
31 *847:193 *899:DIODE 3.085 
32 *847:86 *847:214 8.66 
33 *847:214 *898:DIODE 3.6 
34 *847:214 *932:DIODE 6.51 
35 *847:80 *2507:RESET_B 2 
36 *847:76 *896:DIODE 2.395 
*END

*D_NET *848 0.00893329
*CONN
*I *2480:RESET_B I *D sky130_fd_sc_hd__dfrtp_1
*I *2486:RESET_B I *D sky130_fd_sc_hd__dfrtp_1
*I *2489:RESET_B I *D sky130_fd_sc_hd__dfrtp_1
*I *2488:RESET_B I *D sky130_fd_sc_hd__dfrtp_1
*I *2487:RESET_B I *D sky130_fd_sc_hd__dfrtp_1
*I *2485:RESET_B I *D sky130_fd_sc_hd__dfrtp_1
*I *2484:RESET_B I *D sky130_fd_sc_hd__dfrtp_1
*I *2483:RESET_B I *D sky130_fd_sc_hd__dfrtp_1
*I *2482:RESET_B I *D sky130_fd_sc_hd__dfrtp_1
*I *2479:RESET_B I *D sky130_fd_sc_hd__dfrtp_1
*I *2635:X O *D sky130_fd_sc_hd__clkbuf_4
*CAP
1 *2480:RESET_B 2.89669e-05
2 *2486:RESET_B 0.000355506
3 *2489:RESET_B 5.29246e-05
4 *2488:RESET_B 0.000818038
5 *2487:RESET_B 2.77145e-05
6 *2485:RESET_B 4.50792e-05
7 *2484:RESET_B 0.000102668
8 *2483:RESET_B 0.000141069
9 *2482:RESET_B 0.000297045
10 *2479:RESET_B 0.00016086
11 *2635:X 0.00016086
12 *848:70 0.00104707
13 *848:62 0.000504728
14 *848:48 0.000295562
15 *848:46 0.000488358
16 *848:36 0.000313366
17 *848:26 0.000624549
18 *848:24 0.000574289
19 *848:10 0.000436733
20 *2486:RESET_B *2489:D 0
21 *2488:RESET_B *2490:RESET_B 0.000143726
22 *848:70 *2489:D 3.59997e-05
23 *936:DIODE *2486:RESET_B 0
24 *2199:A *848:70 0.000196048
25 *2199:C *2486:RESET_B 7.53115e-05
26 *2199:C *848:26 0.000119134
27 *2199:C *848:36 7.26629e-05
28 *2199:C *848:46 0.000125626
29 *2200:A3 *2486:RESET_B 2.3038e-05
30 *2296:A *2488:RESET_B 2.03578e-05
31 *2304:B *848:26 0
32 *2319:B_N *2488:RESET_B 0
33 *2324:D *848:26 0
34 *2487:D *2487:RESET_B 1.53577e-05
35 *2487:D *2488:RESET_B 7.70304e-07
36 *2487:D *848:70 3.26223e-06
37 *2488:CLK *2488:RESET_B 0.000312176
38 *2488:D *2488:RESET_B 5.88949e-05
39 *2496:D *2482:RESET_B 0
40 *134:6 *2479:RESET_B 0.000162311
41 *137:8 *2482:RESET_B 0.000318466
42 *137:8 *848:24 9.76522e-05
43 *137:21 *848:24 2.38193e-05
44 *137:21 *848:26 8.01544e-05
45 *137:34 *848:26 8.52172e-05
46 *138:10 *848:26 7.89767e-05
47 *139:10 *2484:RESET_B 5.83121e-06
48 *139:10 *848:26 0
49 *139:10 *848:36 0
50 *140:16 *848:46 2.05641e-05
51 *141:22 *2486:RESET_B 1.08758e-05
52 *141:22 *2488:RESET_B 0.000114492
53 *629:10 *848:26 0
54 *629:12 *848:26 0
55 *728:10 *2480:RESET_B 9.26907e-06
56 *728:10 *848:24 0
57 *728:10 *848:26 0
58 *728:14 *2482:RESET_B 0
59 *728:14 *848:24 0
60 *728:22 *2482:RESET_B 3.84409e-05
61 *729:23 *2489:RESET_B 1.10702e-05
62 *729:27 *2489:RESET_B 9.76407e-06
63 *729:27 *848:62 4.83506e-05
64 *729:35 *2485:RESET_B 2.43941e-05
65 *729:35 *848:62 2.50702e-05
66 *729:92 *848:46 0
67 *729:92 *848:70 9.08126e-05
*RES
1 *2635:X *2479:RESET_B 4.4125 
2 *2479:RESET_B *848:10 2 
3 *848:10 *2482:RESET_B 7.8725 
4 *848:10 *848:24 2.9775 
5 *848:24 *848:26 8.3925 
6 *848:26 *2483:RESET_B 3.7775 
7 *848:26 *848:36 1.635 
8 *848:36 *2484:RESET_B 3.4325 
9 *848:36 *848:46 2.655 
10 *848:46 *848:48 2 
11 *848:48 *2485:RESET_B 0.7425 
12 *848:48 *848:62 3.69 
13 *848:62 *848:70 7.3 
14 *848:70 *2487:RESET_B 0.7575 
15 *848:70 *2488:RESET_B 21.4775 
16 *848:62 *2489:RESET_B 0.7425 
17 *848:46 *2486:RESET_B 7.9175 
18 *848:24 *2480:RESET_B 2.6825 
*END

*D_NET *849 0.00142325
*CONN
*I *2196:D I *D sky130_fd_sc_hd__or4_1
*I *2489:D I *D sky130_fd_sc_hd__dfrtp_1
*I *2730:X O *D sky130_fd_sc_hd__clkbuf_1
*CAP
1 *2196:D 0.000104633
2 *2489:D 0.000392017
3 *2730:X 0
4 *849:4 0.00049665
5 *2489:D *2490:D 0
6 *938:DIODE *2489:D 0
7 *944:DIODE *2489:D 2.75229e-05
8 *2196:A *2196:D 0.000122702
9 *2199:A *2196:D 0.000158532
10 *2199:A *2489:D 0
11 *2200:A3 *2489:D 1.37226e-05
12 *2486:RESET_B *2489:D 0
13 *2487:CLK *2489:D 8.29874e-06
14 *729:92 *2489:D 0
15 *729:109 *2489:D 6.3172e-05
16 *848:70 *2489:D 3.59997e-05
*RES
1 *2730:X *849:4 1.6 
2 *849:4 *2489:D 11.945 
3 *849:4 *2196:D 4.135 
*END

*D_NET *850 0.0114432
*CONN
*I *2524:RESET_B I *D sky130_fd_sc_hd__dfrtp_1
*I *2497:RESET_B I *D sky130_fd_sc_hd__dfrtp_1
*I *2496:RESET_B I *D sky130_fd_sc_hd__dfrtp_1
*I *2495:RESET_B I *D sky130_fd_sc_hd__dfrtp_1
*I *2481:RESET_B I *D sky130_fd_sc_hd__dfrtp_1
*I *2461:RESET_B I *D sky130_fd_sc_hd__dfrtp_2
*I *2460:RESET_B I *D sky130_fd_sc_hd__dfrtp_1
*I *2462:RESET_B I *D sky130_fd_sc_hd__dfrtp_1
*I *2463:RESET_B I *D sky130_fd_sc_hd__dfrtp_1
*I *2464:RESET_B I *D sky130_fd_sc_hd__dfrtp_2
*I *2636:X O *D sky130_fd_sc_hd__clkbuf_4
*CAP
1 *2524:RESET_B 0.000332521
2 *2497:RESET_B 0
3 *2496:RESET_B 0.000315492
4 *2495:RESET_B 4.82064e-05
5 *2481:RESET_B 0.000342547
6 *2461:RESET_B 0
7 *2460:RESET_B 0
8 *2462:RESET_B 9.01145e-06
9 *2463:RESET_B 0.000373691
10 *2464:RESET_B 2.3389e-05
11 *2636:X 0.000345837
12 *850:115 0.00041155
13 *850:96 0.000858592
14 *850:88 0.000960734
15 *850:69 0.000681794
16 *850:62 0.00115302
17 *850:44 0.00101127
18 *850:36 0.000801362
19 *850:14 0.000516852
20 *2524:RESET_B *2635:A 0.000233984
21 *2164:A *850:69 9.26907e-06
22 *2166:A_N *850:62 9.26907e-06
23 *2166:A_N *850:69 3.48476e-05
24 *2166:B *850:69 0
25 *2167:B1 *850:69 0
26 *2168:A2 *850:69 0
27 *2168:B1 *850:69 0
28 *2171:B *850:69 0
29 *2173:B1 *850:88 0
30 *2174:A *850:44 0.000198945
31 *2174:A *850:62 1.79483e-05
32 *2174:B *850:44 1.94351e-05
33 *2174:B *850:88 3.98865e-05
34 *2176:A1 *2463:RESET_B 0.000162065
35 *2176:A1 *850:36 0.000171477
36 *2176:A1 *850:44 9.47454e-05
37 *2178:A2 *2463:RESET_B 4.80285e-05
38 *2178:A3 *2463:RESET_B 0.00030358
39 *2178:B1 *850:14 6.97118e-05
40 *2179:B *850:14 0
41 *2257:A1 *2496:RESET_B 9.16019e-05
42 *2257:B1 *2496:RESET_B 6.99988e-05
43 *2257:B1 *850:96 1.03755e-05
44 *2258:A2 *2496:RESET_B 0
45 *2258:B2 *2495:RESET_B 5.83121e-06
46 *2259:A1 *2524:RESET_B 0
47 *2259:A1 *850:115 0
48 *2463:CLK *850:88 0
49 *2463:CLK *850:115 0
50 *2463:D *850:36 5.83121e-06
51 *2464:CLK *2462:RESET_B 4.20634e-05
52 *2464:CLK *850:44 0.00023468
53 *2495:D *2481:RESET_B 0
54 *2495:D *850:69 0
55 *2496:D *2496:RESET_B 0
56 *2497:D *2524:RESET_B 4.92206e-05
57 *2497:D *850:115 5.20968e-05
58 *2524:CLK *2524:RESET_B 0
59 *117:68 *850:69 0
60 *118:10 *850:69 0
61 *118:12 *850:69 0
62 *118:61 *850:44 0
63 *120:6 *2463:RESET_B 5.8825e-05
64 *120:14 *2463:RESET_B 5.2089e-05
65 *120:40 *2463:RESET_B 2.86623e-05
66 *121:6 *850:14 1.4399e-05
67 *121:12 *2464:RESET_B 1.53577e-05
68 *121:12 *850:14 1.03323e-05
69 *121:45 *2463:RESET_B 0.000137578
70 *137:8 *2481:RESET_B 2.03321e-05
71 *544:33 *850:88 0
72 *546:12 *850:88 0
73 *728:22 *2481:RESET_B 0.00016141
74 *728:28 *2481:RESET_B 0.000105849
75 *791:29 *2463:RESET_B 2.59926e-05
76 *791:29 *850:36 2.75145e-05
77 *791:33 *850:44 0
78 *791:33 *850:88 0
79 *791:47 *2462:RESET_B 2.53494e-05
80 *791:47 *850:44 1.56651e-05
81 *791:53 *850:62 0.000263103
82 *819:143 *850:14 0.00011686
83 *822:44 *850:88 7.06865e-05
84 *828:40 *850:88 0
85 *828:62 *850:62 1.63221e-05
86 *841:55 *2495:RESET_B 0.000116108
*RES
1 *2636:X *850:14 10.985 
2 *850:14 *2464:RESET_B 0.3975 
3 *850:14 *2463:RESET_B 9.1375 
4 *2463:RESET_B *850:36 6.5525 
5 *850:36 *850:44 6.515 
6 *850:44 *2462:RESET_B 0.3975 
7 *850:44 *850:62 5.01793 
8 *850:62 *2460:RESET_B 2 
9 *850:62 *850:69 5.46 
10 *850:69 *2461:RESET_B 2 
11 *850:69 *2481:RESET_B 9.2375 
12 *850:36 *850:88 6.3525 
13 *850:88 *850:96 1.9697 
14 *850:96 *2495:RESET_B 3.0875 
15 *850:96 *2496:RESET_B 6.635 
16 *850:88 *850:115 1.5075 
17 *850:115 *2497:RESET_B 2 
18 *850:115 *2524:RESET_B 8.3075 
*END

*D_NET *851 0.00760772
*CONN
*I *2513:RESET_B I *D sky130_fd_sc_hd__dfrtp_1
*I *2512:RESET_B I *D sky130_fd_sc_hd__dfrtp_1
*I *2477:RESET_B I *D sky130_fd_sc_hd__dfrtp_1
*I *2478:RESET_B I *D sky130_fd_sc_hd__dfrtp_1
*I *2525:RESET_B I *D sky130_fd_sc_hd__dfrtp_1
*I *2491:RESET_B I *D sky130_fd_sc_hd__dfrtp_1
*I *2521:RESET_B I *D sky130_fd_sc_hd__dfrtp_1
*I *2523:RESET_B I *D sky130_fd_sc_hd__dfrtp_1
*I *2522:RESET_B I *D sky130_fd_sc_hd__dfrtp_1
*I *2514:RESET_B I *D sky130_fd_sc_hd__dfrtp_4
*I *2637:X O *D sky130_fd_sc_hd__clkbuf_4
*CAP
1 *2513:RESET_B 2.44301e-05
2 *2512:RESET_B 7.50122e-05
3 *2477:RESET_B 0.00024932
4 *2478:RESET_B 0
5 *2525:RESET_B 0
6 *2491:RESET_B 0.0002255
7 *2521:RESET_B 0
8 *2523:RESET_B 6.18621e-06
9 *2522:RESET_B 0.000370955
10 *2514:RESET_B 3.40143e-05
11 *2637:X 0
12 *851:81 0.000347905
13 *851:74 0.00027939
14 *851:60 0.000465844
15 *851:53 0.000501141
16 *851:39 0.000533559
17 *851:35 0.000298815
18 *851:23 0.000683805
19 *851:19 0.000570007
20 *851:6 0.000404772
21 *2477:RESET_B *863:12 8.44359e-05
22 *2514:RESET_B *853:46 0.000166346
23 *851:19 *853:46 0.000159964
24 *2101:A *851:53 0
25 *2290:C *851:39 0.000428764
26 *2290:C *851:53 0
27 *2292:B *2522:RESET_B 0
28 *2292:B *851:35 0
29 *2491:D *2491:RESET_B 8.65961e-05
30 *2513:CLK *2513:RESET_B 2.65337e-05
31 *2513:CLK *851:19 0.000109101
32 *2513:CLK *851:23 5.10121e-05
33 *2525:D *851:74 0
34 *2525:D *851:81 0
35 *2586:A *2512:RESET_B 0
36 *2586:A *851:35 0
37 *2599:A *851:35 9.68787e-05
38 *2622:A *2522:RESET_B 0.000120741
39 *2688:A *851:53 1.45231e-05
40 *128:10 *2477:RESET_B 0
41 *128:10 *851:81 0
42 *133:8 *851:53 0
43 *133:8 *851:60 0
44 *133:8 *851:74 0
45 *133:8 *851:81 0
46 *220:21 *851:53 0
47 *220:21 *851:60 0
48 *221:27 *2512:RESET_B 4.11281e-05
49 *221:27 *851:23 6.97943e-06
50 *221:27 *851:35 8.08153e-06
51 *717:247 *2522:RESET_B 0.000275548
52 *730:104 *2522:RESET_B 9.37731e-05
53 *730:104 *851:35 6.26172e-05
54 *731:18 *851:60 3.86607e-05
55 *731:18 *851:74 2.23407e-05
56 *731:46 *2523:RESET_B 2.65337e-05
57 *731:46 *851:39 0.000269966
58 *731:46 *851:53 3.21052e-05
59 *731:111 *2477:RESET_B 0
60 *813:10 *2477:RESET_B 0
61 *842:84 *2514:RESET_B 0.000166346
62 *842:84 *851:19 0.000148092
*RES
1 *2637:X *851:6 3.6 
2 *851:6 *2514:RESET_B 3.89 
3 *851:6 *851:19 7.79 
4 *851:19 *851:23 4.175 
5 *851:23 *2522:RESET_B 8.6975 
6 *851:23 *851:35 3.165 
7 *851:35 *851:39 6.245 
8 *851:39 *2523:RESET_B 0.3975 
9 *851:39 *851:53 8.465 
10 *851:53 *2521:RESET_B 2 
11 *851:53 *851:60 1.125 
12 *851:60 *2491:RESET_B 4.9325 
13 *851:60 *851:74 3.165 
14 *851:74 *2525:RESET_B 2 
15 *851:74 *851:81 1.635 
16 *851:81 *2478:RESET_B 2 
17 *851:81 *2477:RESET_B 6.35 
18 *851:35 *2512:RESET_B 3.38 
19 *851:19 *2513:RESET_B 0.7575 
*END

*D_NET *852 0.0123486
*CONN
*I *2637:A I *D sky130_fd_sc_hd__clkbuf_4
*I *2499:RESET_B I *D sky130_fd_sc_hd__dfrtp_1
*I *2498:RESET_B I *D sky130_fd_sc_hd__dfrtp_1
*I *2500:RESET_B I *D sky130_fd_sc_hd__dfrtp_1
*I *2501:RESET_B I *D sky130_fd_sc_hd__dfrtp_1
*I *2502:RESET_B I *D sky130_fd_sc_hd__dfrtp_1
*I *2468:RESET_B I *D sky130_fd_sc_hd__dfrtp_1
*I *2465:RESET_B I *D sky130_fd_sc_hd__dfrtp_1
*I *2466:RESET_B I *D sky130_fd_sc_hd__dfrtp_1
*I *2467:RESET_B I *D sky130_fd_sc_hd__dfrtp_2
*I *2638:X O *D sky130_fd_sc_hd__clkbuf_4
*CAP
1 *2637:A 0.000191282
2 *2499:RESET_B 0.00010745
3 *2498:RESET_B 0.000169
4 *2500:RESET_B 0.000750802
5 *2501:RESET_B 3.22775e-05
6 *2502:RESET_B 0
7 *2468:RESET_B 0
8 *2465:RESET_B 0.000459791
9 *2466:RESET_B 0.000648894
10 *2467:RESET_B 2.48235e-05
11 *2638:X 0.000384643
12 *852:117 0.000737758
13 *852:84 0.000488217
14 *852:36 0.000675421
15 *852:26 0.000854266
16 *852:20 0.000408627
17 *852:18 0.000215667
18 *852:16 0.00060929
19 *2499:RESET_B *2635:A 0.000231571
20 *2637:A *853:16 1.7635e-05
21 *2637:A *853:46 0.000603097
22 *852:16 *2638:A 0.000181376
23 *852:84 *853:16 1.88656e-05
24 *852:84 *853:46 1.98158e-05
25 *2179:C *2465:RESET_B 0.000157343
26 *2184:B1 *2465:RESET_B 0.00011852
27 *2185:A *2466:RESET_B 0.000122337
28 *2185:B *2466:RESET_B 3.64998e-06
29 *2185:C *2466:RESET_B 4.60584e-05
30 *2187:C *852:36 4.99619e-05
31 *2190:B *852:36 6.71882e-05
32 *2261:A1 *2498:RESET_B 0.000307135
33 *2262:A2 *2498:RESET_B 5.05521e-05
34 *2264:A2 *2499:RESET_B 0
35 *2265:A2 *852:117 2.20732e-05
36 *2265:B1 *2499:RESET_B 0
37 *2265:B1 *852:117 4.66108e-05
38 *2268:A2 *2500:RESET_B 0.000111756
39 *2268:A2 *2501:RESET_B 1.1392e-05
40 *2268:A2 *852:84 1.4399e-05
41 *2269:A2 *2637:A 0.000121508
42 *2269:A2 *852:16 1.88904e-05
43 *2269:A2 *852:20 1.01661e-05
44 *2269:A2 *852:26 6.73665e-05
45 *2270:A1 *852:16 0.000193801
46 *2270:A1 *852:26 0
47 *2270:A2 *852:26 0
48 *2270:C1 *852:26 0.000111011
49 *2293:A2 *2637:A 0.000297824
50 *2293:A2 *852:26 0
51 *2465:CLK *2465:RESET_B 8.40213e-05
52 *2469:CLK *2466:RESET_B 0.000119002
53 *2469:CLK *2467:RESET_B 2.40101e-05
54 *2469:CLK *852:36 0.000190906
55 *2469:D *852:36 0.000164874
56 *2502:CLK *2500:RESET_B 0.000237249
57 *2616:A *2499:RESET_B 0
58 *2664:A *2498:RESET_B 0.000216177
59 *2664:A *852:117 2.75229e-05
60 *2676:A *852:84 1.6408e-05
61 *109:8 *852:36 4.82919e-05
62 *109:10 *2466:RESET_B 0.000152127
63 *109:12 *2466:RESET_B 7.5416e-05
64 *110:14 *852:26 0.000140628
65 *123:8 *2466:RESET_B 1.91597e-05
66 *126:33 *2465:RESET_B 7.89767e-05
67 *126:33 *852:117 4.76647e-05
68 *229:8 *2500:RESET_B 8.49205e-05
69 *551:44 *2466:RESET_B 5.8052e-05
70 *717:134 *2500:RESET_B 5.69266e-05
71 *727:32 *2465:RESET_B 1.15688e-05
72 *727:34 *2465:RESET_B 1.38178e-05
73 *727:34 *2466:RESET_B 1.38178e-05
74 *730:38 *852:117 6.71882e-05
75 *814:47 *852:16 6.8665e-05
76 *820:31 *852:16 8.53113e-06
77 *822:30 *2500:RESET_B 2.9478e-05
78 *822:30 *852:117 1.31017e-05
79 *828:16 *852:117 9.04308e-05
80 *829:101 *852:26 4.63911e-05
81 *829:101 *852:36 6.55328e-05
82 *841:8 *2501:RESET_B 7.81924e-05
83 *841:8 *852:84 0.00010978
84 *842:62 *852:20 0
85 *842:62 *852:26 0
86 *842:62 *852:36 0
87 *842:62 *852:84 8.65961e-05
88 *842:75 *852:84 2.30292e-05
*RES
1 *2638:X *852:16 13.5325 
2 *852:16 *852:18 0.795 
3 *852:18 *852:20 0.4875 
4 *852:20 *852:26 7.29 
5 *852:26 *852:36 9.815 
6 *852:36 *2467:RESET_B 0.3975 
7 *852:36 *2466:RESET_B 9.4675 
8 *2466:RESET_B *2465:RESET_B 11.95 
9 *852:26 *2468:RESET_B 2 
10 *852:20 *2502:RESET_B 2 
11 *852:18 *852:84 5.6225 
12 *852:84 *2501:RESET_B 0.7425 
13 *852:84 *2500:RESET_B 9.5725 
14 *2500:RESET_B *852:117 10.8737 
15 *852:117 *2498:RESET_B 4.5375 
16 *852:117 *2499:RESET_B 6.655 
17 *852:16 *2637:A 11.2275 
*END

*D_NET *853 0.0210018
*CONN
*I *2638:A I *D sky130_fd_sc_hd__clkbuf_4
*I *2490:RESET_B I *D sky130_fd_sc_hd__dfrtp_1
*I *2476:RESET_B I *D sky130_fd_sc_hd__dfrtp_1
*I *2474:RESET_B I *D sky130_fd_sc_hd__dfrtp_1
*I *2511:RESET_B I *D sky130_fd_sc_hd__dfrtp_1
*I *2635:A I *D sky130_fd_sc_hd__clkbuf_4
*I *2636:A I *D sky130_fd_sc_hd__clkbuf_4
*I *2639:X O *D sky130_fd_sc_hd__buf_2
*CAP
1 *2638:A 0.000308924
2 *2490:RESET_B 0.00186013
3 *2476:RESET_B 3.23971e-05
4 *2474:RESET_B 0.000821816
5 *2511:RESET_B 0
6 *2635:A 0.00167184
7 *2636:A 0.000432531
8 *2639:X 0
9 *853:71 0.0020171
10 *853:46 0.00103486
11 *853:16 0.0032345
12 *853:8 0.0015855
13 *853:4 0.000426671
14 *919:DIODE *2474:RESET_B 0
15 *2106:B *2490:RESET_B 2.16917e-05
16 *2178:B1 *2636:A 0.000112123
17 *2181:A1 *2636:A 0
18 *2200:A2 *2490:RESET_B 0.000618103
19 *2200:A3 *2490:RESET_B 0.000133246
20 *2218:B *2474:RESET_B 0
21 *2221:A *2476:RESET_B 0.00019568
22 *2221:B *853:71 0
23 *2222:B *2474:RESET_B 0.000132467
24 *2223:B1 *2490:RESET_B 0
25 *2223:B1 *853:71 0
26 *2225:S *2490:RESET_B 0
27 *2264:A2 *2636:A 0
28 *2264:B2 *2636:A 0.000229897
29 *2265:B1 *2635:A 0
30 *2265:B1 *2636:A 0
31 *2269:A1 *2638:A 0.000116165
32 *2286:C *853:46 0
33 *2287:B1 *2474:RESET_B 0
34 *2287:B1 *853:46 9.99492e-05
35 *2288:C *2474:RESET_B 2.67022e-05
36 *2289:A1 *2474:RESET_B 5.4169e-05
37 *2289:A2 *2474:RESET_B 3.84409e-05
38 *2289:B1 *2474:RESET_B 0.000141599
39 *2293:A2 *853:46 8.08153e-06
40 *2307:A *2635:A 6.05851e-05
41 *2307:B *2635:A 4.86375e-05
42 *2319:B_N *2490:RESET_B 0.000372415
43 *2474:D *2474:RESET_B 9.02174e-05
44 *2475:CLK *2490:RESET_B 0.000388784
45 *2476:D *2490:RESET_B 7.06865e-05
46 *2477:D *2490:RESET_B 0.000115146
47 *2487:D *2490:RESET_B 0
48 *2488:RESET_B *2490:RESET_B 0.000143726
49 *2499:RESET_B *2635:A 0.000231571
50 *2500:D *2636:A 0
51 *2511:D *853:46 0.00011852
52 *2512:D *2474:RESET_B 2.37321e-05
53 *2514:RESET_B *853:46 0.000166346
54 *2524:CLK *2635:A 5.05521e-05
55 *2524:RESET_B *2635:A 0.000233984
56 *2571:A *2490:RESET_B 0
57 *2609:A *2638:A 0.00016063
58 *2609:A *853:8 0.000155497
59 *2616:A *2635:A 0
60 *2616:A *2636:A 0
61 *2616:A *853:16 0
62 *2637:A *853:16 1.7635e-05
63 *2637:A *853:46 0.000603097
64 *126:33 *2636:A 0
65 *127:8 *2635:A 4.82863e-05
66 *128:10 *2490:RESET_B 0.000163204
67 *129:6 *2490:RESET_B 0.0001249
68 *129:25 *2490:RESET_B 0.000270415
69 *130:14 *2490:RESET_B 5.74175e-05
70 *130:16 *2490:RESET_B 2.66586e-05
71 *134:6 *2635:A 5.09627e-05
72 *141:22 *2490:RESET_B 2.42236e-05
73 *210:12 *2474:RESET_B 2.1971e-05
74 *210:12 *853:71 8.07672e-05
75 *494:18 *2490:RESET_B 4.82863e-05
76 *577:12 *2476:RESET_B 0.000116135
77 *626:10 *2635:A 5.062e-06
78 *717:142 *853:16 0.000248171
79 *717:234 *853:46 0
80 *722:36 *2474:RESET_B 0
81 *814:47 *2638:A 0
82 *814:84 *2474:RESET_B 0
83 *820:23 *2638:A 2.8185e-05
84 *820:31 *2638:A 3.23391e-05
85 *821:54 *2638:A 0.000104221
86 *834:29 *2635:A 0.000158138
87 *834:29 *2636:A 0.000122081
88 *842:75 *853:46 6.55406e-05
89 *842:84 *2474:RESET_B 9.47454e-05
90 *842:84 *853:46 0.000205191
91 *842:118 *2474:RESET_B 0.000118527
92 *851:19 *853:46 0.000159964
93 *852:16 *2638:A 0.000181376
94 *852:84 *853:16 1.88656e-05
95 *852:84 *853:46 1.98158e-05
*RES
1 *2639:X *853:4 1.6 
2 *853:4 *853:8 3.485 
3 *853:8 *853:16 3.3681 
4 *853:16 *2636:A 11.2275 
5 *853:16 *2635:A 27.7275 
6 *853:8 *853:46 11.775 
7 *853:46 *2511:RESET_B 2 
8 *853:46 *2474:RESET_B 14.0825 
9 *2474:RESET_B *853:71 4.1225 
10 *853:71 *2476:RESET_B 3.7775 
11 *853:71 *2490:RESET_B 38.095 
12 *853:4 *2638:A 11.45 
*END

*D_NET *854 0.0186032
*CONN
*I *2516:SET_B I *D sky130_fd_sc_hd__dfstp_1
*I *2470:RESET_B I *D sky130_fd_sc_hd__dfrtp_1
*I *2547:RESET_B I *D sky130_fd_sc_hd__dfrtp_1
*I *2546:RESET_B I *D sky130_fd_sc_hd__dfrtp_1
*I *2506:RESET_B I *D sky130_fd_sc_hd__dfrtp_1
*I *2550:RESET_B I *D sky130_fd_sc_hd__dfrtp_2
*I *2545:RESET_B I *D sky130_fd_sc_hd__dfrtp_1
*I *2544:RESET_B I *D sky130_fd_sc_hd__dfrtp_1
*I *2551:RESET_B I *D sky130_fd_sc_hd__dfrtp_2
*I *2552:RESET_B I *D sky130_fd_sc_hd__dfrtp_1
*I *2640:X O *D sky130_fd_sc_hd__clkbuf_4
*CAP
1 *2516:SET_B 0
2 *2470:RESET_B 5.88624e-05
3 *2547:RESET_B 4.26655e-05
4 *2546:RESET_B 0.000476836
5 *2506:RESET_B 0.000208898
6 *2550:RESET_B 0.000104926
7 *2545:RESET_B 0
8 *2544:RESET_B 0.000228722
9 *2551:RESET_B 1.10201e-05
10 *2552:RESET_B 9.81877e-05
11 *2640:X 4.86229e-05
12 *854:112 0.00116369
13 *854:106 0.00125728
14 *854:84 0.00118379
15 *854:47 0.000905004
16 *854:33 0.00101583
17 *854:16 0.000879361
18 *854:12 0.00166277
19 *854:10 0.00161877
20 *854:8 0.000141537
21 *854:106 *2505:RESET_B 2.20753e-05
22 *854:106 *856:55 5.83121e-06
23 *854:106 *856:69 4.61932e-05
24 *2083:A1 *854:12 0
25 *2084:B *854:12 0
26 *2089:A *854:84 0.00026359
27 *2100:B *854:8 8.76033e-05
28 *2100:B *854:10 0.000174519
29 *2100:B *854:12 0.000159957
30 *2243:B1 *854:12 0
31 *2245:A1 *854:84 1.91597e-05
32 *2275:A1 *854:112 0.000118513
33 *2275:B1 *2470:RESET_B 6.00081e-05
34 *2275:B1 *854:112 0.000105841
35 *2276:A2 *854:106 6.98113e-05
36 *2277:A1 *854:84 4.99619e-05
37 *2277:A2 *854:84 0.000237249
38 *2278:A1 *854:112 0.00034253
39 *2278:A2 *854:112 1.88602e-05
40 *2278:B1 *2506:RESET_B 2.91561e-06
41 *2371:B1 *2544:RESET_B 0
42 *2371:B1 *854:47 0
43 *2373:A *854:12 1.94811e-05
44 *2373:B *854:12 0
45 *2376:B1 *2544:RESET_B 8.57321e-05
46 *2377:A2 *2551:RESET_B 1.01678e-05
47 *2377:A2 *854:47 7.30815e-05
48 *2383:A2 *2546:RESET_B 0.000200984
49 *2384:A1_N *2546:RESET_B 0.000140603
50 *2384:A2_N *2546:RESET_B 0.00011852
51 *2385:B2 *2546:RESET_B 0
52 *2385:B2 *854:112 0
53 *2393:A2 *854:12 0
54 *2402:A1 *854:16 0
55 *2402:A2 *854:16 0
56 *2403:B *854:33 1.93834e-05
57 *2404:C1 *2551:RESET_B 5.83121e-06
58 *2405:B1 *854:16 2.46007e-05
59 *2406:B *854:16 0.000113372
60 *2407:B1 *2552:RESET_B 0
61 *2407:B2 *854:33 0.000310037
62 *2416:B *854:12 0
63 *2505:CLK *854:106 9.53484e-05
64 *2506:D *2506:RESET_B 4.82919e-05
65 *2545:D *2544:RESET_B 0.000242825
66 *2547:D *2546:RESET_B 7.9642e-06
67 *2547:D *854:112 9.44791e-05
68 *2551:CLK *2544:RESET_B 0
69 *2551:CLK *854:47 4.70919e-05
70 *2551:D *854:47 0.000123225
71 *2552:D *2552:RESET_B 0
72 *2615:A *854:84 1.23839e-05
73 *2617:A *854:12 2.97122e-05
74 *2629:A *854:12 0
75 *2630:A *854:12 0
76 *2631:A *854:12 0
77 *2674:A *854:106 4.82919e-05
78 *2680:A *2506:RESET_B 0.000116899
79 *247:12 *2544:RESET_B 0.000159045
80 *249:26 *2546:RESET_B 0.000157968
81 *250:10 *2547:RESET_B 0.000119462
82 *250:10 *854:112 9.54399e-05
83 *250:27 *854:112 0.000159969
84 *253:12 *854:16 0.000141606
85 *254:68 *2552:RESET_B 1.7635e-05
86 *254:68 *854:16 0.000211423
87 *268:14 *854:10 0
88 *268:32 *854:8 0
89 *268:32 *854:10 0
90 *269:12 *854:8 0
91 *354:74 *2547:RESET_B 9.11714e-05
92 *467:54 *854:16 0
93 *467:78 *854:12 7.75412e-05
94 *467:78 *854:16 0
95 *468:77 *854:12 0
96 *474:8 *854:12 0
97 *482:10 *854:84 0.0001947
98 *733:21 *854:112 0
99 *733:87 *2506:RESET_B 7.44453e-05
100 *733:87 *854:106 8.2668e-05
101 *818:31 *854:112 0
102 *821:16 *854:112 0.00013361
103 *821:31 *854:112 7.99217e-05
104 *821:44 *2470:RESET_B 0.000112971
105 *821:44 *854:112 5.11035e-05
106 *823:16 *854:12 8.95484e-05
107 *823:24 *2546:RESET_B 0
108 *823:75 *2544:RESET_B 0.000164783
109 *823:90 *854:33 1.79536e-05
110 *824:202 *2506:RESET_B 0.000137894
111 *824:202 *854:106 0.000336247
112 *825:24 *854:12 0.000440804
113 *837:30 *854:12 8.44359e-05
114 *837:130 *854:33 0.000175734
115 *843:67 *854:12 0
116 *843:67 *854:16 0
117 *844:8 *854:12 0
118 *844:41 *2546:RESET_B 0.000130529
119 *844:47 *2546:RESET_B 8.54103e-05
120 *845:30 *854:10 0
121 *845:30 *854:12 0
122 *845:42 *2470:RESET_B 9.9468e-05
123 *847:214 *854:112 0
*RES
1 *2640:X *854:8 4.725 
2 *854:8 *854:10 2.145 
3 *854:10 *854:12 21.015 
4 *854:12 *854:16 8.8425 
5 *854:16 *2552:RESET_B 3.5075 
6 *854:16 *854:33 4.08623 
7 *854:33 *2551:RESET_B 0.3975 
8 *854:33 *854:47 10.49 
9 *854:47 *2544:RESET_B 8.6525 
10 *854:47 *2545:RESET_B 2 
11 *854:12 *2550:RESET_B 3.4325 
12 *854:10 *854:84 12.505 
13 *854:84 *2506:RESET_B 6.2225 
14 *854:84 *854:106 14.5 
15 *854:106 *854:112 14.685 
16 *854:112 *2546:RESET_B 12.4925 
17 *854:112 *2547:RESET_B 3.4325 
18 *854:106 *2470:RESET_B 4.4 
19 *854:8 *2516:SET_B 2 
*END

*D_NET *855 0.00983051
*CONN
*I *2452:RESET_B I *D sky130_fd_sc_hd__dfrtp_1
*I *2556:RESET_B I *D sky130_fd_sc_hd__dfrtp_1
*I *2555:RESET_B I *D sky130_fd_sc_hd__dfrtp_1
*I *2554:RESET_B I *D sky130_fd_sc_hd__dfrtp_1
*I *2553:RESET_B I *D sky130_fd_sc_hd__dfrtp_1
*I *2518:RESET_B I *D sky130_fd_sc_hd__dfrtp_1
*I *2455:RESET_B I *D sky130_fd_sc_hd__dfrtp_1
*I *2453:RESET_B I *D sky130_fd_sc_hd__dfrtp_1
*I *2450:RESET_B I *D sky130_fd_sc_hd__dfrtp_1
*I *2451:RESET_B I *D sky130_fd_sc_hd__dfrtp_1
*I *2641:X O *D sky130_fd_sc_hd__clkbuf_4
*CAP
1 *2452:RESET_B 0.000156123
2 *2556:RESET_B 0
3 *2555:RESET_B 3.24037e-05
4 *2554:RESET_B 0
5 *2553:RESET_B 0.000420376
6 *2518:RESET_B 0.000171435
7 *2455:RESET_B 1.17451e-05
8 *2453:RESET_B 0.000140259
9 *2450:RESET_B 1.04651e-05
10 *2451:RESET_B 0.000118474
11 *2641:X 0.000274491
12 *855:76 0.000599212
13 *855:74 0.000571316
14 *855:72 0.000918531
15 *855:58 0.00142409
16 *855:48 0.000753238
17 *855:33 0.000473354
18 *855:31 0.000585854
19 *855:19 0.000225557
20 *855:8 0.000464127
21 *2452:RESET_B *2519:RESET_B 4.60868e-05
22 *2453:RESET_B *2453:D 0
23 *855:8 *2642:A 0
24 *855:33 *2453:D 0
25 *855:58 *2455:D 1.83847e-05
26 *2088:A *2451:RESET_B 0
27 *2088:A *2452:RESET_B 0
28 *2088:A *855:33 0
29 *2088:B *855:33 2.67022e-05
30 *2090:A *855:48 1.08758e-05
31 *2090:B *2453:RESET_B 0
32 *2131:A1 *2451:RESET_B 0.000254637
33 *2131:A1 *855:8 9.37731e-05
34 *2407:A2 *2553:RESET_B 9.28188e-05
35 *2415:A1 *855:74 3.59997e-05
36 *2415:B2 *855:74 0.000116158
37 *2417:A1 *855:74 3.84409e-05
38 *2451:D *2450:RESET_B 1.5913e-05
39 *2451:D *855:19 4.7101e-05
40 *2451:D *855:31 2.56999e-05
41 *2451:D *855:33 0.000141606
42 *2455:CLK *855:58 7.35813e-05
43 *2518:D *2518:RESET_B 7.45636e-05
44 *2520:CLK *855:72 5.98203e-05
45 *2553:D *2553:RESET_B 3.09233e-05
46 *2555:D *855:74 0
47 *2557:D *855:72 0
48 *2704:A *855:8 0
49 *199:10 *855:8 4.19967e-05
50 *199:10 *855:19 4.99619e-05
51 *199:23 *855:8 9.28444e-05
52 *200:10 *855:33 6.7432e-05
53 *201:6 *2452:RESET_B 4.66742e-05
54 *258:17 *855:74 6.55328e-05
55 *480:10 *855:33 9.37731e-05
56 *480:10 *855:48 1.17309e-05
57 *480:23 *2452:RESET_B 8.59365e-05
58 *480:23 *855:33 0.000455298
59 *719:16 *855:72 0
60 *719:16 *855:74 0
61 *719:24 *855:74 0
62 *719:24 *855:76 0
63 *843:12 *2518:RESET_B 2.65337e-05
64 *843:18 *855:72 0
65 *843:18 *855:74 0
66 *843:28 *2553:RESET_B 6.73751e-05
67 *843:28 *855:74 3.35338e-05
68 *843:28 *855:76 0.000137752
*RES
1 *2641:X *855:8 9.06 
2 *855:8 *2451:RESET_B 4.91 
3 *855:8 *855:19 3.485 
4 *855:19 *2450:RESET_B 0.3975 
5 *855:19 *855:31 3.845 
6 *855:31 *855:33 7.245 
7 *855:33 *2453:RESET_B 3.935 
8 *855:33 *855:48 2.795 
9 *855:48 *2455:RESET_B 0.3975 
10 *855:48 *855:58 8.055 
11 *855:58 *2518:RESET_B 2.5875 
12 *855:58 *855:72 11.285 
13 *855:72 *855:74 6.99 
14 *855:74 *855:76 3.93 
15 *855:76 *2553:RESET_B 9.2825 
16 *855:76 *2554:RESET_B 2 
17 *855:74 *2555:RESET_B 2.3975 
18 *855:72 *2556:RESET_B 2 
19 *855:31 *2452:RESET_B 4.9025 
*END

*D_NET *856 0.0134668
*CONN
*I *2641:A I *D sky130_fd_sc_hd__clkbuf_4
*I *2517:RESET_B I *D sky130_fd_sc_hd__dfrtp_1
*I *2520:RESET_B I *D sky130_fd_sc_hd__dfrtp_1
*I *2557:RESET_B I *D sky130_fd_sc_hd__dfrtp_1
*I *2549:RESET_B I *D sky130_fd_sc_hd__dfrtp_1
*I *2640:A I *D sky130_fd_sc_hd__clkbuf_4
*I *2471:RESET_B I *D sky130_fd_sc_hd__dfrtp_1
*I *2548:RESET_B I *D sky130_fd_sc_hd__dfrtp_1
*I *2505:RESET_B I *D sky130_fd_sc_hd__dfrtp_1
*I *2519:RESET_B I *D sky130_fd_sc_hd__dfrtp_1
*I *2642:X O *D sky130_fd_sc_hd__clkbuf_4
*CAP
1 *2641:A 0.000210076
2 *2517:RESET_B 0
3 *2520:RESET_B 0
4 *2557:RESET_B 0.00021147
5 *2549:RESET_B 0.000207016
6 *2640:A 0
7 *2471:RESET_B 7.03099e-05
8 *2548:RESET_B 0.000207378
9 *2505:RESET_B 1.15628e-05
10 *2519:RESET_B 0.00140198
11 *2642:X 0.000267814
12 *856:100 0.00047587
13 *856:98 0.000486526
14 *856:96 0.000503543
15 *856:69 0.000575829
16 *856:55 0.000809433
17 *856:45 0.00105481
18 *856:31 0.000808975
19 *856:8 0.00170038
20 *2641:A *2642:A 0.000117419
21 *856:8 *2642:A 9.28101e-05
22 *2084:A *2549:RESET_B 0.000194694
23 *2084:A *2557:RESET_B 0.000106145
24 *2091:C *2519:RESET_B 1.27043e-05
25 *2120:B *856:45 8.63511e-05
26 *2128:A1 *2641:A 9.37731e-05
27 *2128:A2 *2641:A 3.80606e-05
28 *2132:A1 *2519:RESET_B 1.91597e-05
29 *2132:A2 *2519:RESET_B 0.000116912
30 *2133:B *2519:RESET_B 8.65905e-05
31 *2246:A1 *856:45 0.000125085
32 *2246:A1 *856:55 0.00011577
33 *2246:A2 *856:55 0.000201508
34 *2246:B1_N *856:55 2.05056e-05
35 *2277:A2 *2471:RESET_B 4.4098e-05
36 *2278:B1 *2548:RESET_B 8.31582e-05
37 *2278:B1 *856:69 0.000118033
38 *2420:A2 *2549:RESET_B 0.000415935
39 *2452:CLK *2519:RESET_B 1.83847e-05
40 *2452:D *2519:RESET_B 0.000157968
41 *2452:RESET_B *2519:RESET_B 4.60868e-05
42 *2505:CLK *856:55 8.33359e-05
43 *2517:D *856:98 0
44 *2519:D *2519:RESET_B 0
45 *2548:D *2548:RESET_B 9.50342e-06
46 *2626:A *856:98 3.84331e-05
47 *2680:A *2548:RESET_B 9.37731e-05
48 *2680:A *856:69 3.09233e-05
49 *2714:A *2549:RESET_B 1.70935e-05
50 *2714:A *856:98 5.04265e-05
51 *2714:A *856:100 9.91579e-05
52 *200:34 *856:8 0.000162419
53 *201:6 *2519:RESET_B 0.00023468
54 *252:10 *2549:RESET_B 0.000119066
55 *260:21 *2557:RESET_B 1.35054e-05
56 *271:8 *856:96 0
57 *271:8 *856:98 0
58 *372:33 *856:69 1.67879e-05
59 *372:35 *2548:RESET_B 0.000143542
60 *507:8 *856:55 9.80943e-06
61 *717:335 *2548:RESET_B 0
62 *720:63 *2519:RESET_B 0
63 *745:8 *2549:RESET_B 6.83629e-05
64 *824:202 *856:69 9.0087e-05
65 *826:22 *2548:RESET_B 8.53755e-05
66 *829:76 *856:69 4.94404e-05
67 *837:18 *856:98 0
68 *837:48 *2548:RESET_B 0.000153913
69 *839:16 *2549:RESET_B 7.47215e-05
70 *839:16 *856:98 0.000259891
71 *839:16 *856:100 0.000174295
72 *843:18 *2549:RESET_B 0
73 *843:18 *856:98 0
74 *854:106 *2505:RESET_B 2.20753e-05
75 *854:106 *856:55 5.83121e-06
76 *854:106 *856:69 4.61932e-05
*RES
1 *2642:X *856:8 9.57 
2 *856:8 *2519:RESET_B 23.22 
3 *2519:RESET_B *856:31 2.5875 
4 *856:31 *856:45 7.71 
5 *856:45 *856:55 8.625 
6 *856:55 *2505:RESET_B 0.3975 
7 *856:55 *856:69 7.775 
8 *856:69 *2548:RESET_B 7.6175 
9 *856:69 *2471:RESET_B 3.0875 
10 *856:45 *2640:A 1.6 
11 *856:31 *856:96 3.125 
12 *856:96 *856:98 8.265 
13 *856:98 *856:100 2.145 
14 *856:100 *2549:RESET_B 8.0975 
15 *856:100 *2557:RESET_B 5.5325 
16 *856:98 *2520:RESET_B 2 
17 *856:96 *2517:RESET_B 2 
18 *856:8 *2641:A 8.16 
*END

*D_NET *857 0.00845319
*CONN
*I *2441:RESET_B I *D sky130_fd_sc_hd__dfrtp_1
*I *2439:RESET_B I *D sky130_fd_sc_hd__dfrtp_1
*I *2509:RESET_B I *D sky130_fd_sc_hd__dfrtp_1
*I *2508:RESET_B I *D sky130_fd_sc_hd__dfrtp_1
*I *2469:RESET_B I *D sky130_fd_sc_hd__dfrtp_1
*I *2503:RESET_B I *D sky130_fd_sc_hd__dfrtp_1
*I *2515:RESET_B I *D sky130_fd_sc_hd__dfrtp_1
*I *2561:RESET_B I *D sky130_fd_sc_hd__dfrtp_2
*I *2562:RESET_B I *D sky130_fd_sc_hd__dfrtp_1
*I *2504:RESET_B I *D sky130_fd_sc_hd__dfrtp_1
*I *2643:X O *D sky130_fd_sc_hd__clkbuf_4
*CAP
1 *2441:RESET_B 0.000260475
2 *2439:RESET_B 0
3 *2509:RESET_B 0.000311572
4 *2508:RESET_B 0
5 *2469:RESET_B 0.000297809
6 *2503:RESET_B 0.000389336
7 *2515:RESET_B 3.61994e-06
8 *2561:RESET_B 0
9 *2562:RESET_B 0.000102915
10 *2504:RESET_B 0.000486197
11 *2643:X 0.000198806
12 *857:110 0.000465506
13 *857:85 0.000529263
14 *857:59 0.000475351
15 *857:47 0.000681835
16 *857:14 0.000642305
17 *857:12 0.00023216
18 *857:10 0.000777399
19 *857:8 0.000490186
20 *2441:RESET_B *858:19 0
21 *2441:RESET_B *858:36 0
22 *857:10 *858:10 0
23 *857:10 *858:19 0
24 *857:12 *858:10 0
25 *857:110 *858:19 0
26 *2203:A1 *857:47 2.75145e-05
27 *2203:A2 *2441:RESET_B 0
28 *2203:B1 *2515:RESET_B 2.65337e-05
29 *2203:B1 *857:47 0.000170452
30 *2203:B1 *857:59 2.46265e-06
31 *2203:B1 *857:85 0
32 *2205:B *2509:RESET_B 1.45134e-05
33 *2205:B *857:85 5.81405e-05
34 *2207:B *2509:RESET_B 9.05299e-05
35 *2271:A2 *2469:RESET_B 1.73877e-05
36 *2271:B1 *2469:RESET_B 0.000166583
37 *2272:A2 *2503:RESET_B 2.0514e-05
38 *2294:A1 *857:10 0
39 *2294:A1 *857:12 0
40 *2428:A0 *857:12 0
41 *2430:A *857:12 0
42 *2430:B *857:12 0.000140248
43 *2439:D *2441:RESET_B 0
44 *2439:D *857:47 6.60261e-06
45 *2439:D *857:110 0
46 *2503:CLK *2469:RESET_B 8.84753e-05
47 *2503:CLK *2503:RESET_B 0.000116497
48 *2503:D *2469:RESET_B 0.000116158
49 *2515:D *2503:RESET_B 0
50 *2515:D *857:85 0
51 *2561:D *857:12 6.28843e-05
52 *2562:D *2504:RESET_B 1.22762e-05
53 *2562:D *857:12 3.35338e-05
54 *2562:D *857:14 3.47668e-05
55 *2616:A *2504:RESET_B 0
56 *2665:A *2504:RESET_B 0
57 *2705:A *857:85 1.00941e-05
58 *2705:A *857:110 1.92979e-05
59 *2709:A *2509:RESET_B 5.07362e-05
60 *2709:A *857:85 0.000161172
61 *111:10 *2469:RESET_B 1.75984e-05
62 *144:28 *857:59 1.90092e-05
63 *216:13 *2509:RESET_B 5.05521e-05
64 *216:28 *2509:RESET_B 0.000104892
65 *486:10 *2504:RESET_B 0
66 *486:10 *857:12 0
67 *486:10 *857:14 0
68 *566:46 *2441:RESET_B 0
69 *805:10 *857:10 0
70 *814:47 *2509:RESET_B 0
71 *814:112 *2503:RESET_B 0.000138736
72 *818:62 *2469:RESET_B 0.000197684
73 *829:101 *2469:RESET_B 0.000115217
74 *845:51 *2469:RESET_B 0
75 *845:51 *857:85 0
76 *845:98 *2509:RESET_B 1.73877e-05
*RES
1 *2643:X *857:8 5.775 
2 *857:8 *857:10 1.38 
3 *857:10 *857:12 3.93 
4 *857:12 *857:14 1.125 
5 *857:14 *2504:RESET_B 9.0125 
6 *857:14 *2562:RESET_B 3.4475 
7 *857:12 *2561:RESET_B 2 
8 *857:10 *857:47 8.78 
9 *857:47 *2515:RESET_B 0.3975 
10 *857:47 *857:59 4.19 
11 *857:59 *2503:RESET_B 4.2125 
12 *2503:RESET_B *2469:RESET_B 11.5 
13 *857:59 *857:85 4.44 
14 *857:85 *2508:RESET_B 2 
15 *857:85 *2509:RESET_B 12.2775 
16 *857:8 *857:110 3.165 
17 *857:110 *2439:RESET_B 2 
18 *857:110 *2441:RESET_B 6.185 
*END

*D_NET *858 0.0087455
*CONN
*I *2442:RESET_B I *D sky130_fd_sc_hd__dfrtp_1
*I *2444:RESET_B I *D sky130_fd_sc_hd__dfrtp_1
*I *2570:RESET_B I *D sky130_fd_sc_hd__dfrtp_1
*I *2446:RESET_B I *D sky130_fd_sc_hd__dfrtp_1
*I *2475:RESET_B I *D sky130_fd_sc_hd__dfrtp_1
*I *2445:RESET_B I *D sky130_fd_sc_hd__dfrtp_1
*I *2443:RESET_B I *D sky130_fd_sc_hd__dfrtp_1
*I *2510:RESET_B I *D sky130_fd_sc_hd__dfrtp_1
*I *2440:RESET_B I *D sky130_fd_sc_hd__dfrtp_1
*I *2643:A I *D sky130_fd_sc_hd__clkbuf_4
*I *2644:X O *D sky130_fd_sc_hd__clkbuf_4
*CAP
1 *2442:RESET_B 1.12089e-05
2 *2444:RESET_B 8.04675e-05
3 *2570:RESET_B 5.30983e-05
4 *2446:RESET_B 1.24051e-05
5 *2475:RESET_B 0.000129422
6 *2445:RESET_B 0
7 *2443:RESET_B 0.000106955
8 *2510:RESET_B 0.00027449
9 *2440:RESET_B 0
10 *2643:A 0
11 *2644:X 0.000159389
12 *858:79 0.000642212
13 *858:71 0.00071118
14 *858:62 0.000413954
15 *858:60 0.000568181
16 *858:50 0.000447228
17 *858:38 0.000518981
18 *858:36 0.000855819
19 *858:19 0.00112151
20 *858:10 0.000571969
21 *2428:A1 *858:10 8.40213e-05
22 *2433:S *858:19 0
23 *2433:S *858:36 0
24 *2438:S *858:71 0
25 *2441:RESET_B *858:19 0
26 *2441:RESET_B *858:36 0
27 *2442:CLK *2510:RESET_B 0.000239813
28 *2442:D *2510:RESET_B 6.65725e-05
29 *2442:D *858:38 4.60584e-05
30 *2443:D *858:60 0.000118513
31 *2444:CLK *858:60 0
32 *2445:CLK *2475:RESET_B 8.11272e-05
33 *2445:D *858:62 0
34 *2563:D *858:19 3.89528e-05
35 *2592:A *858:36 0
36 *2648:A *858:36 7.81876e-05
37 *2656:A *858:36 0
38 *2670:A *858:62 0
39 *2706:A *2510:RESET_B 4.66826e-05
40 *2718:A *858:71 2.45182e-05
41 *211:10 *2475:RESET_B 0.000120741
42 *211:95 *2475:RESET_B 0.000266453
43 *218:6 *2510:RESET_B 2.49909e-05
44 *218:30 *2510:RESET_B 8.63479e-05
45 *489:25 *858:10 3.68682e-05
46 *489:25 *858:19 7.87939e-05
47 *722:8 *858:50 0
48 *722:30 *2510:RESET_B 0.000486709
49 *722:51 *2475:RESET_B 0.00014168
50 *722:80 *858:60 0
51 *857:10 *858:10 0
52 *857:10 *858:19 0
53 *857:12 *858:10 0
54 *857:110 *858:19 0
*RES
1 *2644:X *858:10 5.865 
2 *858:10 *2643:A 3.6 
3 *858:10 *858:19 6.99 
4 *858:19 *2440:RESET_B 2 
5 *858:19 *858:36 13.61 
6 *858:36 *858:38 2.175 
7 *858:38 *2510:RESET_B 6.9525 
8 *858:38 *858:50 3.485 
9 *858:50 *2443:RESET_B 3.4325 
10 *858:50 *858:60 4.185 
11 *858:60 *858:62 4.185 
12 *858:62 *2445:RESET_B 2 
13 *858:62 *858:71 4.91 
14 *858:71 *858:79 6.105 
15 *858:79 *2475:RESET_B 4.5375 
16 *858:79 *2446:RESET_B 0.3975 
17 *858:71 *2570:RESET_B 0.7425 
18 *858:60 *2444:RESET_B 3.1925 
19 *858:36 *2442:RESET_B 0.3975 
*END

*D_NET *859 0.00905734
*CONN
*I *2558:RESET_B I *D sky130_fd_sc_hd__dfrtp_1
*I *2560:RESET_B I *D sky130_fd_sc_hd__dfrtp_1
*I *2559:RESET_B I *D sky130_fd_sc_hd__dfrtp_1
*I *2565:RESET_B I *D sky130_fd_sc_hd__dfrtp_1
*I *2527:RESET_B I *D sky130_fd_sc_hd__dfrtp_1
*I *2564:RESET_B I *D sky130_fd_sc_hd__dfrtp_1
*I *2563:RESET_B I *D sky130_fd_sc_hd__dfrtp_1
*I *2448:RESET_B I *D sky130_fd_sc_hd__dfrtp_1
*I *2449:RESET_B I *D sky130_fd_sc_hd__dfrtp_1
*I *2447:RESET_B I *D sky130_fd_sc_hd__dfrtp_1
*I *2645:X O *D sky130_fd_sc_hd__clkbuf_4
*CAP
1 *2558:RESET_B 0
2 *2560:RESET_B 9.10772e-05
3 *2559:RESET_B 9.48176e-05
4 *2565:RESET_B 7.1454e-05
5 *2527:RESET_B 0.000353307
6 *2564:RESET_B 0
7 *2563:RESET_B 0.000134282
8 *2448:RESET_B 1.13144e-05
9 *2449:RESET_B 0.000109597
10 *2447:RESET_B 2.47713e-05
11 *2645:X 0.000110229
12 *859:93 0.000174644
13 *859:70 0.000546404
14 *859:63 0.000190046
15 *859:53 0.000500084
16 *859:43 0.00121662
17 *859:31 0.000956521
18 *859:10 0.000270126
19 *859:8 0.00028322
20 *2449:RESET_B *2642:A 0
21 *859:8 *2644:A 4.24292e-06
22 *859:8 *861:10 7.16268e-05
23 *859:8 *862:8 8.66974e-05
24 *859:8 *862:37 9.82856e-06
25 *859:10 *2642:A 0
26 *859:10 *2644:A 6.23288e-05
27 *859:31 *862:37 8.65905e-05
28 *859:43 *862:37 0
29 *2094:D *2559:RESET_B 7.40482e-06
30 *2094:D *859:43 7.74205e-06
31 *2094:D *859:53 1.4389e-05
32 *2112:A1 *2527:RESET_B 0.000230435
33 *2112:B2 *2527:RESET_B 0.000415935
34 *2113:A2 *2565:RESET_B 6.69474e-05
35 *2113:A2 *859:53 3.09164e-05
36 *2113:A2 *859:63 0.000113797
37 *2113:A2 *859:70 0.000252282
38 *2114:C1 *2563:RESET_B 4.82863e-05
39 *2231:B *2527:RESET_B 0.000234685
40 *2422:B *859:93 0
41 *2423:B *859:53 9.71067e-05
42 *2424:B *859:53 2.06083e-05
43 *2425:A1 *2560:RESET_B 1.52184e-05
44 *2425:A2 *2560:RESET_B 0.000116158
45 *2425:A2 *859:53 0.00011686
46 *2425:A2 *859:93 0.000240418
47 *2425:B1 *2560:RESET_B 5.95498e-05
48 *2426:B *2560:RESET_B 8.98338e-05
49 *2432:A1 *2565:RESET_B 0
50 *2448:CLK *2448:RESET_B 1.23607e-05
51 *2448:CLK *859:31 3.54025e-05
52 *2448:CLK *859:43 7.3748e-05
53 *2448:D *859:8 9.14049e-05
54 *2448:D *859:10 8.53113e-06
55 *2527:D *2527:RESET_B 9.08416e-05
56 *2662:A *859:43 6.42013e-05
57 *2703:A *2527:RESET_B 5.63701e-05
58 *144:28 *2563:RESET_B 0.000118995
59 *163:10 *2563:RESET_B 8.8266e-05
60 *163:10 *859:63 0
61 *163:10 *859:70 0
62 *164:19 *2527:RESET_B 0.000120655
63 *196:12 *2447:RESET_B 2.20753e-05
64 *196:12 *2449:RESET_B 9.30717e-05
65 *197:6 *859:43 1.56428e-05
66 *264:6 *859:43 5.0751e-05
67 *264:12 *2560:RESET_B 4.76581e-05
68 *264:12 *859:43 8.82051e-05
69 *264:12 *859:93 0.000113191
70 *264:29 *2560:RESET_B 0.000227566
71 *723:16 *859:53 0
*RES
1 *2645:X *859:8 6.765 
2 *859:8 *859:10 2.655 
3 *859:10 *2447:RESET_B 2.3975 
4 *859:10 *2449:RESET_B 4.085 
5 *859:8 *859:31 3.14 
6 *859:31 *2448:RESET_B 0.3975 
7 *859:31 *859:43 11.175 
8 *859:43 *859:53 7.535 
9 *859:53 *2563:RESET_B 5.1575 
10 *859:53 *859:63 1.38 
11 *859:63 *2564:RESET_B 2 
12 *859:63 *859:70 2.91 
13 *859:70 *2527:RESET_B 10.6775 
14 *859:70 *2565:RESET_B 3.38 
15 *859:43 *2559:RESET_B 0.3975 
16 *2559:RESET_B *859:93 4.91 
17 *859:93 *2560:RESET_B 5.5025 
18 *859:93 *2558:RESET_B 2 
*END

*D_NET *860 0.0011009
*CONN
*I *2196:C I *D sky130_fd_sc_hd__or4_1
*I *2490:D I *D sky130_fd_sc_hd__dfrtp_1
*I *2731:X O *D sky130_fd_sc_hd__clkbuf_1
*CAP
1 *2196:C 0
2 *2490:D 0.000135298
3 *2731:X 0.00016446
4 *860:8 0.000299757
5 *942:DIODE *860:8 0.000159697
6 *2196:A *2490:D 4.77757e-05
7 *2196:A *860:8 1.56651e-05
8 *2196:B *2490:D 1.61387e-05
9 *2196:B *860:8 4.66108e-05
10 *2199:A *2490:D 9.03081e-05
11 *2489:D *2490:D 0
12 *4:13 *2490:D 4.1652e-06
13 *4:13 *860:8 0.000121023
14 *6:7 *2490:D 0
*RES
1 *2731:X *860:8 4.825 
2 *860:8 *2490:D 7.94 
3 *860:8 *2196:C 1.6 
*END

*D_NET *861 0.0102102
*CONN
*I *2529:RESET_B I *D sky130_fd_sc_hd__dfrtp_1
*I *2532:RESET_B I *D sky130_fd_sc_hd__dfrtp_1
*I *2533:RESET_B I *D sky130_fd_sc_hd__dfrtp_1
*I *2526:SET_B I *D sky130_fd_sc_hd__dfstp_1
*I *2569:RESET_B I *D sky130_fd_sc_hd__dfrtp_1
*I *2568:RESET_B I *D sky130_fd_sc_hd__dfrtp_1
*I *2567:RESET_B I *D sky130_fd_sc_hd__dfrtp_1
*I *2566:RESET_B I *D sky130_fd_sc_hd__dfrtp_1
*I *2528:RESET_B I *D sky130_fd_sc_hd__dfrtp_1
*I *2645:A I *D sky130_fd_sc_hd__clkbuf_4
*I *2646:X O *D sky130_fd_sc_hd__clkbuf_4
*CAP
1 *2529:RESET_B 8.77367e-05
2 *2532:RESET_B 0.000197681
3 *2533:RESET_B 3.24164e-05
4 *2526:SET_B 4.72563e-05
5 *2569:RESET_B 0.000173546
6 *2568:RESET_B 0
7 *2567:RESET_B 0
8 *2566:RESET_B 0.000560604
9 *2528:RESET_B 0.000846396
10 *2645:A 0
11 *2646:X 0.000301768
12 *861:82 0.000714744
13 *861:60 0.000339003
14 *861:53 0.000352663
15 *861:37 0.000805637
16 *861:33 0.00101224
17 *861:29 0.000745745
18 *861:10 0.000632766
19 *2528:RESET_B *862:8 0
20 *2528:RESET_B *862:59 0
21 *2529:RESET_B *862:59 0
22 *861:10 *862:8 0
23 *861:10 *862:37 0.000124895
24 *861:29 *862:59 0
25 *861:82 *2531:RESET_B 0
26 *861:82 *862:59 0
27 *1966:A *861:82 0.000134538
28 *1972:A *861:29 0
29 *2113:B2 *861:29 0
30 *2115:B1 *2566:RESET_B 0.000188957
31 *2115:C1 *2566:RESET_B 6.95505e-05
32 *2115:C1 *861:53 0
33 *2119:A1 *2569:RESET_B 0
34 *2227:B *861:82 0.000137571
35 *2228:B *861:82 0.000226147
36 *2230:B1 *861:82 0.000355314
37 *2231:A *2528:RESET_B 8.07616e-05
38 *2231:A *861:29 0.00019194
39 *2239:B *2532:RESET_B 0
40 *2240:A *2532:RESET_B 8.07672e-05
41 *2242:A *2528:RESET_B 0
42 *2242:B *2528:RESET_B 0
43 *2242:B *861:10 0
44 *2448:D *861:10 3.67779e-05
45 *2528:CLK *2528:RESET_B 9.72041e-05
46 *2566:D *2566:RESET_B 2.75145e-05
47 *2569:D *2569:RESET_B 0
48 *2653:A *2569:RESET_B 4.92192e-05
49 *2653:A *861:60 6.15731e-05
50 *2655:A *861:53 0
51 *2655:A *861:60 0
52 *2657:A *2566:RESET_B 0.000347023
53 *2681:A *2569:RESET_B 6.73665e-05
54 *2698:A *2529:RESET_B 0
55 *2698:A *861:29 0
56 *2698:A *861:82 7.23602e-05
57 *2:13 *861:10 0
58 *105:11 *861:10 0
59 *166:6 *2566:RESET_B 4.11729e-05
60 *166:10 *2566:RESET_B 0
61 *166:10 *861:53 3.09164e-05
62 *167:10 *861:53 0
63 *171:10 *2566:RESET_B 0.000103337
64 *171:10 *861:37 2.21654e-05
65 *172:18 *861:29 0
66 *175:10 *861:82 0
67 *364:16 *861:29 2.96553e-05
68 *489:53 *861:53 8.71001e-05
69 *489:57 *861:53 8.77073e-05
70 *489:57 *861:60 6.5265e-05
71 *489:65 *2569:RESET_B 0.00010153
72 *489:65 *861:60 0.000111821
73 *579:10 *861:29 0
74 *581:10 *861:82 0
75 *581:19 *2532:RESET_B 0
76 *581:19 *861:82 0
77 *717:200 *861:33 4.58166e-05
78 *723:123 *861:29 0
79 *724:6 *861:33 4.21973e-05
80 *724:6 *861:37 7.00889e-06
81 *724:10 *861:37 0.000131069
82 *724:68 *2532:RESET_B 3.21052e-05
83 *859:8 *861:10 7.16268e-05
*RES
1 *2646:X *861:10 8.76 
2 *861:10 *2645:A 3.6 
3 *861:10 *2528:RESET_B 7.4825 
4 *2528:RESET_B *861:29 11.285 
5 *861:29 *861:33 3.83 
6 *861:33 *861:37 4.605 
7 *861:37 *2566:RESET_B 12.8575 
8 *2566:RESET_B *861:53 6.185 
9 *861:53 *2567:RESET_B 2 
10 *861:53 *861:60 4.185 
11 *861:60 *2568:RESET_B 2 
12 *861:60 *2569:RESET_B 6.185 
13 *861:37 *2526:SET_B 0.8175 
14 *861:33 *861:82 13.325 
15 *861:82 *2533:RESET_B 2.3975 
16 *861:82 *2532:RESET_B 5.6525 
17 *861:29 *2529:RESET_B 3.635 
*END

*D_NET *862 0.0113714
*CONN
*I *2531:RESET_B I *D sky130_fd_sc_hd__dfrtp_1
*I *2530:RESET_B I *D sky130_fd_sc_hd__dfrtp_1
*I *2646:A I *D sky130_fd_sc_hd__clkbuf_4
*I *2642:A I *D sky130_fd_sc_hd__clkbuf_4
*I *2644:A I *D sky130_fd_sc_hd__clkbuf_4
*I *2647:X O *D sky130_fd_sc_hd__clkbuf_2
*CAP
1 *2531:RESET_B 0.000339621
2 *2530:RESET_B 0
3 *2646:A 0
4 *2642:A 0.000806526
5 *2644:A 0.00164771
6 *2647:X 0
7 *862:59 0.000999924
8 *862:37 0.00104299
9 *862:8 0.00213797
10 *862:6 0.0009141
11 *2094:A *2644:A 0
12 *2128:A1 *2642:A 0
13 *2128:A2 *2642:A 2.46089e-05
14 *2131:A1 *2642:A 5.30057e-05
15 *2228:B *2531:RESET_B 0
16 *2231:A *862:59 0.00019737
17 *2232:A2 *862:59 7.21296e-06
18 *2235:A *862:59 7.54567e-05
19 *2235:B *862:59 0
20 *2237:A1 *2531:RESET_B 4.49498e-05
21 *2237:B1 *2531:RESET_B 0.000129275
22 *2430:B *2644:A 0.000501921
23 *2447:CLK *2644:A 0.000105508
24 *2447:D *2644:A 3.83995e-05
25 *2448:CLK *862:37 3.864e-05
26 *2448:D *2642:A 0
27 *2449:RESET_B *2642:A 0
28 *2528:D *862:59 0.000512717
29 *2528:RESET_B *862:8 0
30 *2528:RESET_B *862:59 0
31 *2529:RESET_B *862:59 0
32 *2531:D *2531:RESET_B 0
33 *2560:CLK *2644:A 3.96653e-05
34 *2641:A *2642:A 0.000117419
35 *2661:A *2642:A 0.000178496
36 *2662:A *2644:A 0
37 *2662:A *862:8 0
38 *2:13 *2642:A 0
39 *175:10 *2531:RESET_B 5.51158e-05
40 *196:12 *2642:A 0
41 *200:34 *2642:A 0.000293733
42 *364:16 *862:59 7.30547e-05
43 *484:10 *2644:A 0
44 *489:25 *2644:A 5.72004e-05
45 *723:18 *2644:A 0.000301204
46 *723:44 *2644:A 9.66106e-05
47 *723:51 *2644:A 7.35729e-05
48 *855:8 *2642:A 0
49 *856:8 *2642:A 9.28101e-05
50 *859:8 *2644:A 4.24292e-06
51 *859:8 *862:8 8.66974e-05
52 *859:8 *862:37 9.82856e-06
53 *859:10 *2642:A 0
54 *859:10 *2644:A 6.23288e-05
55 *859:31 *862:37 8.65905e-05
56 *859:43 *862:37 0
57 *861:10 *862:8 0
58 *861:10 *862:37 0.000124895
59 *861:29 *862:59 0
60 *861:82 *2531:RESET_B 0
61 *861:82 *862:59 0
*RES
1 *2647:X *862:6 3.6 
2 *862:6 *862:8 4.0575 
3 *862:8 *2644:A 29.5525 
4 *862:8 *862:37 6.0125 
5 *862:37 *2642:A 22.025 
6 *862:37 *2646:A 1.6 
7 *862:6 *862:59 13.92 
8 *862:59 *2530:RESET_B 2 
9 *862:59 *2531:RESET_B 8.99 
*END

*D_NET *863 0.00198776
*CONN
*I *2478:D I *D sky130_fd_sc_hd__dfrtp_1
*I *2200:A1 I *D sky130_fd_sc_hd__o31a_1
*I *2732:X O *D sky130_fd_sc_hd__clkbuf_1
*CAP
1 *2478:D 0.000330426
2 *2200:A1 0.00031989
3 *2732:X 0.000226548
4 *863:12 0.000876863
5 *2200:A2 *863:12 0
6 *2477:RESET_B *863:12 8.44359e-05
7 *2571:A *2200:A1 7.06582e-05
8 *2571:A *2478:D 4.84165e-05
9 *731:111 *2478:D 3.05267e-05
10 *813:10 *863:12 0
*RES
1 *2732:X *863:12 8.96 
2 *863:12 *2200:A1 5.68 
3 *863:12 *2478:D 5.545 
*END

*D_NET *864 0.00552989
*CONN
*I *2198:B I *D sky130_fd_sc_hd__or4_1
*I *2479:D I *D sky130_fd_sc_hd__dfrtp_1
*I *2733:X O *D sky130_fd_sc_hd__clkbuf_1
*CAP
1 *2198:B 0.000102985
2 *2479:D 0.000177489
3 *2733:X 0.000879065
4 *864:10 0.00115954
5 gpio_oeb[19] *864:10 3.92005e-05
6 gpio_oeb[29] *864:10 0.000152503
7 gpio_out[24] *864:10 0
8 *934:DIODE *2479:D 8.23457e-05
9 *947:DIODE *864:10 3.00381e-05
10 *2198:D *2198:B 0.000160651
11 *2198:D *864:10 0.000109016
12 *2459:CLK *864:10 6.73751e-05
13 *2459:D *864:10 5.20968e-05
14 *2481:CLK *864:10 0.000189426
15 *2493:D *864:10 0
16 *25:13 *864:10 3.12569e-05
17 *30:13 *2198:B 5.78448e-05
18 *31:13 *864:10 2.09665e-05
19 *32:13 *2198:B 1.1561e-05
20 *32:13 *864:10 8.80588e-05
21 *728:34 *864:10 0.000339893
22 *735:8 *864:10 0.00177858
23 *791:61 *864:10 0
*RES
1 *2733:X *864:10 29.655 
2 *864:10 *2479:D 6.12 
3 *864:10 *2198:B 5.94 
*END

*D_NET *865 0.000891741
*CONN
*I *2480:D I *D sky130_fd_sc_hd__dfrtp_1
*I *2198:A I *D sky130_fd_sc_hd__or4_1
*I *2734:X O *D sky130_fd_sc_hd__clkbuf_1
*CAP
1 *2480:D 9.04268e-05
2 *2198:A 0
3 *2734:X 0.000187278
4 *865:12 0.000277705
5 *948:DIODE *865:12 7.35729e-05
6 *2198:D *865:12 4.18603e-06
7 *2199:C *2480:D 0.000164874
8 *2479:CLK *2480:D 3.70009e-05
9 *2480:CLK *2480:D 3.00381e-05
10 *30:13 *865:12 0
11 *728:119 *2480:D 2.66586e-05
*RES
1 *2734:X *865:12 8.12 
2 *865:12 *2198:A 1.6 
3 *865:12 *2480:D 4.135 
*END

*D_NET *866 0.000386791
*CONN
*I *2472:D I *D sky130_fd_sc_hd__dfrtp_1
*I *2473:LO O *D sky130_fd_sc_hd__conb_1
*CAP
1 *2472:D 8.30514e-05
2 *2473:LO 8.30514e-05
3 *2621:A *2472:D 6.06689e-05
4 *443:22 *2472:D 4.66108e-05
5 *457:70 *2472:D 0.000113409
*RES
1 *2473:LO *2472:D 9.03 
*END

*D_NET *867 0.000812459
*CONN
*I *2455:D I *D sky130_fd_sc_hd__dfrtp_1
*I *2456:LO O *D sky130_fd_sc_hd__conb_1
*CAP
1 *2455:D 0.000266469
2 *2456:LO 0.000266469
3 *2455:D *2453:D 0
4 *2451:CLK *2455:D 0
5 *2575:A *2455:D 7.70758e-05
6 *477:20 *2455:D 6.55328e-05
7 *717:383 *2455:D 0.000118527
8 *720:43 *2455:D 0
9 *855:58 *2455:D 1.83847e-05
*RES
1 *2456:LO *2455:D 12.375 
*END

*D_NET *868 0.000795967
*CONN
*I *2453:D I *D sky130_fd_sc_hd__dfrtp_1
*I *2454:LO O *D sky130_fd_sc_hd__conb_1
*CAP
1 *2453:D 0.000328364
2 *2454:LO 0.000328364
3 *2451:CLK *2453:D 0.000139238
4 *2453:RESET_B *2453:D 0
5 *2455:D *2453:D 0
6 *478:12 *2453:D 0
7 *480:10 *2453:D 0
8 *480:23 *2453:D 0
9 *717:383 *2453:D 0
10 *855:33 *2453:D 0
*RES
1 *2454:LO *2453:D 12.915 
*END
