*SPEF "ieee 1481-1999"
*DESIGN "team_07"
*DATE "17:57:06 Saturday April 18, 2026"
*VENDOR "The OpenROAD Project"
*PROGRAM "OpenROAD"
*VERSION "edf00dff99f6c40d67a30c0e22a8191c5d2ed9d6"
*DESIGN_FLOW "NAME_SCOPE LOCAL" "PIN_CAP NONE"
*DIVIDER /
*DELIMITER :
*BUS_DELIMITER []
*T_UNIT 1 NS
*C_UNIT 1 PF
*R_UNIT 1 OHM
*L_UNIT 1 HENRY

*NAME_MAP
*1 clk
*2 en
*3 gpio_in[0]
*4 gpio_in[10]
*5 gpio_in[11]
*6 gpio_in[12]
*7 gpio_in[13]
*8 gpio_in[14]
*9 gpio_in[15]
*10 gpio_in[16]
*11 gpio_in[17]
*12 gpio_in[18]
*13 gpio_in[19]
*14 gpio_in[1]
*15 gpio_in[20]
*16 gpio_in[21]
*17 gpio_in[22]
*18 gpio_in[23]
*19 gpio_in[24]
*20 gpio_in[25]
*21 gpio_in[26]
*22 gpio_in[27]
*23 gpio_in[28]
*24 gpio_in[29]
*25 gpio_in[2]
*26 gpio_in[30]
*27 gpio_in[31]
*28 gpio_in[32]
*29 gpio_in[33]
*30 gpio_in[3]
*31 gpio_in[4]
*32 gpio_in[5]
*33 gpio_in[6]
*34 gpio_in[7]
*35 gpio_in[8]
*36 gpio_in[9]
*37 net40
*38 net50
*39 net51
*40 net52
*41 net53
*42 net54
*43 net55
*44 net103
*45 net104
*46 net105
*47 net56
*48 net41
*49 net57
*50 net58
*51 net59
*52 net60
*53 net61
*54 net62
*55 net63
*56 net64
*57 net65
*58 net66
*59 net42
*60 net67
*61 net68
*62 net69
*63 net70
*64 net43
*65 net44
*66 net45
*67 net46
*68 net47
*69 net48
*70 net49
*71 net71
*72 net81
*73 net82
*74 net83
*75 net84
*76 net85
*77 net86
*78 gpio_out[16]
*79 gpio_out[17]
*80 net87
*81 net88
*82 net72
*83 net89
*84 net90
*85 net91
*86 net92
*87 net93
*88 net94
*89 net95
*90 net96
*91 net97
*92 net98
*93 net73
*94 net99
*95 net100
*96 net101
*97 net102
*98 net74
*99 net75
*100 net76
*101 net77
*102 net78
*103 net79
*104 net80
*105 nrst
*108 MATMULT_INST\.cntrl\.data_read
*109 MATMULT_INST\.cntrl\.data_ready
*110 MATMULT_INST\.cntrl\.framing_error
*111 MATMULT_INST\.cntrl\.overrun_error
*112 MATMULT_INST\.cntrl\.state\[0\]
*113 MATMULT_INST\.cntrl\.state\[1\]
*114 MATMULT_INST\.cntrl\.state\[2\]
*115 MATMULT_INST\.cntrl\.state\[3\]
*116 MATMULT_INST\.cntrl\.state\[4\]
*117 MATMULT_INST\.parallel_out1\[0\]
*118 MATMULT_INST\.parallel_out1\[1\]
*119 MATMULT_INST\.parallel_out1\[2\]
*120 MATMULT_INST\.parallel_out1\[3\]
*121 MATMULT_INST\.parallel_out1\[4\]
*122 MATMULT_INST\.parallel_out1\[5\]
*123 MATMULT_INST\.parallel_out1\[6\]
*124 MATMULT_INST\.parallel_out1\[7\]
*125 MATMULT_INST\.parallel_out2\[0\]
*126 MATMULT_INST\.parallel_out2\[1\]
*127 MATMULT_INST\.parallel_out2\[2\]
*128 MATMULT_INST\.parallel_out2\[3\]
*129 MATMULT_INST\.parallel_out2\[4\]
*130 MATMULT_INST\.parallel_out2\[5\]
*131 MATMULT_INST\.parallel_out2\[6\]
*132 MATMULT_INST\.parallel_out2\[7\]
*133 MATMULT_INST\.prod_adder\.gen_for_loop\[0\]\.adder_n\.a
*134 MATMULT_INST\.prod_adder\.gen_for_loop\[0\]\.adder_n\.b
*135 MATMULT_INST\.prod_adder\.gen_for_loop\[1\]\.adder_n\.a
*136 MATMULT_INST\.prod_adder\.gen_for_loop\[1\]\.adder_n\.b
*137 MATMULT_INST\.prod_adder\.gen_for_loop\[2\]\.adder_n\.a
*138 MATMULT_INST\.prod_adder\.gen_for_loop\[2\]\.adder_n\.b
*139 MATMULT_INST\.prod_adder\.gen_for_loop\[3\]\.adder_n\.a
*140 MATMULT_INST\.prod_adder\.gen_for_loop\[3\]\.adder_n\.b
*141 MATMULT_INST\.prod_adder\.gen_for_loop\[4\]\.adder_n\.a
*142 MATMULT_INST\.prod_adder\.gen_for_loop\[4\]\.adder_n\.b
*143 MATMULT_INST\.prod_adder\.gen_for_loop\[5\]\.adder_n\.a
*144 MATMULT_INST\.prod_adder\.gen_for_loop\[5\]\.adder_n\.b
*145 MATMULT_INST\.prod_adder\.gen_for_loop\[6\]\.adder_n\.a
*146 MATMULT_INST\.prod_adder\.gen_for_loop\[6\]\.adder_n\.b
*147 MATMULT_INST\.prod_adder\.gen_for_loop\[7\]\.adder_n\.a
*148 MATMULT_INST\.prod_adder\.gen_for_loop\[7\]\.adder_n\.b
*149 MATMULT_INST\.rx_data\[0\]
*150 MATMULT_INST\.rx_data\[1\]
*151 MATMULT_INST\.rx_data\[2\]
*152 MATMULT_INST\.rx_data\[3\]
*153 MATMULT_INST\.rx_data\[4\]
*154 MATMULT_INST\.rx_data\[5\]
*155 MATMULT_INST\.rx_data\[6\]
*156 MATMULT_INST\.rx_data\[7\]
*157 MATMULT_INST\.serial_out
*158 MATMULT_INST\.uart_rcv\.control\.next_state\[0\]
*159 MATMULT_INST\.uart_rcv\.control\.next_state\[1\]
*160 MATMULT_INST\.uart_rcv\.control\.next_state\[2\]
*161 MATMULT_INST\.uart_rcv\.control\.packet_done
*162 MATMULT_INST\.uart_rcv\.control\.state\[0\]
*163 MATMULT_INST\.uart_rcv\.control\.state\[1\]
*164 MATMULT_INST\.uart_rcv\.control\.state\[2\]
*165 MATMULT_INST\.uart_rcv\.data_buff\.packet_data\[0\]
*166 MATMULT_INST\.uart_rcv\.data_buff\.packet_data\[1\]
*167 MATMULT_INST\.uart_rcv\.data_buff\.packet_data\[2\]
*168 MATMULT_INST\.uart_rcv\.data_buff\.packet_data\[3\]
*169 MATMULT_INST\.uart_rcv\.data_buff\.packet_data\[4\]
*170 MATMULT_INST\.uart_rcv\.data_buff\.packet_data\[5\]
*171 MATMULT_INST\.uart_rcv\.data_buff\.packet_data\[6\]
*172 MATMULT_INST\.uart_rcv\.data_buff\.packet_data\[7\]
*173 MATMULT_INST\.uart_rcv\.sbc\.stop_bit
*174 MATMULT_INST\.uart_rcv\.sbd\.new_sample
*175 MATMULT_INST\.uart_rcv\.sbd\.old_sample
*176 MATMULT_INST\.uart_rcv\.sbd\.sync_phase
*177 MATMULT_INST\.uart_rcv\.shift_strobe
*178 MATMULT_INST\.uart_rcv\.tim\.bit_cnt\[0\]
*179 MATMULT_INST\.uart_rcv\.tim\.bit_cnt\[1\]
*180 MATMULT_INST\.uart_rcv\.tim\.bit_cnt\[2\]
*181 MATMULT_INST\.uart_rcv\.tim\.bit_cnt\[3\]
*182 MATMULT_INST\.uart_rcv\.tim\.bit_count\.next_cnt_out\[0\]
*183 MATMULT_INST\.uart_rcv\.tim\.bit_count\.next_cnt_out\[1\]
*184 MATMULT_INST\.uart_rcv\.tim\.bit_count\.next_cnt_out\[2\]
*185 MATMULT_INST\.uart_rcv\.tim\.bit_count\.next_cnt_out\[3\]
*186 MATMULT_INST\.uart_rcv\.tim\.bit_count\.next_roflag
*187 MATMULT_INST\.uart_rcv\.tim\.clk_cnt\[0\]
*188 MATMULT_INST\.uart_rcv\.tim\.clk_cnt\[10\]
*189 MATMULT_INST\.uart_rcv\.tim\.clk_cnt\[11\]
*190 MATMULT_INST\.uart_rcv\.tim\.clk_cnt\[12\]
*191 MATMULT_INST\.uart_rcv\.tim\.clk_cnt\[13\]
*192 MATMULT_INST\.uart_rcv\.tim\.clk_cnt\[1\]
*193 MATMULT_INST\.uart_rcv\.tim\.clk_cnt\[2\]
*194 MATMULT_INST\.uart_rcv\.tim\.clk_cnt\[3\]
*195 MATMULT_INST\.uart_rcv\.tim\.clk_cnt\[4\]
*196 MATMULT_INST\.uart_rcv\.tim\.clk_cnt\[5\]
*197 MATMULT_INST\.uart_rcv\.tim\.clk_cnt\[6\]
*198 MATMULT_INST\.uart_rcv\.tim\.clk_cnt\[7\]
*199 MATMULT_INST\.uart_rcv\.tim\.clk_cnt\[8\]
*200 MATMULT_INST\.uart_rcv\.tim\.clk_cnt\[9\]
*201 MATMULT_INST\.uart_rcv\.tim\.clock_count\.next_cnt_out\[0\]
*202 MATMULT_INST\.uart_rcv\.tim\.clock_count\.next_cnt_out\[10\]
*203 MATMULT_INST\.uart_rcv\.tim\.clock_count\.next_cnt_out\[11\]
*204 MATMULT_INST\.uart_rcv\.tim\.clock_count\.next_cnt_out\[12\]
*205 MATMULT_INST\.uart_rcv\.tim\.clock_count\.next_cnt_out\[13\]
*206 MATMULT_INST\.uart_rcv\.tim\.clock_count\.next_cnt_out\[1\]
*207 MATMULT_INST\.uart_rcv\.tim\.clock_count\.next_cnt_out\[2\]
*208 MATMULT_INST\.uart_rcv\.tim\.clock_count\.next_cnt_out\[3\]
*209 MATMULT_INST\.uart_rcv\.tim\.clock_count\.next_cnt_out\[4\]
*210 MATMULT_INST\.uart_rcv\.tim\.clock_count\.next_cnt_out\[5\]
*211 MATMULT_INST\.uart_rcv\.tim\.clock_count\.next_cnt_out\[6\]
*212 MATMULT_INST\.uart_rcv\.tim\.clock_count\.next_cnt_out\[7\]
*213 MATMULT_INST\.uart_rcv\.tim\.clock_count\.next_cnt_out\[8\]
*214 MATMULT_INST\.uart_rcv\.tim\.clock_count\.next_cnt_out\[9\]
*215 MATMULT_INST\.uart_rcv\.tim\.clock_count\.next_roflag
*216 MATMULT_INST\.uart_tx\.clk_cnt\[0\]
*217 MATMULT_INST\.uart_tx\.clk_cnt\[10\]
*218 MATMULT_INST\.uart_tx\.clk_cnt\[11\]
*219 MATMULT_INST\.uart_tx\.clk_cnt\[12\]
*220 MATMULT_INST\.uart_tx\.clk_cnt\[13\]
*221 MATMULT_INST\.uart_tx\.clk_cnt\[1\]
*222 MATMULT_INST\.uart_tx\.clk_cnt\[2\]
*223 MATMULT_INST\.uart_tx\.clk_cnt\[3\]
*224 MATMULT_INST\.uart_tx\.clk_cnt\[4\]
*225 MATMULT_INST\.uart_tx\.clk_cnt\[5\]
*226 MATMULT_INST\.uart_tx\.clk_cnt\[6\]
*227 MATMULT_INST\.uart_tx\.clk_cnt\[7\]
*228 MATMULT_INST\.uart_tx\.clk_cnt\[8\]
*229 MATMULT_INST\.uart_tx\.clk_cnt\[9\]
*230 MATMULT_INST\.uart_tx\.count\.next_cnt_out\[0\]
*231 MATMULT_INST\.uart_tx\.count\.next_cnt_out\[10\]
*232 MATMULT_INST\.uart_tx\.count\.next_cnt_out\[11\]
*233 MATMULT_INST\.uart_tx\.count\.next_cnt_out\[12\]
*234 MATMULT_INST\.uart_tx\.count\.next_cnt_out\[13\]
*235 MATMULT_INST\.uart_tx\.count\.next_cnt_out\[1\]
*236 MATMULT_INST\.uart_tx\.count\.next_cnt_out\[2\]
*237 MATMULT_INST\.uart_tx\.count\.next_cnt_out\[3\]
*238 MATMULT_INST\.uart_tx\.count\.next_cnt_out\[4\]
*239 MATMULT_INST\.uart_tx\.count\.next_cnt_out\[5\]
*240 MATMULT_INST\.uart_tx\.count\.next_cnt_out\[6\]
*241 MATMULT_INST\.uart_tx\.count\.next_cnt_out\[7\]
*242 MATMULT_INST\.uart_tx\.count\.next_cnt_out\[8\]
*243 MATMULT_INST\.uart_tx\.count\.next_cnt_out\[9\]
*244 MATMULT_INST\.uart_tx\.count\.next_roflag
*245 MATMULT_INST\.uart_tx\.count\.roflag_ff
*246 MATMULT_INST\.uart_tx\.tx_ctrl\.state\[0\]
*247 MATMULT_INST\.uart_tx\.tx_ctrl\.state\[1\]
*248 MATMULT_INST\.uart_tx\.tx_ctrl\.state\[2\]
*249 MATMULT_INST\.uart_tx\.tx_ctrl\.state\[3\]
*250 MATMULT_INST\.uart_tx\.tx_ctrl\.state\[4\]
*251 _0000_
*252 _0001_
*253 _0002_
*254 _0003_
*255 _0004_
*256 _0005_
*257 _0006_
*258 _0007_
*259 _0008_
*260 _0009_
*261 _0010_
*262 _0011_
*263 _0012_
*264 _0013_
*265 _0014_
*266 _0015_
*267 _0016_
*268 _0017_
*269 _0018_
*270 _0019_
*271 _0020_
*272 _0021_
*273 _0022_
*274 _0023_
*275 _0024_
*276 _0025_
*277 _0026_
*278 _0027_
*279 _0028_
*280 _0029_
*281 _0030_
*282 _0031_
*283 _0032_
*284 _0033_
*285 _0034_
*286 _0035_
*287 _0036_
*288 _0037_
*289 _0038_
*290 _0039_
*291 _0040_
*292 _0041_
*293 _0042_
*294 _0043_
*295 _0044_
*296 _0045_
*297 _0046_
*298 _0047_
*299 _0048_
*300 _0049_
*301 _0050_
*302 _0051_
*303 _0052_
*304 _0053_
*305 _0054_
*306 _0055_
*307 _0056_
*308 _0057_
*309 _0058_
*310 _0059_
*311 _0060_
*312 _0061_
*313 _0062_
*314 _0063_
*315 _0064_
*316 _0065_
*317 _0066_
*318 _0067_
*319 _0068_
*320 _0069_
*321 _0070_
*322 _0071_
*323 _0072_
*324 _0073_
*325 _0074_
*326 _0075_
*327 _0076_
*328 _0077_
*329 _0078_
*330 _0079_
*331 _0080_
*332 _0081_
*333 _0082_
*334 _0083_
*335 _0084_
*336 _0085_
*337 _0086_
*338 _0087_
*339 _0088_
*340 _0089_
*341 _0090_
*342 _0091_
*343 _0092_
*344 _0093_
*345 _0094_
*346 _0095_
*347 _0096_
*348 _0097_
*349 _0098_
*350 _0099_
*351 _0100_
*352 _0101_
*353 _0102_
*354 _0103_
*355 _0104_
*356 _0105_
*357 _0106_
*358 _0107_
*359 _0108_
*360 _0109_
*361 _0110_
*362 _0111_
*363 _0112_
*364 _0113_
*365 _0114_
*366 _0115_
*367 _0116_
*368 _0117_
*369 _0118_
*370 _0119_
*371 _0120_
*372 _0121_
*373 _0122_
*374 _0123_
*375 _0124_
*376 _0125_
*377 _0126_
*378 _0127_
*379 _0128_
*380 _0129_
*381 _0130_
*382 _0131_
*383 _0132_
*384 _0133_
*385 _0134_
*386 _0135_
*387 _0136_
*388 _0137_
*389 _0138_
*390 _0139_
*391 _0140_
*392 _0141_
*393 _0142_
*394 _0143_
*395 _0144_
*396 _0145_
*397 _0146_
*398 _0147_
*399 _0148_
*400 _0149_
*401 _0150_
*402 _0151_
*403 _0152_
*404 _0153_
*405 _0154_
*406 _0155_
*407 _0156_
*408 _0157_
*409 _0158_
*410 _0159_
*411 _0160_
*412 _0161_
*413 _0162_
*414 _0163_
*415 _0164_
*416 _0165_
*417 _0166_
*418 _0167_
*419 _0168_
*420 _0169_
*421 _0170_
*422 _0171_
*423 _0172_
*424 _0173_
*425 _0174_
*426 _0175_
*427 _0176_
*428 _0177_
*429 _0178_
*430 _0179_
*431 _0180_
*432 _0181_
*433 _0182_
*434 _0183_
*435 _0184_
*436 _0185_
*437 _0186_
*438 _0187_
*439 _0188_
*440 _0189_
*441 _0190_
*442 _0191_
*443 _0192_
*444 _0193_
*445 _0194_
*446 _0195_
*447 _0196_
*448 _0197_
*449 _0198_
*450 _0199_
*451 _0200_
*452 _0201_
*453 _0202_
*454 _0203_
*455 _0204_
*456 _0205_
*457 _0206_
*458 _0207_
*459 _0208_
*460 _0209_
*461 _0210_
*462 _0211_
*463 _0212_
*464 _0213_
*465 _0214_
*466 _0215_
*467 _0216_
*468 _0217_
*469 _0218_
*470 _0219_
*471 _0220_
*472 _0221_
*473 _0222_
*474 _0223_
*475 _0224_
*476 _0225_
*477 _0226_
*478 _0227_
*479 _0228_
*480 _0229_
*481 _0230_
*482 _0231_
*483 _0232_
*484 _0233_
*485 _0234_
*486 _0235_
*487 _0236_
*488 _0237_
*489 _0238_
*490 _0239_
*491 _0240_
*492 _0241_
*493 _0242_
*494 _0243_
*495 _0244_
*496 _0245_
*497 _0246_
*498 _0247_
*499 _0248_
*500 _0249_
*501 _0250_
*502 _0251_
*503 _0252_
*504 _0253_
*505 _0254_
*506 _0255_
*507 _0256_
*508 _0257_
*509 _0258_
*510 _0259_
*511 _0260_
*512 _0261_
*513 _0262_
*514 _0263_
*515 _0264_
*516 _0265_
*517 _0266_
*518 _0267_
*519 _0268_
*520 _0269_
*521 _0270_
*522 _0271_
*523 _0272_
*524 _0273_
*525 _0274_
*526 _0275_
*527 _0276_
*528 _0277_
*529 _0278_
*530 _0279_
*531 _0280_
*532 _0281_
*533 _0282_
*534 _0283_
*535 _0284_
*536 _0285_
*537 _0286_
*538 _0287_
*539 _0288_
*540 _0289_
*541 _0290_
*542 _0291_
*543 _0292_
*544 _0293_
*545 _0294_
*546 _0295_
*547 _0296_
*548 _0297_
*549 _0298_
*550 _0299_
*551 _0300_
*552 _0301_
*553 _0302_
*554 _0303_
*555 _0304_
*556 _0305_
*557 _0306_
*558 _0307_
*559 _0308_
*560 _0309_
*561 _0310_
*562 _0311_
*563 _0312_
*564 _0313_
*565 _0314_
*566 _0315_
*567 _0316_
*568 _0317_
*569 _0318_
*570 _0319_
*571 _0320_
*572 _0321_
*573 _0322_
*574 _0323_
*575 _0324_
*576 _0325_
*577 _0326_
*578 _0327_
*579 _0328_
*580 _0329_
*581 _0330_
*582 _0331_
*583 _0332_
*584 _0333_
*585 _0334_
*586 _0335_
*587 _0336_
*588 _0337_
*589 _0338_
*590 _0339_
*591 _0340_
*592 _0341_
*593 _0342_
*594 _0343_
*595 _0344_
*596 _0345_
*597 _0346_
*598 _0347_
*599 _0348_
*600 _0349_
*601 _0350_
*602 _0351_
*603 _0352_
*604 _0353_
*605 _0354_
*606 _0355_
*607 _0356_
*608 _0357_
*609 _0358_
*610 _0359_
*611 _0360_
*612 _0361_
*613 _0362_
*614 _0363_
*615 _0364_
*616 _0365_
*617 _0366_
*618 _0367_
*619 _0368_
*620 _0369_
*621 _0370_
*622 _0371_
*623 _0372_
*624 _0373_
*625 _0374_
*626 _0375_
*627 _0376_
*628 _0377_
*629 _0378_
*630 _0379_
*631 _0380_
*632 _0381_
*633 _0382_
*634 _0383_
*635 _0384_
*636 _0385_
*637 _0386_
*638 _0387_
*639 _0388_
*640 _0389_
*641 _0390_
*642 _0391_
*643 _0392_
*644 _0393_
*645 _0394_
*646 _0395_
*647 _0396_
*648 _0397_
*649 _0398_
*650 _0399_
*651 _0400_
*652 _0401_
*653 _0402_
*654 _0403_
*655 _0404_
*656 _0405_
*657 _0406_
*658 _0407_
*659 _0408_
*660 _0409_
*661 _0410_
*662 _0411_
*663 _0412_
*664 _0413_
*665 _0414_
*666 _0415_
*667 _0416_
*668 _0417_
*669 _0418_
*670 _0419_
*671 _0420_
*672 _0421_
*673 _0422_
*674 _0423_
*675 _0424_
*676 _0425_
*677 _0426_
*678 _0427_
*679 _0428_
*680 _0429_
*681 _0430_
*682 _0431_
*683 _0432_
*684 _0433_
*685 _0434_
*686 _0435_
*687 _0436_
*688 _0437_
*689 _0438_
*690 _0439_
*691 _0440_
*692 _0441_
*693 _0442_
*694 _0443_
*695 _0444_
*696 _0445_
*697 _0446_
*698 _0447_
*699 _0448_
*700 _0449_
*701 clknet_0_clk
*702 clknet_3_0__leaf_clk
*703 clknet_3_1__leaf_clk
*704 clknet_3_2__leaf_clk
*705 clknet_3_3__leaf_clk
*706 clknet_3_4__leaf_clk
*707 clknet_3_5__leaf_clk
*708 clknet_3_6__leaf_clk
*709 clknet_3_7__leaf_clk
*710 net1
*711 net10
*712 net106
*713 net107
*714 net108
*715 net109
*716 net11
*717 net110
*718 net111
*719 net112
*720 net113
*721 net114
*722 net115
*723 net116
*724 net117
*725 net118
*726 net119
*727 net12
*728 net120
*729 net13
*730 net14
*731 net15
*732 net16
*733 net17
*734 net18
*735 net19
*736 net2
*737 net20
*738 net21
*739 net22
*740 net23
*741 net24
*742 net25
*743 net26
*744 net27
*745 net28
*746 net29
*747 net3
*748 net30
*749 net31
*750 net32
*751 net33
*752 net34
*753 net35
*754 net36
*755 net37
*756 net38
*757 net39
*758 net4
*759 net5
*760 net6
*761 net7
*762 net8
*763 net9
*764 ANTENNA__0470__A
*765 ANTENNA__0477__B
*766 ANTENNA__0478__C
*767 ANTENNA__0501__X
*768 ANTENNA__0504__A_N
*769 ANTENNA__0513__B
*770 ANTENNA__0578__A
*771 ANTENNA__0580__A
*772 ANTENNA__0583__A_N
*773 ANTENNA__0586__B
*774 ANTENNA__0587__B
*775 ANTENNA__0591__A_N
*776 ANTENNA__0674__A
*777 ANTENNA__0676__A1
*778 ANTENNA__0752__A1
*779 ANTENNA__0760__S
*780 ANTENNA__0761__S
*781 ANTENNA__0762__S
*782 ANTENNA__0763__S
*783 ANTENNA__0764__S
*784 ANTENNA__0765__S
*785 ANTENNA__0766__S
*786 ANTENNA__0767__S
*787 ANTENNA__0849__B
*788 ANTENNA__0859__A
*789 ANTENNA__0943__RESET_B
*790 ANTENNA__0948__RESET_B
*791 ANTENNA__0950__RESET_B
*792 ANTENNA__0969__SET_B
*793 ANTENNA__0971__SET_B
*794 ANTENNA__0972__SET_B
*795 ANTENNA__0975__SET_B
*796 ANTENNA__0976__SET_B
*797 ANTENNA__1010__RESET_B
*798 ANTENNA__1011__RESET_B
*799 ANTENNA__1012__RESET_B
*800 ANTENNA__1013__RESET_B
*801 ANTENNA__1029__SET_B
*802 ANTENNA_clkbuf_0_clk_A
*803 ANTENNA_clkbuf_0_clk_X
*804 ANTENNA_clkbuf_3_0__f_clk_A
*805 ANTENNA_clkbuf_3_1__f_clk_A
*806 ANTENNA_clkbuf_3_2__f_clk_A
*807 ANTENNA_clkbuf_3_3__f_clk_A
*808 ANTENNA_clkbuf_3_4__f_clk_A
*809 ANTENNA_clkbuf_3_5__f_clk_A
*810 ANTENNA_clkbuf_3_6__f_clk_A
*811 ANTENNA_clkbuf_3_7__f_clk_A
*812 ANTENNA_fanout24_X
*813 ANTENNA_fanout30_A
*814 ANTENNA_fanout34_A
*815 ANTENNA_fanout35_A
*816 ANTENNA_fanout36_A
*817 ANTENNA_fanout37_A
*818 ANTENNA_fanout38_A
*819 ANTENNA_fanout38_X
*820 ANTENNA_fanout39_A
*821 ANTENNA_fanout39_X
*822 ANTENNA_input10_A
*823 ANTENNA_input11_A
*824 ANTENNA_input12_A
*825 ANTENNA_input13_A
*826 ANTENNA_input14_A
*827 ANTENNA_input15_A
*828 ANTENNA_input16_A
*829 ANTENNA_input17_A
*830 ANTENNA_input17_X
*831 ANTENNA_input1_A
*832 ANTENNA_input2_A
*833 ANTENNA_input3_A
*834 ANTENNA_input4_A
*835 ANTENNA_input5_A
*836 ANTENNA_input5_X
*837 ANTENNA_input6_A
*838 ANTENNA_input7_A
*839 ANTENNA_input7_X
*840 ANTENNA_input8_A
*841 ANTENNA_input9_A
*842 FILLER_0_109
*843 FILLER_0_111
*844 FILLER_0_113
*845 FILLER_0_12
*846 FILLER_0_125
*847 FILLER_0_133
*848 FILLER_0_139
*849 FILLER_0_141
*850 FILLER_0_153
*851 FILLER_0_16
*852 FILLER_0_165
*853 FILLER_0_167
*854 FILLER_0_169
*855 FILLER_0_181
*856 FILLER_0_193
*857 FILLER_0_195
*858 FILLER_0_197
*859 FILLER_0_20
*860 FILLER_0_209
*861 FILLER_0_221
*862 FILLER_0_223
*863 FILLER_0_225
*864 FILLER_0_237
*865 FILLER_0_27
*866 FILLER_0_29
*867 FILLER_0_34
*868 FILLER_0_41
*869 FILLER_0_53
*870 FILLER_0_55
*871 FILLER_0_57
*872 FILLER_0_69
*873 FILLER_0_81
*874 FILLER_0_83
*875 FILLER_0_85
*876 FILLER_0_97
*877 FILLER_10_105
*878 FILLER_10_117
*879 FILLER_10_129
*880 FILLER_10_137
*881 FILLER_10_139
*882 FILLER_10_144
*883 FILLER_10_156
*884 FILLER_10_160
*885 FILLER_10_18
*886 FILLER_10_182
*887 FILLER_10_186
*888 FILLER_10_195
*889 FILLER_10_210
*890 FILLER_10_222
*891 FILLER_10_234
*892 FILLER_10_246
*893 FILLER_10_248
*894 FILLER_10_253
*895 FILLER_10_59
*896 FILLER_10_6
*897 FILLER_10_94
*898 FILLER_11_132
*899 FILLER_11_140
*900 FILLER_11_152
*901 FILLER_11_164
*902 FILLER_11_190
*903 FILLER_11_210
*904 FILLER_11_222
*905 FILLER_11_225
*906 FILLER_11_237
*907 FILLER_11_249
*908 FILLER_11_251
*909 FILLER_11_31
*910 FILLER_11_57
*911 FILLER_12_107
*912 FILLER_12_122
*913 FILLER_12_152
*914 FILLER_12_183
*915 FILLER_12_204
*916 FILLER_12_206
*917 FILLER_12_214
*918 FILLER_12_226
*919 FILLER_12_238
*920 FILLER_12_24
*921 FILLER_12_246
*922 FILLER_12_248
*923 FILLER_12_253
*924 FILLER_12_29
*925 FILLER_12_33
*926 FILLER_12_64
*927 FILLER_12_68
*928 FILLER_12_70
*929 FILLER_12_80
*930 FILLER_12_85
*931 FILLER_12_97
*932 FILLER_13_111
*933 FILLER_13_131
*934 FILLER_13_142
*935 FILLER_13_154
*936 FILLER_13_166
*937 FILLER_13_180
*938 FILLER_13_188
*939 FILLER_13_200
*940 FILLER_13_204
*941 FILLER_13_206
*942 FILLER_13_214
*943 FILLER_13_218
*944 FILLER_13_222
*945 FILLER_13_225
*946 FILLER_13_237
*947 FILLER_13_249
*948 FILLER_13_253
*949 FILLER_13_3
*950 FILLER_13_30
*951 FILLER_13_52
*952 FILLER_13_57
*953 FILLER_13_61
*954 FILLER_13_63
*955 FILLER_13_7
*956 FILLER_14_105
*957 FILLER_14_117
*958 FILLER_14_130
*959 FILLER_14_138
*960 FILLER_14_141
*961 FILLER_14_179
*962 FILLER_14_181
*963 FILLER_14_203
*964 FILLER_14_213
*965 FILLER_14_215
*966 FILLER_14_243
*967 FILLER_14_247
*968 FILLER_14_253
*969 FILLER_14_29
*970 FILLER_14_3
*971 FILLER_14_33
*972 FILLER_14_43
*973 FILLER_14_68
*974 FILLER_14_74
*975 FILLER_14_82
*976 FILLER_14_85
*977 FILLER_14_94
*978 FILLER_15_113
*979 FILLER_15_124
*980 FILLER_15_126
*981 FILLER_15_131
*982 FILLER_15_143
*983 FILLER_15_145
*984 FILLER_15_15
*985 FILLER_15_155
*986 FILLER_15_167
*987 FILLER_15_175
*988 FILLER_15_179
*989 FILLER_15_19
*990 FILLER_15_206
*991 FILLER_15_21
*992 FILLER_15_225
*993 FILLER_15_239
*994 FILLER_15_243
*995 FILLER_15_3
*996 FILLER_15_43
*997 FILLER_15_66
*998 FILLER_15_96
*999 FILLER_16_109
*1000 FILLER_16_12
*1001 FILLER_16_121
*1002 FILLER_16_126
*1003 FILLER_16_14
*1004 FILLER_16_141
*1005 FILLER_16_163
*1006 FILLER_16_175
*1007 FILLER_16_177
*1008 FILLER_16_195
*1009 FILLER_16_201
*1010 FILLER_16_208
*1011 FILLER_16_253
*1012 FILLER_16_26
*1013 FILLER_16_50
*1014 FILLER_16_7
*1015 FILLER_16_72
*1016 FILLER_16_76
*1017 FILLER_17_104
*1018 FILLER_17_127
*1019 FILLER_17_135
*1020 FILLER_17_140
*1021 FILLER_17_142
*1022 FILLER_17_164
*1023 FILLER_17_178
*1024 FILLER_17_184
*1025 FILLER_17_196
*1026 FILLER_17_207
*1027 FILLER_17_215
*1028 FILLER_17_223
*1029 FILLER_17_234
*1030 FILLER_17_245
*1031 FILLER_17_247
*1032 FILLER_17_26
*1033 FILLER_17_3
*1034 FILLER_17_36
*1035 FILLER_17_44
*1036 FILLER_17_46
*1037 FILLER_17_53
*1038 FILLER_17_55
*1039 FILLER_17_67
*1040 FILLER_17_79
*1041 FILLER_17_87
*1042 FILLER_17_96
*1043 FILLER_18_105
*1044 FILLER_18_107
*1045 FILLER_18_132
*1046 FILLER_18_15
*1047 FILLER_18_189
*1048 FILLER_18_205
*1049 FILLER_18_209
*1050 FILLER_18_236
*1051 FILLER_18_244
*1052 FILLER_18_248
*1053 FILLER_18_253
*1054 FILLER_18_3
*1055 FILLER_18_31
*1056 FILLER_18_43
*1057 FILLER_18_75
*1058 FILLER_18_83
*1059 FILLER_18_85
*1060 FILLER_18_97
*1061 FILLER_19_111
*1062 FILLER_19_12
*1063 FILLER_19_14
*1064 FILLER_19_167
*1065 FILLER_19_176
*1066 FILLER_19_18
*1067 FILLER_19_180
*1068 FILLER_19_188
*1069 FILLER_19_196
*1070 FILLER_19_198
*1071 FILLER_19_205
*1072 FILLER_19_220
*1073 FILLER_19_247
*1074 FILLER_19_26
*1075 FILLER_19_28
*1076 FILLER_19_41
*1077 FILLER_19_45
*1078 FILLER_19_47
*1079 FILLER_19_55
*1080 FILLER_19_57
*1081 FILLER_19_75
*1082 FILLER_19_79
*1083 FILLER_19_8
*1084 FILLER_19_99
*1085 FILLER_1_105
*1086 FILLER_1_109
*1087 FILLER_1_111
*1088 FILLER_1_113
*1089 FILLER_1_125
*1090 FILLER_1_151
*1091 FILLER_1_163
*1092 FILLER_1_167
*1093 FILLER_1_169
*1094 FILLER_1_181
*1095 FILLER_1_193
*1096 FILLER_1_205
*1097 FILLER_1_21
*1098 FILLER_1_217
*1099 FILLER_1_221
*1100 FILLER_1_223
*1101 FILLER_1_225
*1102 FILLER_1_237
*1103 FILLER_1_241
*1104 FILLER_1_243
*1105 FILLER_1_33
*1106 FILLER_1_45
*1107 FILLER_1_53
*1108 FILLER_1_55
*1109 FILLER_1_57
*1110 FILLER_1_69
*1111 FILLER_1_81
*1112 FILLER_1_9
*1113 FILLER_1_93
*1114 FILLER_20_106
*1115 FILLER_20_174
*1116 FILLER_20_192
*1117 FILLER_20_197
*1118 FILLER_20_209
*1119 FILLER_20_215
*1120 FILLER_20_217
*1121 FILLER_20_253
*1122 FILLER_20_37
*1123 FILLER_20_73
*1124 FILLER_20_82
*1125 FILLER_21_134
*1126 FILLER_21_159
*1127 FILLER_21_161
*1128 FILLER_21_164
*1129 FILLER_21_169
*1130 FILLER_21_174
*1131 FILLER_21_186
*1132 FILLER_21_198
*1133 FILLER_21_220
*1134 FILLER_21_225
*1135 FILLER_21_232
*1136 FILLER_21_237
*1137 FILLER_21_239
*1138 FILLER_21_25
*1139 FILLER_21_254
*1140 FILLER_21_29
*1141 FILLER_21_3
*1142 FILLER_21_44
*1143 FILLER_21_64
*1144 FILLER_22_106
*1145 FILLER_22_118
*1146 FILLER_22_15
*1147 FILLER_22_158
*1148 FILLER_22_176
*1149 FILLER_22_188
*1150 FILLER_22_19
*1151 FILLER_22_197
*1152 FILLER_22_201
*1153 FILLER_22_203
*1154 FILLER_22_253
*1155 FILLER_22_3
*1156 FILLER_22_35
*1157 FILLER_22_49
*1158 FILLER_22_51
*1159 FILLER_22_59
*1160 FILLER_22_75
*1161 FILLER_22_90
*1162 FILLER_23_10
*1163 FILLER_23_111
*1164 FILLER_23_113
*1165 FILLER_23_12
*1166 FILLER_23_121
*1167 FILLER_23_123
*1168 FILLER_23_130
*1169 FILLER_23_142
*1170 FILLER_23_154
*1171 FILLER_23_166
*1172 FILLER_23_185
*1173 FILLER_23_197
*1174 FILLER_23_201
*1175 FILLER_23_213
*1176 FILLER_23_22
*1177 FILLER_23_221
*1178 FILLER_23_223
*1179 FILLER_23_225
*1180 FILLER_23_229
*1181 FILLER_23_251
*1182 FILLER_23_34
*1183 FILLER_23_42
*1184 FILLER_23_6
*1185 FILLER_23_66
*1186 FILLER_23_78
*1187 FILLER_23_86
*1188 FILLER_24_106
*1189 FILLER_24_110
*1190 FILLER_24_131
*1191 FILLER_24_139
*1192 FILLER_24_141
*1193 FILLER_24_153
*1194 FILLER_24_175
*1195 FILLER_24_218
*1196 FILLER_24_230
*1197 FILLER_24_242
*1198 FILLER_24_246
*1199 FILLER_24_248
*1200 FILLER_24_25
*1201 FILLER_24_253
*1202 FILLER_24_27
*1203 FILLER_24_29
*1204 FILLER_24_3
*1205 FILLER_24_41
*1206 FILLER_24_72
*1207 FILLER_24_76
*1208 FILLER_24_94
*1209 FILLER_25_101
*1210 FILLER_25_109
*1211 FILLER_25_111
*1212 FILLER_25_113
*1213 FILLER_25_120
*1214 FILLER_25_155
*1215 FILLER_25_163
*1216 FILLER_25_167
*1217 FILLER_25_169
*1218 FILLER_25_185
*1219 FILLER_25_217
*1220 FILLER_25_221
*1221 FILLER_25_223
*1222 FILLER_25_24
*1223 FILLER_25_245
*1224 FILLER_26_113
*1225 FILLER_26_131
*1226 FILLER_26_147
*1227 FILLER_26_155
*1228 FILLER_26_157
*1229 FILLER_26_165
*1230 FILLER_26_181
*1231 FILLER_26_185
*1232 FILLER_26_187
*1233 FILLER_26_195
*1234 FILLER_26_202
*1235 FILLER_26_241
*1236 FILLER_26_243
*1237 FILLER_26_253
*1238 FILLER_26_26
*1239 FILLER_26_3
*1240 FILLER_26_76
*1241 FILLER_27_113
*1242 FILLER_27_127
*1243 FILLER_27_15
*1244 FILLER_27_154
*1245 FILLER_27_193
*1246 FILLER_27_203
*1247 FILLER_27_230
*1248 FILLER_27_251
*1249 FILLER_27_3
*1250 FILLER_27_48
*1251 FILLER_27_97
*1252 FILLER_28_119
*1253 FILLER_28_125
*1254 FILLER_28_127
*1255 FILLER_28_131
*1256 FILLER_28_145
*1257 FILLER_28_157
*1258 FILLER_28_194
*1259 FILLER_28_221
*1260 FILLER_28_233
*1261 FILLER_28_235
*1262 FILLER_28_240
*1263 FILLER_28_253
*1264 FILLER_28_26
*1265 FILLER_28_29
*1266 FILLER_28_3
*1267 FILLER_28_5
*1268 FILLER_28_56
*1269 FILLER_28_68
*1270 FILLER_28_80
*1271 FILLER_28_85
*1272 FILLER_29_111
*1273 FILLER_29_113
*1274 FILLER_29_117
*1275 FILLER_29_122
*1276 FILLER_29_134
*1277 FILLER_29_146
*1278 FILLER_29_169
*1279 FILLER_29_195
*1280 FILLER_29_199
*1281 FILLER_29_201
*1282 FILLER_29_220
*1283 FILLER_29_24
*1284 FILLER_29_243
*1285 FILLER_29_245
*1286 FILLER_29_54
*1287 FILLER_29_57
*1288 FILLER_29_61
*1289 FILLER_2_109
*1290 FILLER_2_141
*1291 FILLER_2_155
*1292 FILLER_2_157
*1293 FILLER_2_162
*1294 FILLER_2_174
*1295 FILLER_2_18
*1296 FILLER_2_186
*1297 FILLER_2_194
*1298 FILLER_2_197
*1299 FILLER_2_209
*1300 FILLER_2_221
*1301 FILLER_2_233
*1302 FILLER_2_245
*1303 FILLER_2_253
*1304 FILLER_2_26
*1305 FILLER_2_29
*1306 FILLER_2_41
*1307 FILLER_2_53
*1308 FILLER_2_6
*1309 FILLER_2_65
*1310 FILLER_2_77
*1311 FILLER_2_81
*1312 FILLER_2_83
*1313 FILLER_2_85
*1314 FILLER_2_97
*1315 FILLER_30_105
*1316 FILLER_30_111
*1317 FILLER_30_119
*1318 FILLER_30_135
*1319 FILLER_30_139
*1320 FILLER_30_141
*1321 FILLER_30_145
*1322 FILLER_30_149
*1323 FILLER_30_15
*1324 FILLER_30_154
*1325 FILLER_30_163
*1326 FILLER_30_167
*1327 FILLER_30_170
*1328 FILLER_30_189
*1329 FILLER_30_205
*1330 FILLER_30_213
*1331 FILLER_30_225
*1332 FILLER_30_229
*1333 FILLER_30_231
*1334 FILLER_30_27
*1335 FILLER_30_3
*1336 FILLER_30_71
*1337 FILLER_30_83
*1338 FILLER_30_85
*1339 FILLER_30_97
*1340 FILLER_31_122
*1341 FILLER_31_158
*1342 FILLER_31_166
*1343 FILLER_31_18
*1344 FILLER_31_202
*1345 FILLER_31_225
*1346 FILLER_31_233
*1347 FILLER_31_242
*1348 FILLER_31_41
*1349 FILLER_31_45
*1350 FILLER_31_53
*1351 FILLER_31_55
*1352 FILLER_31_57
*1353 FILLER_31_6
*1354 FILLER_31_82
*1355 FILLER_31_90
*1356 FILLER_31_98
*1357 FILLER_32_106
*1358 FILLER_32_113
*1359 FILLER_32_121
*1360 FILLER_32_129
*1361 FILLER_32_150
*1362 FILLER_32_154
*1363 FILLER_32_156
*1364 FILLER_32_163
*1365 FILLER_32_171
*1366 FILLER_32_173
*1367 FILLER_32_192
*1368 FILLER_32_197
*1369 FILLER_32_211
*1370 FILLER_32_219
*1371 FILLER_32_248
*1372 FILLER_32_253
*1373 FILLER_32_27
*1374 FILLER_32_29
*1375 FILLER_32_3
*1376 FILLER_32_41
*1377 FILLER_32_45
*1378 FILLER_32_49
*1379 FILLER_32_53
*1380 FILLER_32_55
*1381 FILLER_32_80
*1382 FILLER_32_85
*1383 FILLER_32_98
*1384 FILLER_33_102
*1385 FILLER_33_110
*1386 FILLER_33_113
*1387 FILLER_33_117
*1388 FILLER_33_119
*1389 FILLER_33_135
*1390 FILLER_33_139
*1391 FILLER_33_152
*1392 FILLER_33_159
*1393 FILLER_33_161
*1394 FILLER_33_169
*1395 FILLER_33_171
*1396 FILLER_33_198
*1397 FILLER_33_204
*1398 FILLER_33_212
*1399 FILLER_33_232
*1400 FILLER_33_234
*1401 FILLER_33_245
*1402 FILLER_33_249
*1403 FILLER_33_251
*1404 FILLER_33_3
*1405 FILLER_33_47
*1406 FILLER_33_55
*1407 FILLER_33_57
*1408 FILLER_33_65
*1409 FILLER_33_7
*1410 FILLER_33_73
*1411 FILLER_33_81
*1412 FILLER_33_83
*1413 FILLER_33_95
*1414 FILLER_34_108
*1415 FILLER_34_120
*1416 FILLER_34_132
*1417 FILLER_34_139
*1418 FILLER_34_14
*1419 FILLER_34_141
*1420 FILLER_34_153
*1421 FILLER_34_165
*1422 FILLER_34_185
*1423 FILLER_34_190
*1424 FILLER_34_194
*1425 FILLER_34_202
*1426 FILLER_34_221
*1427 FILLER_34_225
*1428 FILLER_34_227
*1429 FILLER_34_232
*1430 FILLER_34_243
*1431 FILLER_34_247
*1432 FILLER_34_253
*1433 FILLER_34_27
*1434 FILLER_34_29
*1435 FILLER_34_51
*1436 FILLER_34_55
*1437 FILLER_34_6
*1438 FILLER_34_76
*1439 FILLER_34_78
*1440 FILLER_35_104
*1441 FILLER_35_137
*1442 FILLER_35_151
*1443 FILLER_35_153
*1444 FILLER_35_161
*1445 FILLER_35_165
*1446 FILLER_35_167
*1447 FILLER_35_169
*1448 FILLER_35_171
*1449 FILLER_35_187
*1450 FILLER_35_204
*1451 FILLER_35_208
*1452 FILLER_35_210
*1453 FILLER_35_218
*1454 FILLER_35_225
*1455 FILLER_35_227
*1456 FILLER_35_248
*1457 FILLER_35_54
*1458 FILLER_35_57
*1459 FILLER_35_6
*1460 FILLER_35_61
*1461 FILLER_35_72
*1462 FILLER_35_82
*1463 FILLER_36_125
*1464 FILLER_36_131
*1465 FILLER_36_136
*1466 FILLER_36_182
*1467 FILLER_36_193
*1468 FILLER_36_195
*1469 FILLER_36_217
*1470 FILLER_36_24
*1471 FILLER_36_241
*1472 FILLER_36_253
*1473 FILLER_36_29
*1474 FILLER_36_3
*1475 FILLER_36_48
*1476 FILLER_36_52
*1477 FILLER_36_73
*1478 FILLER_36_81
*1479 FILLER_36_83
*1480 FILLER_36_88
*1481 FILLER_36_96
*1482 FILLER_37_111
*1483 FILLER_37_113
*1484 FILLER_37_121
*1485 FILLER_37_125
*1486 FILLER_37_128
*1487 FILLER_37_161
*1488 FILLER_37_165
*1489 FILLER_37_167
*1490 FILLER_37_169
*1491 FILLER_37_171
*1492 FILLER_37_174
*1493 FILLER_37_178
*1494 FILLER_37_207
*1495 FILLER_37_21
*1496 FILLER_37_211
*1497 FILLER_37_219
*1498 FILLER_37_223
*1499 FILLER_37_225
*1500 FILLER_37_237
*1501 FILLER_37_245
*1502 FILLER_37_45
*1503 FILLER_37_53
*1504 FILLER_37_55
*1505 FILLER_37_89
*1506 FILLER_37_9
*1507 FILLER_37_93
*1508 FILLER_37_95
*1509 FILLER_37_99
*1510 FILLER_38_104
*1511 FILLER_38_111
*1512 FILLER_38_119
*1513 FILLER_38_12
*1514 FILLER_38_126
*1515 FILLER_38_133
*1516 FILLER_38_146
*1517 FILLER_38_156
*1518 FILLER_38_163
*1519 FILLER_38_177
*1520 FILLER_38_201
*1521 FILLER_38_213
*1522 FILLER_38_221
*1523 FILLER_38_223
*1524 FILLER_38_225
*1525 FILLER_38_237
*1526 FILLER_38_24
*1527 FILLER_38_241
*1528 FILLER_38_253
*1529 FILLER_38_29
*1530 FILLER_38_41
*1531 FILLER_38_48
*1532 FILLER_38_55
*1533 FILLER_38_57
*1534 FILLER_38_69
*1535 FILLER_38_73
*1536 FILLER_38_78
*1537 FILLER_38_82
*1538 FILLER_38_85
*1539 FILLER_38_97
*1540 FILLER_3_103
*1541 FILLER_3_111
*1542 FILLER_3_113
*1543 FILLER_3_117
*1544 FILLER_3_119
*1545 FILLER_3_136
*1546 FILLER_3_15
*1547 FILLER_3_169
*1548 FILLER_3_181
*1549 FILLER_3_189
*1550 FILLER_3_201
*1551 FILLER_3_213
*1552 FILLER_3_221
*1553 FILLER_3_223
*1554 FILLER_3_225
*1555 FILLER_3_237
*1556 FILLER_3_249
*1557 FILLER_3_253
*1558 FILLER_3_27
*1559 FILLER_3_3
*1560 FILLER_3_39
*1561 FILLER_3_51
*1562 FILLER_3_55
*1563 FILLER_3_57
*1564 FILLER_3_69
*1565 FILLER_3_81
*1566 FILLER_4_114
*1567 FILLER_4_116
*1568 FILLER_4_131
*1569 FILLER_4_135
*1570 FILLER_4_139
*1571 FILLER_4_141
*1572 FILLER_4_150
*1573 FILLER_4_174
*1574 FILLER_4_18
*1575 FILLER_4_207
*1576 FILLER_4_219
*1577 FILLER_4_22
*1578 FILLER_4_231
*1579 FILLER_4_243
*1580 FILLER_4_247
*1581 FILLER_4_253
*1582 FILLER_4_26
*1583 FILLER_4_50
*1584 FILLER_4_6
*1585 FILLER_4_62
*1586 FILLER_4_74
*1587 FILLER_4_85
*1588 FILLER_5_111
*1589 FILLER_5_132
*1590 FILLER_5_14
*1591 FILLER_5_144
*1592 FILLER_5_152
*1593 FILLER_5_167
*1594 FILLER_5_176
*1595 FILLER_5_184
*1596 FILLER_5_209
*1597 FILLER_5_221
*1598 FILLER_5_223
*1599 FILLER_5_225
*1600 FILLER_5_237
*1601 FILLER_5_249
*1602 FILLER_5_251
*1603 FILLER_5_45
*1604 FILLER_5_53
*1605 FILLER_5_6
*1606 FILLER_5_66
*1607 FILLER_5_91
*1608 FILLER_5_95
*1609 FILLER_5_97
*1610 FILLER_6_111
*1611 FILLER_6_113
*1612 FILLER_6_139
*1613 FILLER_6_141
*1614 FILLER_6_153
*1615 FILLER_6_157
*1616 FILLER_6_163
*1617 FILLER_6_170
*1618 FILLER_6_178
*1619 FILLER_6_189
*1620 FILLER_6_193
*1621 FILLER_6_195
*1622 FILLER_6_206
*1623 FILLER_6_218
*1624 FILLER_6_230
*1625 FILLER_6_242
*1626 FILLER_6_246
*1627 FILLER_6_248
*1628 FILLER_6_253
*1629 FILLER_6_27
*1630 FILLER_6_29
*1631 FILLER_6_39
*1632 FILLER_6_41
*1633 FILLER_6_85
*1634 FILLER_7_110
*1635 FILLER_7_113
*1636 FILLER_7_125
*1637 FILLER_7_127
*1638 FILLER_7_135
*1639 FILLER_7_146
*1640 FILLER_7_158
*1641 FILLER_7_166
*1642 FILLER_7_169
*1643 FILLER_7_173
*1644 FILLER_7_18
*1645 FILLER_7_218
*1646 FILLER_7_222
*1647 FILLER_7_225
*1648 FILLER_7_237
*1649 FILLER_7_249
*1650 FILLER_7_251
*1651 FILLER_7_26
*1652 FILLER_7_28
*1653 FILLER_7_6
*1654 FILLER_7_87
*1655 FILLER_8_120
*1656 FILLER_8_136
*1657 FILLER_8_148
*1658 FILLER_8_152
*1659 FILLER_8_163
*1660 FILLER_8_175
*1661 FILLER_8_187
*1662 FILLER_8_195
*1663 FILLER_8_206
*1664 FILLER_8_218
*1665 FILLER_8_230
*1666 FILLER_8_242
*1667 FILLER_8_250
*1668 FILLER_8_253
*1669 FILLER_8_26
*1670 FILLER_8_40
*1671 FILLER_8_75
*1672 FILLER_8_83
*1673 FILLER_8_94
*1674 FILLER_8_98
*1675 FILLER_9_110
*1676 FILLER_9_113
*1677 FILLER_9_125
*1678 FILLER_9_129
*1679 FILLER_9_131
*1680 FILLER_9_135
*1681 FILLER_9_137
*1682 FILLER_9_146
*1683 FILLER_9_177
*1684 FILLER_9_189
*1685 FILLER_9_196
*1686 FILLER_9_200
*1687 FILLER_9_212
*1688 FILLER_9_225
*1689 FILLER_9_237
*1690 FILLER_9_249
*1691 FILLER_9_251
*1692 FILLER_9_39
*1693 FILLER_9_51
*1694 FILLER_9_55
*1695 FILLER_9_6
*1696 FILLER_9_8
*1697 FILLER_9_93
*1698 PHY_EDGE_ROW_0_Left_39
*1699 PHY_EDGE_ROW_0_Right_0
*1700 PHY_EDGE_ROW_10_Left_49
*1701 PHY_EDGE_ROW_10_Right_10
*1702 PHY_EDGE_ROW_11_Left_50
*1703 PHY_EDGE_ROW_11_Right_11
*1704 PHY_EDGE_ROW_12_Left_51
*1705 PHY_EDGE_ROW_12_Right_12
*1706 PHY_EDGE_ROW_13_Left_52
*1707 PHY_EDGE_ROW_13_Right_13
*1708 PHY_EDGE_ROW_14_Left_53
*1709 PHY_EDGE_ROW_14_Right_14
*1710 PHY_EDGE_ROW_15_Left_54
*1711 PHY_EDGE_ROW_15_Right_15
*1712 PHY_EDGE_ROW_16_Left_55
*1713 PHY_EDGE_ROW_16_Right_16
*1714 PHY_EDGE_ROW_17_Left_56
*1715 PHY_EDGE_ROW_17_Right_17
*1716 PHY_EDGE_ROW_18_Left_57
*1717 PHY_EDGE_ROW_18_Right_18
*1718 PHY_EDGE_ROW_19_Left_58
*1719 PHY_EDGE_ROW_19_Right_19
*1720 PHY_EDGE_ROW_1_Left_40
*1721 PHY_EDGE_ROW_1_Right_1
*1722 PHY_EDGE_ROW_20_Left_59
*1723 PHY_EDGE_ROW_20_Right_20
*1724 PHY_EDGE_ROW_21_Left_60
*1725 PHY_EDGE_ROW_21_Right_21
*1726 PHY_EDGE_ROW_22_Left_61
*1727 PHY_EDGE_ROW_22_Right_22
*1728 PHY_EDGE_ROW_23_Left_62
*1729 PHY_EDGE_ROW_23_Right_23
*1730 PHY_EDGE_ROW_24_Left_63
*1731 PHY_EDGE_ROW_24_Right_24
*1732 PHY_EDGE_ROW_25_Left_64
*1733 PHY_EDGE_ROW_25_Right_25
*1734 PHY_EDGE_ROW_26_Left_65
*1735 PHY_EDGE_ROW_26_Right_26
*1736 PHY_EDGE_ROW_27_Left_66
*1737 PHY_EDGE_ROW_27_Right_27
*1738 PHY_EDGE_ROW_28_Left_67
*1739 PHY_EDGE_ROW_28_Right_28
*1740 PHY_EDGE_ROW_29_Left_68
*1741 PHY_EDGE_ROW_29_Right_29
*1742 PHY_EDGE_ROW_2_Left_41
*1743 PHY_EDGE_ROW_2_Right_2
*1744 PHY_EDGE_ROW_30_Left_69
*1745 PHY_EDGE_ROW_30_Right_30
*1746 PHY_EDGE_ROW_31_Left_70
*1747 PHY_EDGE_ROW_31_Right_31
*1748 PHY_EDGE_ROW_32_Left_71
*1749 PHY_EDGE_ROW_32_Right_32
*1750 PHY_EDGE_ROW_33_Left_72
*1751 PHY_EDGE_ROW_33_Right_33
*1752 PHY_EDGE_ROW_34_Left_73
*1753 PHY_EDGE_ROW_34_Right_34
*1754 PHY_EDGE_ROW_35_Left_74
*1755 PHY_EDGE_ROW_35_Right_35
*1756 PHY_EDGE_ROW_36_Left_75
*1757 PHY_EDGE_ROW_36_Right_36
*1758 PHY_EDGE_ROW_37_Left_76
*1759 PHY_EDGE_ROW_37_Right_37
*1760 PHY_EDGE_ROW_38_Left_77
*1761 PHY_EDGE_ROW_38_Right_38
*1762 PHY_EDGE_ROW_3_Left_42
*1763 PHY_EDGE_ROW_3_Right_3
*1764 PHY_EDGE_ROW_4_Left_43
*1765 PHY_EDGE_ROW_4_Right_4
*1766 PHY_EDGE_ROW_5_Left_44
*1767 PHY_EDGE_ROW_5_Right_5
*1768 PHY_EDGE_ROW_6_Left_45
*1769 PHY_EDGE_ROW_6_Right_6
*1770 PHY_EDGE_ROW_7_Left_46
*1771 PHY_EDGE_ROW_7_Right_7
*1772 PHY_EDGE_ROW_8_Left_47
*1773 PHY_EDGE_ROW_8_Right_8
*1774 PHY_EDGE_ROW_9_Left_48
*1775 PHY_EDGE_ROW_9_Right_9
*1776 TAP_TAPCELL_ROW_0_78
*1777 TAP_TAPCELL_ROW_0_79
*1778 TAP_TAPCELL_ROW_0_80
*1779 TAP_TAPCELL_ROW_0_81
*1780 TAP_TAPCELL_ROW_0_82
*1781 TAP_TAPCELL_ROW_0_83
*1782 TAP_TAPCELL_ROW_0_84
*1783 TAP_TAPCELL_ROW_0_85
*1784 TAP_TAPCELL_ROW_0_86
*1785 TAP_TAPCELL_ROW_10_127
*1786 TAP_TAPCELL_ROW_10_128
*1787 TAP_TAPCELL_ROW_10_129
*1788 TAP_TAPCELL_ROW_10_130
*1789 TAP_TAPCELL_ROW_10_131
*1790 TAP_TAPCELL_ROW_11_132
*1791 TAP_TAPCELL_ROW_11_133
*1792 TAP_TAPCELL_ROW_11_134
*1793 TAP_TAPCELL_ROW_11_135
*1794 TAP_TAPCELL_ROW_12_136
*1795 TAP_TAPCELL_ROW_12_137
*1796 TAP_TAPCELL_ROW_12_138
*1797 TAP_TAPCELL_ROW_12_139
*1798 TAP_TAPCELL_ROW_12_140
*1799 TAP_TAPCELL_ROW_13_141
*1800 TAP_TAPCELL_ROW_13_142
*1801 TAP_TAPCELL_ROW_13_143
*1802 TAP_TAPCELL_ROW_13_144
*1803 TAP_TAPCELL_ROW_14_145
*1804 TAP_TAPCELL_ROW_14_146
*1805 TAP_TAPCELL_ROW_14_147
*1806 TAP_TAPCELL_ROW_14_148
*1807 TAP_TAPCELL_ROW_14_149
*1808 TAP_TAPCELL_ROW_15_150
*1809 TAP_TAPCELL_ROW_15_151
*1810 TAP_TAPCELL_ROW_15_152
*1811 TAP_TAPCELL_ROW_15_153
*1812 TAP_TAPCELL_ROW_16_154
*1813 TAP_TAPCELL_ROW_16_155
*1814 TAP_TAPCELL_ROW_16_156
*1815 TAP_TAPCELL_ROW_16_157
*1816 TAP_TAPCELL_ROW_16_158
*1817 TAP_TAPCELL_ROW_17_159
*1818 TAP_TAPCELL_ROW_17_160
*1819 TAP_TAPCELL_ROW_17_161
*1820 TAP_TAPCELL_ROW_17_162
*1821 TAP_TAPCELL_ROW_18_163
*1822 TAP_TAPCELL_ROW_18_164
*1823 TAP_TAPCELL_ROW_18_165
*1824 TAP_TAPCELL_ROW_18_166
*1825 TAP_TAPCELL_ROW_18_167
*1826 TAP_TAPCELL_ROW_19_168
*1827 TAP_TAPCELL_ROW_19_169
*1828 TAP_TAPCELL_ROW_19_170
*1829 TAP_TAPCELL_ROW_19_171
*1830 TAP_TAPCELL_ROW_1_87
*1831 TAP_TAPCELL_ROW_1_88
*1832 TAP_TAPCELL_ROW_1_89
*1833 TAP_TAPCELL_ROW_1_90
*1834 TAP_TAPCELL_ROW_20_172
*1835 TAP_TAPCELL_ROW_20_173
*1836 TAP_TAPCELL_ROW_20_174
*1837 TAP_TAPCELL_ROW_20_175
*1838 TAP_TAPCELL_ROW_20_176
*1839 TAP_TAPCELL_ROW_21_177
*1840 TAP_TAPCELL_ROW_21_178
*1841 TAP_TAPCELL_ROW_21_179
*1842 TAP_TAPCELL_ROW_21_180
*1843 TAP_TAPCELL_ROW_22_181
*1844 TAP_TAPCELL_ROW_22_182
*1845 TAP_TAPCELL_ROW_22_183
*1846 TAP_TAPCELL_ROW_22_184
*1847 TAP_TAPCELL_ROW_22_185
*1848 TAP_TAPCELL_ROW_23_186
*1849 TAP_TAPCELL_ROW_23_187
*1850 TAP_TAPCELL_ROW_23_188
*1851 TAP_TAPCELL_ROW_23_189
*1852 TAP_TAPCELL_ROW_24_190
*1853 TAP_TAPCELL_ROW_24_191
*1854 TAP_TAPCELL_ROW_24_192
*1855 TAP_TAPCELL_ROW_24_193
*1856 TAP_TAPCELL_ROW_24_194
*1857 TAP_TAPCELL_ROW_25_195
*1858 TAP_TAPCELL_ROW_25_196
*1859 TAP_TAPCELL_ROW_25_197
*1860 TAP_TAPCELL_ROW_25_198
*1861 TAP_TAPCELL_ROW_26_199
*1862 TAP_TAPCELL_ROW_26_200
*1863 TAP_TAPCELL_ROW_26_201
*1864 TAP_TAPCELL_ROW_26_202
*1865 TAP_TAPCELL_ROW_26_203
*1866 TAP_TAPCELL_ROW_27_204
*1867 TAP_TAPCELL_ROW_27_205
*1868 TAP_TAPCELL_ROW_27_206
*1869 TAP_TAPCELL_ROW_27_207
*1870 TAP_TAPCELL_ROW_28_208
*1871 TAP_TAPCELL_ROW_28_209
*1872 TAP_TAPCELL_ROW_28_210
*1873 TAP_TAPCELL_ROW_28_211
*1874 TAP_TAPCELL_ROW_28_212
*1875 TAP_TAPCELL_ROW_29_213
*1876 TAP_TAPCELL_ROW_29_214
*1877 TAP_TAPCELL_ROW_29_215
*1878 TAP_TAPCELL_ROW_29_216
*1879 TAP_TAPCELL_ROW_2_91
*1880 TAP_TAPCELL_ROW_2_92
*1881 TAP_TAPCELL_ROW_2_93
*1882 TAP_TAPCELL_ROW_2_94
*1883 TAP_TAPCELL_ROW_2_95
*1884 TAP_TAPCELL_ROW_30_217
*1885 TAP_TAPCELL_ROW_30_218
*1886 TAP_TAPCELL_ROW_30_219
*1887 TAP_TAPCELL_ROW_30_220
*1888 TAP_TAPCELL_ROW_30_221
*1889 TAP_TAPCELL_ROW_31_222
*1890 TAP_TAPCELL_ROW_31_223
*1891 TAP_TAPCELL_ROW_31_224
*1892 TAP_TAPCELL_ROW_31_225
*1893 TAP_TAPCELL_ROW_32_226
*1894 TAP_TAPCELL_ROW_32_227
*1895 TAP_TAPCELL_ROW_32_228
*1896 TAP_TAPCELL_ROW_32_229
*1897 TAP_TAPCELL_ROW_32_230
*1898 TAP_TAPCELL_ROW_33_231
*1899 TAP_TAPCELL_ROW_33_232
*1900 TAP_TAPCELL_ROW_33_233
*1901 TAP_TAPCELL_ROW_33_234
*1902 TAP_TAPCELL_ROW_34_235
*1903 TAP_TAPCELL_ROW_34_236
*1904 TAP_TAPCELL_ROW_34_237
*1905 TAP_TAPCELL_ROW_34_238
*1906 TAP_TAPCELL_ROW_34_239
*1907 TAP_TAPCELL_ROW_35_240
*1908 TAP_TAPCELL_ROW_35_241
*1909 TAP_TAPCELL_ROW_35_242
*1910 TAP_TAPCELL_ROW_35_243
*1911 TAP_TAPCELL_ROW_36_244
*1912 TAP_TAPCELL_ROW_36_245
*1913 TAP_TAPCELL_ROW_36_246
*1914 TAP_TAPCELL_ROW_36_247
*1915 TAP_TAPCELL_ROW_36_248
*1916 TAP_TAPCELL_ROW_37_249
*1917 TAP_TAPCELL_ROW_37_250
*1918 TAP_TAPCELL_ROW_37_251
*1919 TAP_TAPCELL_ROW_37_252
*1920 TAP_TAPCELL_ROW_38_253
*1921 TAP_TAPCELL_ROW_38_254
*1922 TAP_TAPCELL_ROW_38_255
*1923 TAP_TAPCELL_ROW_38_256
*1924 TAP_TAPCELL_ROW_38_257
*1925 TAP_TAPCELL_ROW_38_258
*1926 TAP_TAPCELL_ROW_38_259
*1927 TAP_TAPCELL_ROW_38_260
*1928 TAP_TAPCELL_ROW_38_261
*1929 TAP_TAPCELL_ROW_3_96
*1930 TAP_TAPCELL_ROW_3_97
*1931 TAP_TAPCELL_ROW_3_98
*1932 TAP_TAPCELL_ROW_3_99
*1933 TAP_TAPCELL_ROW_4_100
*1934 TAP_TAPCELL_ROW_4_101
*1935 TAP_TAPCELL_ROW_4_102
*1936 TAP_TAPCELL_ROW_4_103
*1937 TAP_TAPCELL_ROW_4_104
*1938 TAP_TAPCELL_ROW_5_105
*1939 TAP_TAPCELL_ROW_5_106
*1940 TAP_TAPCELL_ROW_5_107
*1941 TAP_TAPCELL_ROW_5_108
*1942 TAP_TAPCELL_ROW_6_109
*1943 TAP_TAPCELL_ROW_6_110
*1944 TAP_TAPCELL_ROW_6_111
*1945 TAP_TAPCELL_ROW_6_112
*1946 TAP_TAPCELL_ROW_6_113
*1947 TAP_TAPCELL_ROW_7_114
*1948 TAP_TAPCELL_ROW_7_115
*1949 TAP_TAPCELL_ROW_7_116
*1950 TAP_TAPCELL_ROW_7_117
*1951 TAP_TAPCELL_ROW_8_118
*1952 TAP_TAPCELL_ROW_8_119
*1953 TAP_TAPCELL_ROW_8_120
*1954 TAP_TAPCELL_ROW_8_121
*1955 TAP_TAPCELL_ROW_8_122
*1956 TAP_TAPCELL_ROW_9_123
*1957 TAP_TAPCELL_ROW_9_124
*1958 TAP_TAPCELL_ROW_9_125
*1959 TAP_TAPCELL_ROW_9_126
*1960 _0450_
*1961 _0451_
*1962 _0452_
*1963 _0453_
*1964 _0454_
*1965 _0455_
*1966 _0456_
*1967 _0457_
*1968 _0458_
*1969 _0459_
*1970 _0460_
*1971 _0461_
*1972 _0462_
*1973 _0463_
*1974 _0464_
*1975 _0465_
*1976 _0466_
*1977 _0467_
*1978 _0468_
*1979 _0469_
*1980 _0470_
*1981 _0471_
*1982 _0472_
*1983 _0473_
*1984 _0474_
*1985 _0475_
*1986 _0476_
*1987 _0477_
*1988 _0478_
*1989 _0479_
*1990 _0480_
*1991 _0481_
*1992 _0482_
*1993 _0483_
*1994 _0484_
*1995 _0485_
*1996 _0486_
*1997 _0487_
*1998 _0488_
*1999 _0489_
*2000 _0490_
*2001 _0491_
*2002 _0492_
*2003 _0493_
*2004 _0494_
*2005 _0495_
*2006 _0496_
*2007 _0497_
*2008 _0498_
*2009 _0499_
*2010 _0500_
*2011 _0501_
*2012 _0502_
*2013 _0503_
*2014 _0504_
*2015 _0505_
*2016 _0506_
*2017 _0507_
*2018 _0508_
*2019 _0509_
*2020 _0510_
*2021 _0511_
*2022 _0512_
*2023 _0513_
*2024 _0514_
*2025 _0515_
*2026 _0516_
*2027 _0517_
*2028 _0518_
*2029 _0519_
*2030 _0520_
*2031 _0521_
*2032 _0522_
*2033 _0523_
*2034 _0524_
*2035 _0525_
*2036 _0526_
*2037 _0527_
*2038 _0528_
*2039 _0529_
*2040 _0530_
*2041 _0531_
*2042 _0532_
*2043 _0533_
*2044 _0534_
*2045 _0535_
*2046 _0536_
*2047 _0537_
*2048 _0538_
*2049 _0539_
*2050 _0540_
*2051 _0541_
*2052 _0542_
*2053 _0543_
*2054 _0544_
*2055 _0545_
*2056 _0546_
*2057 _0547_
*2058 _0548_
*2059 _0549_
*2060 _0550_
*2061 _0551_
*2062 _0552_
*2063 _0553_
*2064 _0554_
*2065 _0555_
*2066 _0556_
*2067 _0557_
*2068 _0558_
*2069 _0559_
*2070 _0560_
*2071 _0561_
*2072 _0562_
*2073 _0563_
*2074 _0564_
*2075 _0565_
*2076 _0566_
*2077 _0567_
*2078 _0568_
*2079 _0569_
*2080 _0570_
*2081 _0571_
*2082 _0572_
*2083 _0573_
*2084 _0574_
*2085 _0575_
*2086 _0576_
*2087 _0577_
*2088 _0578_
*2089 _0579_
*2090 _0580_
*2091 _0581_
*2092 _0582_
*2093 _0583_
*2094 _0584_
*2095 _0585_
*2096 _0586_
*2097 _0587_
*2098 _0588_
*2099 _0589_
*2100 _0590_
*2101 _0591_
*2102 _0592_
*2103 _0593_
*2104 _0594_
*2105 _0595_
*2106 _0596_
*2107 _0597_
*2108 _0598_
*2109 _0599_
*2110 _0600_
*2111 _0601_
*2112 _0602_
*2113 _0603_
*2114 _0604_
*2115 _0605_
*2116 _0606_
*2117 _0607_
*2118 _0608_
*2119 _0609_
*2120 _0610_
*2121 _0611_
*2122 _0612_
*2123 _0613_
*2124 _0614_
*2125 _0615_
*2126 _0616_
*2127 _0617_
*2128 _0618_
*2129 _0619_
*2130 _0620_
*2131 _0621_
*2132 _0622_
*2133 _0623_
*2134 _0624_
*2135 _0625_
*2136 _0626_
*2137 _0627_
*2138 _0628_
*2139 _0629_
*2140 _0630_
*2141 _0631_
*2142 _0632_
*2143 _0633_
*2144 _0634_
*2145 _0635_
*2146 _0636_
*2147 _0637_
*2148 _0638_
*2149 _0639_
*2150 _0640_
*2151 _0641_
*2152 _0642_
*2153 _0643_
*2154 _0644_
*2155 _0645_
*2156 _0646_
*2157 _0647_
*2158 _0648_
*2159 _0649_
*2160 _0650_
*2161 _0651_
*2162 _0652_
*2163 _0653_
*2164 _0654_
*2165 _0655_
*2166 _0656_
*2167 _0657_
*2168 _0658_
*2169 _0659_
*2170 _0660_
*2171 _0661_
*2172 _0662_
*2173 _0663_
*2174 _0664_
*2175 _0665_
*2176 _0666_
*2177 _0667_
*2178 _0668_
*2179 _0669_
*2180 _0670_
*2181 _0671_
*2182 _0672_
*2183 _0673_
*2184 _0674_
*2185 _0675_
*2186 _0676_
*2187 _0677_
*2188 _0678_
*2189 _0679_
*2190 _0680_
*2191 _0681_
*2192 _0682_
*2193 _0683_
*2194 _0684_
*2195 _0685_
*2196 _0686_
*2197 _0687_
*2198 _0688_
*2199 _0689_
*2200 _0690_
*2201 _0691_
*2202 _0692_
*2203 _0693_
*2204 _0694_
*2205 _0695_
*2206 _0696_
*2207 _0697_
*2208 _0698_
*2209 _0699_
*2210 _0700_
*2211 _0701_
*2212 _0702_
*2213 _0703_
*2214 _0704_
*2215 _0705_
*2216 _0706_
*2217 _0707_
*2218 _0708_
*2219 _0709_
*2220 _0710_
*2221 _0711_
*2222 _0712_
*2223 _0713_
*2224 _0714_
*2225 _0715_
*2226 _0716_
*2227 _0717_
*2228 _0718_
*2229 _0719_
*2230 _0720_
*2231 _0721_
*2232 _0722_
*2233 _0723_
*2234 _0724_
*2235 _0725_
*2236 _0726_
*2237 _0727_
*2238 _0728_
*2239 _0729_
*2240 _0730_
*2241 _0731_
*2242 _0732_
*2243 _0733_
*2244 _0734_
*2245 _0735_
*2246 _0736_
*2247 _0737_
*2248 _0738_
*2249 _0739_
*2250 _0740_
*2251 _0741_
*2252 _0742_
*2253 _0743_
*2254 _0744_
*2255 _0745_
*2256 _0746_
*2257 _0747_
*2258 _0748_
*2259 _0749_
*2260 _0750_
*2261 _0751_
*2262 _0752_
*2263 _0753_
*2264 _0754_
*2265 _0755_
*2266 _0756_
*2267 _0757_
*2268 _0758_
*2269 _0759_
*2270 _0760_
*2271 _0761_
*2272 _0762_
*2273 _0763_
*2274 _0764_
*2275 _0765_
*2276 _0766_
*2277 _0767_
*2278 _0768_
*2279 _0769_
*2280 _0770_
*2281 _0771_
*2282 _0772_
*2283 _0773_
*2284 _0774_
*2285 _0775_
*2286 _0776_
*2287 _0777_
*2288 _0778_
*2289 _0779_
*2290 _0780_
*2291 _0781_
*2292 _0782_
*2293 _0783_
*2294 _0784_
*2295 _0785_
*2296 _0786_
*2297 _0787_
*2298 _0788_
*2299 _0789_
*2300 _0790_
*2301 _0791_
*2302 _0792_
*2303 _0793_
*2304 _0794_
*2305 _0795_
*2306 _0796_
*2307 _0797_
*2308 _0798_
*2309 _0799_
*2310 _0800_
*2311 _0801_
*2312 _0802_
*2313 _0803_
*2314 _0804_
*2315 _0805_
*2316 _0806_
*2317 _0807_
*2318 _0808_
*2319 _0809_
*2320 _0810_
*2321 _0811_
*2322 _0812_
*2323 _0813_
*2324 _0814_
*2325 _0815_
*2326 _0816_
*2327 _0817_
*2328 _0818_
*2329 _0819_
*2330 _0820_
*2331 _0821_
*2332 _0822_
*2333 _0823_
*2334 _0824_
*2335 _0825_
*2336 _0826_
*2337 _0827_
*2338 _0828_
*2339 _0829_
*2340 _0830_
*2341 _0831_
*2342 _0832_
*2343 _0833_
*2344 _0834_
*2345 _0835_
*2346 _0836_
*2347 _0837_
*2348 _0838_
*2349 _0839_
*2350 _0840_
*2351 _0841_
*2352 _0842_
*2353 _0843_
*2354 _0844_
*2355 _0845_
*2356 _0846_
*2357 _0847_
*2358 _0848_
*2359 _0849_
*2360 _0850_
*2361 _0851_
*2362 _0852_
*2363 _0853_
*2364 _0854_
*2365 _0855_
*2366 _0856_
*2367 _0857_
*2368 _0858_
*2369 _0859_
*2370 _0860_
*2371 _0861_
*2372 _0862_
*2373 _0863_
*2374 _0864_
*2375 _0865_
*2376 _0866_
*2377 _0867_
*2378 _0868_
*2379 _0869_
*2380 _0870_
*2381 _0871_
*2382 _0872_
*2383 _0873_
*2384 _0874_
*2385 _0875_
*2386 _0876_
*2387 _0877_
*2388 _0878_
*2389 _0879_
*2390 _0880_
*2391 _0881_
*2392 _0882_
*2393 _0883_
*2394 _0884_
*2395 _0885_
*2396 _0886_
*2397 _0887_
*2398 _0888_
*2399 _0889_
*2400 _0890_
*2401 _0891_
*2402 _0892_
*2403 _0893_
*2404 _0894_
*2405 _0895_
*2406 _0896_
*2407 _0897_
*2408 _0898_
*2409 _0899_
*2410 _0900_
*2411 _0901_
*2412 _0902_
*2413 _0903_
*2414 _0904_
*2415 _0905_
*2416 _0906_
*2417 _0907_
*2418 _0908_
*2419 _0909_
*2420 _0910_
*2421 _0911_
*2422 _0912_
*2423 _0913_
*2424 _0914_
*2425 _0915_
*2426 _0916_
*2427 _0917_
*2428 _0918_
*2429 _0919_
*2430 _0920_
*2431 _0921_
*2432 _0922_
*2433 _0923_
*2434 _0924_
*2435 _0925_
*2436 _0926_
*2437 _0927_
*2438 _0928_
*2439 _0929_
*2440 _0930_
*2441 _0931_
*2442 _0932_
*2443 _0933_
*2444 _0934_
*2445 _0935_
*2446 _0936_
*2447 _0937_
*2448 _0938_
*2449 _0939_
*2450 _0940_
*2451 _0941_
*2452 _0942_
*2453 _0943_
*2454 _0944_
*2455 _0945_
*2456 _0946_
*2457 _0947_
*2458 _0948_
*2459 _0949_
*2460 _0950_
*2461 _0951_
*2462 _0952_
*2463 _0953_
*2464 _0954_
*2465 _0955_
*2466 _0956_
*2467 _0957_
*2468 _0958_
*2469 _0959_
*2470 _0960_
*2471 _0961_
*2472 _0962_
*2473 _0963_
*2474 _0964_
*2475 _0965_
*2476 _0966_
*2477 _0967_
*2478 _0968_
*2479 _0969_
*2480 _0970_
*2481 _0971_
*2482 _0972_
*2483 _0973_
*2484 _0974_
*2485 _0975_
*2486 _0976_
*2487 _0977_
*2488 _0978_
*2489 _0979_
*2490 _0980_
*2491 _0981_
*2492 _0982_
*2493 _0983_
*2494 _0984_
*2495 _0985_
*2496 _0986_
*2497 _0987_
*2498 _0988_
*2499 _0989_
*2500 _0990_
*2501 _0991_
*2502 _0992_
*2503 _0993_
*2504 _0994_
*2505 _0995_
*2506 _0996_
*2507 _0997_
*2508 _0998_
*2509 _0999_
*2510 _1000_
*2511 _1001_
*2512 _1002_
*2513 _1003_
*2514 _1004_
*2515 _1005_
*2516 _1006_
*2517 _1007_
*2518 _1008_
*2519 _1009_
*2520 _1010_
*2521 _1011_
*2522 _1012_
*2523 _1013_
*2524 _1014_
*2525 _1015_
*2526 _1016_
*2527 _1017_
*2528 _1018_
*2529 _1019_
*2530 _1020_
*2531 _1021_
*2532 _1022_
*2533 _1023_
*2534 _1024_
*2535 _1025_
*2536 _1026_
*2537 _1027_
*2538 _1028_
*2539 _1029_
*2540 _1030_
*2541 _1031_
*2542 _1032_
*2543 _1033_
*2544 _1034_
*2545 _1035_
*2546 _1036_
*2547 _1037_
*2548 _1038_
*2549 _1039_
*2550 _1040_
*2551 _1041_
*2552 _1042_
*2553 _1109_
*2554 _1110_
*2555 clkbuf_0_clk
*2556 clkbuf_3_0__f_clk
*2557 clkbuf_3_1__f_clk
*2558 clkbuf_3_2__f_clk
*2559 clkbuf_3_3__f_clk
*2560 clkbuf_3_4__f_clk
*2561 clkbuf_3_5__f_clk
*2562 clkbuf_3_6__f_clk
*2563 clkbuf_3_7__f_clk
*2564 clkload0
*2565 clkload1
*2566 clkload2
*2567 clkload3
*2568 clkload4
*2569 clkload5
*2570 clkload6
*2571 fanout20
*2572 fanout21
*2573 fanout22
*2574 fanout23
*2575 fanout24
*2576 fanout25
*2577 fanout26
*2578 fanout27
*2579 fanout28
*2580 fanout29
*2581 fanout30
*2582 fanout31
*2583 fanout32
*2584 fanout33
*2585 fanout34
*2586 fanout35
*2587 fanout36
*2588 fanout37
*2589 fanout38
*2590 fanout39
*2591 hold1
*2592 hold10
*2593 hold11
*2594 hold12
*2595 hold13
*2596 hold14
*2597 hold15
*2598 hold2
*2599 hold3
*2600 hold4
*2601 hold5
*2602 hold6
*2603 hold7
*2604 hold8
*2605 hold9
*2606 input1
*2607 input10
*2608 input11
*2609 input12
*2610 input13
*2611 input14
*2612 input15
*2613 input16
*2614 input17
*2615 input2
*2616 input3
*2617 input4
*2618 input5
*2619 input6
*2620 input7
*2621 input8
*2622 input9
*2623 output18
*2624 output19
*2625 team_07_100
*2626 team_07_101
*2627 team_07_102
*2628 team_07_103
*2629 team_07_104
*2630 team_07_105
*2631 team_07_40
*2632 team_07_41
*2633 team_07_42
*2634 team_07_43
*2635 team_07_44
*2636 team_07_45
*2637 team_07_46
*2638 team_07_47
*2639 team_07_48
*2640 team_07_49
*2641 team_07_50
*2642 team_07_51
*2643 team_07_52
*2644 team_07_53
*2645 team_07_54
*2646 team_07_55
*2647 team_07_56
*2648 team_07_57
*2649 team_07_58
*2650 team_07_59
*2651 team_07_60
*2652 team_07_61
*2653 team_07_62
*2654 team_07_63
*2655 team_07_64
*2656 team_07_65
*2657 team_07_66
*2658 team_07_67
*2659 team_07_68
*2660 team_07_69
*2661 team_07_70
*2662 team_07_71
*2663 team_07_72
*2664 team_07_73
*2665 team_07_74
*2666 team_07_75
*2667 team_07_76
*2668 team_07_77
*2669 team_07_78
*2670 team_07_79
*2671 team_07_80
*2672 team_07_81
*2673 team_07_82
*2674 team_07_83
*2675 team_07_84
*2676 team_07_85
*2677 team_07_86
*2678 team_07_87
*2679 team_07_88
*2680 team_07_89
*2681 team_07_90
*2682 team_07_91
*2683 team_07_92
*2684 team_07_93
*2685 team_07_94
*2686 team_07_95
*2687 team_07_96
*2688 team_07_97
*2689 team_07_98
*2690 team_07_99

*PORTS
clk I
en I
gpio_in[0] I
gpio_in[10] I
gpio_in[11] I
gpio_in[12] I
gpio_in[13] I
gpio_in[14] I
gpio_in[15] I
gpio_in[16] I
gpio_in[17] I
gpio_in[18] I
gpio_in[19] I
gpio_in[1] I
gpio_in[20] I
gpio_in[21] I
gpio_in[22] I
gpio_in[23] I
gpio_in[24] I
gpio_in[25] I
gpio_in[26] I
gpio_in[27] I
gpio_in[28] I
gpio_in[29] I
gpio_in[2] I
gpio_in[30] I
gpio_in[31] I
gpio_in[32] I
gpio_in[33] I
gpio_in[3] I
gpio_in[4] I
gpio_in[5] I
gpio_in[6] I
gpio_in[7] I
gpio_in[8] I
gpio_in[9] I
gpio_oeb[0] O
gpio_oeb[10] O
gpio_oeb[11] O
gpio_oeb[12] O
gpio_oeb[13] O
gpio_oeb[14] O
gpio_oeb[15] O
gpio_oeb[16] O
gpio_oeb[17] O
gpio_oeb[18] O
gpio_oeb[19] O
gpio_oeb[1] O
gpio_oeb[20] O
gpio_oeb[21] O
gpio_oeb[22] O
gpio_oeb[23] O
gpio_oeb[24] O
gpio_oeb[25] O
gpio_oeb[26] O
gpio_oeb[27] O
gpio_oeb[28] O
gpio_oeb[29] O
gpio_oeb[2] O
gpio_oeb[30] O
gpio_oeb[31] O
gpio_oeb[32] O
gpio_oeb[33] O
gpio_oeb[3] O
gpio_oeb[4] O
gpio_oeb[5] O
gpio_oeb[6] O
gpio_oeb[7] O
gpio_oeb[8] O
gpio_oeb[9] O
gpio_out[0] O
gpio_out[10] O
gpio_out[11] O
gpio_out[12] O
gpio_out[13] O
gpio_out[14] O
gpio_out[15] O
gpio_out[16] O
gpio_out[17] O
gpio_out[18] O
gpio_out[19] O
gpio_out[1] O
gpio_out[20] O
gpio_out[21] O
gpio_out[22] O
gpio_out[23] O
gpio_out[24] O
gpio_out[25] O
gpio_out[26] O
gpio_out[27] O
gpio_out[28] O
gpio_out[29] O
gpio_out[2] O
gpio_out[30] O
gpio_out[31] O
gpio_out[32] O
gpio_out[33] O
gpio_out[3] O
gpio_out[4] O
gpio_out[5] O
gpio_out[6] O
gpio_out[7] O
gpio_out[8] O
gpio_out[9] O
nrst I

*D_NET *1 0.0155838
*CONN
*P clk I
*I *2555:A I *D sky130_fd_sc_hd__clkbuf_16
*I *802:DIODE I *D sky130_fd_sc_hd__diode_2
*CAP
1 clk 0.0017418
2 *2555:A 4.4332e-05
3 *802:DIODE 0.000215842
4 *1:15 0.00481196
5 *1:11 0.00629359
6 *802:DIODE *579:27 0.000120285
7 *802:DIODE *692:10 0
8 *802:DIODE *701:122 0.000136738
9 *2555:A *302:10 0
10 *2555:A *579:27 4.73716e-05
11 *1:11 gpio_oeb[10] 6.46017e-05
12 *1:11 gpio_oeb[5] 2.11157e-05
13 *1:11 *2540:CLK 7.90939e-05
14 *1:11 *3:13 7.5366e-05
15 *1:11 *14:13 0.000153173
16 *1:11 *303:10 0
17 *1:11 *704:27 0
18 *1:11 *704:33 0.000205765
19 *1:11 *704:62 0
20 *1:11 *704:73 0
21 *1:11 *704:84 0
22 *1:11 *704:95 0
23 *1:11 *704:108 0
24 *1:11 *704:119 0
25 *1:15 *112:90 0
26 *1:15 *351:32 0.000263606
27 *1:15 *639:12 0
28 *1:15 *650:29 0.00081996
29 *1:15 *697:24 0.000229931
30 *1:15 *700:12 0.000100139
31 *1:15 *739:23 0.00015916
*RES
1 clk *1:11 49.9184 
2 *1:11 *1:15 18.7893 
3 *1:15 *802:DIODE 41.3039 
4 *1:15 *2555:A 38.6732 
*END

*D_NET *3 0.000825481
*CONN
*P gpio_in[0] I
*I *831:DIODE I *D sky130_fd_sc_hd__diode_2
*I *2606:A I *D sky130_fd_sc_hd__clkbuf_1
*CAP
1 gpio_in[0] 0.000249957
2 *831:DIODE 6.67631e-05
3 *2606:A 0
4 *3:13 0.00031672
5 *831:DIODE *710:12 5.67058e-05
6 *3:13 *14:13 5.99691e-05
7 *1:11 *3:13 7.5366e-05
*RES
1 gpio_in[0] *3:13 25.7093 
2 *3:13 *2606:A 23 
3 *3:13 *831:DIODE 24.5743 
*END

*D_NET *4 0.00146031
*CONN
*P gpio_in[10] I
*I *832:DIODE I *D sky130_fd_sc_hd__diode_2
*I *2615:A I *D sky130_fd_sc_hd__clkbuf_2
*CAP
1 gpio_in[10] 0.000594852
2 *832:DIODE 7.85527e-05
3 *2615:A 5.67488e-05
4 *4:9 0.000730153
5 *4:9 *6:9 0
6 *4:9 *36:5 0
*RES
1 gpio_in[10] *4:9 26.6829 
2 *4:9 *2615:A 24.2014 
3 *4:9 *832:DIODE 24.0979 
*END

*D_NET *5 0.00201313
*CONN
*P gpio_in[11] I
*I *833:DIODE I *D sky130_fd_sc_hd__diode_2
*I *2616:A I *D sky130_fd_sc_hd__clkbuf_2
*CAP
1 gpio_in[11] 0.000638716
2 *833:DIODE 0.000158735
3 *2616:A 0
4 *5:9 0.000797452
5 *833:DIODE *826:DIODE 0.000143655
6 *833:DIODE *34:9 0.00014196
7 *5:9 *828:DIODE 0
8 *5:9 *34:9 0
9 *5:9 *36:5 0
10 *5:9 *732:8 4.21594e-06
11 *5:9 *747:12 0.000128401
*RES
1 gpio_in[11] *5:9 29.1686 
2 *5:9 *2616:A 23 
3 *5:9 *833:DIODE 26.9771 
*END

*D_NET *6 0.00145568
*CONN
*P gpio_in[12] I
*I *834:DIODE I *D sky130_fd_sc_hd__diode_2
*I *2617:A I *D sky130_fd_sc_hd__clkbuf_2
*CAP
1 gpio_in[12] 0.000573083
2 *834:DIODE 8.29281e-05
3 *2617:A 0
4 *6:9 0.000656011
5 *6:9 *33:9 0
6 *6:9 *760:8 0.000143655
7 *4:9 *6:9 0
*RES
1 gpio_in[12] *6:9 27.7393 
2 *6:9 *2617:A 23 
3 *6:9 *834:DIODE 24.5743 
*END

*D_NET *7 0.00128631
*CONN
*P gpio_in[13] I
*I *835:DIODE I *D sky130_fd_sc_hd__diode_2
*I *2618:A I *D sky130_fd_sc_hd__clkbuf_2
*CAP
1 gpio_in[13] 0.000459809
2 *835:DIODE 0
3 *2618:A 8.40141e-05
4 *7:5 0.000543823
5 *2618:A *2612:A 0
6 *2618:A *2619:A 0
7 *2618:A *8:5 0
8 *2618:A *731:10 9.84851e-05
9 *2618:A *760:8 0.00010018
10 *7:5 *2612:A 0
11 *7:5 *8:5 0
12 *7:5 *35:5 0
*RES
1 gpio_in[13] *7:5 10.1086 
2 *7:5 *2618:A 40.2993 
3 *7:5 *835:DIODE 38 
*END

*D_NET *8 0.0011845
*CONN
*P gpio_in[14] I
*I *837:DIODE I *D sky130_fd_sc_hd__diode_2
*I *2619:A I *D sky130_fd_sc_hd__clkbuf_2
*CAP
1 gpio_in[14] 0.000459809
2 *837:DIODE 0
3 *2619:A 0.000126449
4 *8:5 0.000586258
5 *2619:A *2609:A 0
6 *2619:A *32:5 0
7 *2619:A *731:10 1.19796e-05
8 *8:5 *32:5 0
9 *2618:A *2619:A 0
10 *2618:A *8:5 0
11 *7:5 *8:5 0
*RES
1 gpio_in[14] *8:5 10.1086 
2 *8:5 *2619:A 40.2993 
3 *8:5 *837:DIODE 38 
*END

*D_NET *9 0.00122255
*CONN
*P gpio_in[15] I
*I *838:DIODE I *D sky130_fd_sc_hd__diode_2
*I *2620:A I *D sky130_fd_sc_hd__clkbuf_2
*CAP
1 gpio_in[15] 0.000459809
2 *838:DIODE 0
3 *2620:A 0.000101375
4 *9:5 0.000561184
5 *2620:A *2622:A 0
6 *2620:A *25:5 0
7 *2620:A *33:9 0
8 *2620:A *760:8 0.00010018
9 *9:5 *25:5 0
10 *9:5 *33:9 0
*RES
1 gpio_in[15] *9:5 10.1086 
2 *9:5 *2620:A 40.2993 
3 *9:5 *838:DIODE 38 
*END

*D_NET *14 0.00102719
*CONN
*P gpio_in[1] I
*I *840:DIODE I *D sky130_fd_sc_hd__diode_2
*I *2621:A I *D sky130_fd_sc_hd__buf_1
*CAP
1 gpio_in[1] 0.000310453
2 *840:DIODE 6.82162e-05
3 *2621:A 0
4 *14:13 0.000378669
5 *840:DIODE *2540:CLK 5.67058e-05
6 *14:13 gpio_oeb[5] 0
7 *1:11 *14:13 0.000153173
8 *3:13 *14:13 5.99691e-05
*RES
1 gpio_in[1] *14:13 26.7658 
2 *14:13 *2621:A 23 
3 *14:13 *840:DIODE 24.5743 
*END

*D_NET *25 0.00114971
*CONN
*P gpio_in[2] I
*I *841:DIODE I *D sky130_fd_sc_hd__diode_2
*I *2622:A I *D sky130_fd_sc_hd__buf_1
*CAP
1 gpio_in[2] 0.000459809
2 *841:DIODE 0
3 *2622:A 8.66926e-05
4 *25:5 0.000546501
5 *2622:A *2608:A 0
6 *2622:A *31:5 0
7 *2622:A *760:8 5.67058e-05
8 *25:5 *31:5 0
9 *2620:A *2622:A 0
10 *2620:A *25:5 0
11 *9:5 *25:5 0
*RES
1 gpio_in[2] *25:5 10.1086 
2 *25:5 *2622:A 39.8229 
3 *25:5 *841:DIODE 38 
*END

*D_NET *30 0.0012774
*CONN
*P gpio_in[3] I
*I *822:DIODE I *D sky130_fd_sc_hd__diode_2
*I *2607:A I *D sky130_fd_sc_hd__buf_1
*CAP
1 gpio_in[3] 0.000462984
2 *822:DIODE 0
3 *2607:A 0.000120124
4 *30:5 0.000583109
5 *2607:A *2609:A 0
6 *2607:A *711:8 3.22879e-05
7 *2607:A *727:10 7.88926e-05
8 *30:5 *2609:A 0
9 *30:5 *32:5 0
*RES
1 gpio_in[3] *30:5 10.1086 
2 *30:5 *2607:A 40.7757 
3 *30:5 *822:DIODE 38 
*END

*D_NET *31 0.00123266
*CONN
*P gpio_in[4] I
*I *823:DIODE I *D sky130_fd_sc_hd__diode_2
*I *2608:A I *D sky130_fd_sc_hd__clkbuf_2
*CAP
1 gpio_in[4] 0.000459809
2 *823:DIODE 0
3 *2608:A 0.00010643
4 *31:5 0.000566239
5 *2608:A *2612:A 0
6 *2608:A *35:5 0
7 *2608:A *760:8 0.00010018
8 *31:5 *35:5 0
9 *2622:A *2608:A 0
10 *2622:A *31:5 0
11 *25:5 *31:5 0
*RES
1 gpio_in[4] *31:5 10.1086 
2 *31:5 *2608:A 40.2993 
3 *31:5 *823:DIODE 38 
*END

*D_NET *32 0.00125397
*CONN
*P gpio_in[5] I
*I *824:DIODE I *D sky130_fd_sc_hd__diode_2
*I *2609:A I *D sky130_fd_sc_hd__buf_1
*CAP
1 gpio_in[5] 0.000459809
2 *824:DIODE 0
3 *2609:A 0.000152485
4 *32:5 0.000612293
5 *2609:A *727:10 2.93845e-05
6 *2607:A *2609:A 0
7 *2619:A *2609:A 0
8 *2619:A *32:5 0
9 *8:5 *32:5 0
10 *30:5 *2609:A 0
11 *30:5 *32:5 0
*RES
1 gpio_in[5] *32:5 10.1086 
2 *32:5 *2609:A 40.7757 
3 *32:5 *824:DIODE 38 
*END

*D_NET *33 0.00146067
*CONN
*P gpio_in[6] I
*I *825:DIODE I *D sky130_fd_sc_hd__diode_2
*I *2610:A I *D sky130_fd_sc_hd__clkbuf_2
*CAP
1 gpio_in[6] 0.000571378
2 *825:DIODE 6.69485e-05
3 *2610:A 5.67488e-05
4 *33:9 0.000695076
5 *825:DIODE *760:8 2.65879e-05
6 *33:9 *760:8 4.39278e-05
7 *2620:A *33:9 0
8 *6:9 *33:9 0
9 *9:5 *33:9 0
*RES
1 gpio_in[6] *33:9 26.6829 
2 *33:9 *2610:A 24.2014 
3 *33:9 *825:DIODE 24.0979 
*END

*D_NET *34 0.00165762
*CONN
*P gpio_in[7] I
*I *826:DIODE I *D sky130_fd_sc_hd__diode_2
*I *2611:A I *D sky130_fd_sc_hd__clkbuf_2
*CAP
1 gpio_in[7] 0.000585515
2 *826:DIODE 0.000100488
3 *2611:A 0
4 *34:9 0.000686003
5 *833:DIODE *826:DIODE 0.000143655
6 *833:DIODE *34:9 0.00014196
7 *5:9 *34:9 0
*RES
1 gpio_in[7] *34:9 27.7393 
2 *34:9 *2611:A 23 
3 *34:9 *826:DIODE 25.5271 
*END

*D_NET *35 0.00129639
*CONN
*P gpio_in[8] I
*I *827:DIODE I *D sky130_fd_sc_hd__diode_2
*I *2612:A I *D sky130_fd_sc_hd__clkbuf_2
*CAP
1 gpio_in[8] 0.000459809
2 *827:DIODE 0
3 *2612:A 8.90541e-05
4 *35:5 0.000548863
5 *2612:A *731:10 9.84851e-05
6 *2612:A *760:8 0.00010018
7 *2608:A *2612:A 0
8 *2608:A *35:5 0
9 *2618:A *2612:A 0
10 *7:5 *2612:A 0
11 *7:5 *35:5 0
12 *31:5 *35:5 0
*RES
1 gpio_in[8] *35:5 10.1086 
2 *35:5 *2612:A 40.2993 
3 *35:5 *827:DIODE 38 
*END

*D_NET *36 0.00135346
*CONN
*P gpio_in[9] I
*I *2613:A I *D sky130_fd_sc_hd__dlymetal6s2s_1
*I *828:DIODE I *D sky130_fd_sc_hd__diode_2
*CAP
1 gpio_in[9] 0.00050451
2 *2613:A 4.24211e-05
3 *828:DIODE 0.000129797
4 *36:5 0.000676728
5 *828:DIODE *732:8 0
6 *828:DIODE *732:12 0
7 *828:DIODE *736:8 0
8 *4:9 *36:5 0
9 *5:9 *828:DIODE 0
10 *5:9 *36:5 0
*RES
1 gpio_in[9] *36:5 10.8129 
2 *36:5 *828:DIODE 40.2579 
3 *36:5 *2613:A 38.6214 
*END

*D_NET *37 0.000915268
*CONN
*P gpio_oeb[0] O
*I *2631:LO O *D sky130_fd_sc_hd__conb_1
*CAP
1 gpio_oeb[0] 0.000337884
2 *2631:LO 0.000337884
3 gpio_oeb[0] gpio_out[27] 0.000105644
4 gpio_oeb[0] gpio_out[8] 0.000114277
5 gpio_oeb[0] *753:22 1.95789e-05
*RES
1 *2631:LO gpio_oeb[0] 48.2984 
*END

*D_NET *38 0.000785411
*CONN
*P gpio_oeb[10] O
*I *2641:LO O *D sky130_fd_sc_hd__conb_1
*CAP
1 gpio_oeb[10] 0.000151174
2 *2641:LO 0.000198608
3 *38:12 0.000349782
4 gpio_oeb[10] gpio_oeb[27] 2.12457e-05
5 *38:12 *704:119 0
6 *1:11 gpio_oeb[10] 6.46017e-05
*RES
1 *2641:LO *38:12 49.4075 
2 *38:12 gpio_oeb[10] 0.672 
*END

*D_NET *39 0.000632556
*CONN
*P gpio_oeb[11] O
*I *2642:LO O *D sky130_fd_sc_hd__conb_1
*CAP
1 gpio_oeb[11] 0.000238035
2 *2642:LO 0.000238035
3 gpio_oeb[11] gpio_oeb[15] 7.82427e-05
4 gpio_oeb[11] gpio_oeb[4] 7.82427e-05
*RES
1 *2642:LO gpio_oeb[11] 48.4875 
*END

*D_NET *40 0.00102879
*CONN
*P gpio_oeb[12] O
*I *2643:LO O *D sky130_fd_sc_hd__conb_1
*CAP
1 gpio_oeb[12] 0.000342457
2 *2643:LO 0.000342457
3 gpio_oeb[12] gpio_oeb[29] 0
4 gpio_oeb[12] gpio_out[29] 0.000135417
5 gpio_oeb[12] gpio_out[32] 7.82427e-05
6 gpio_oeb[12] *757:130 0.000130212
*RES
1 *2643:LO gpio_oeb[12] 49.0027 
*END

*D_NET *41 0.000901682
*CONN
*P gpio_oeb[13] O
*I *2644:LO O *D sky130_fd_sc_hd__conb_1
*CAP
1 gpio_oeb[13] 0.000450841
2 *2644:LO 0.000450841
3 gpio_oeb[13] gpio_oeb[28] 0
*RES
1 *2644:LO gpio_oeb[13] 47.3214 
*END

*D_NET *42 0.00107218
*CONN
*P gpio_oeb[14] O
*I *2645:LO O *D sky130_fd_sc_hd__conb_1
*CAP
1 gpio_oeb[14] 0.000122465
2 *2645:LO 0.00019574
3 *42:10 0.000318204
4 gpio_oeb[14] gpio_out[14] 4.17018e-05
5 gpio_oeb[14] gpio_out[4] 5.99691e-05
6 *42:10 *76:10 9.75779e-05
7 *42:10 *99:10 0.000236524
*RES
1 *2645:LO *42:10 42.2361 
2 *42:10 gpio_oeb[14] 8.58613 
*END

*D_NET *43 0.000471646
*CONN
*P gpio_oeb[15] O
*I *2646:LO O *D sky130_fd_sc_hd__conb_1
*CAP
1 gpio_oeb[15] 0.000160714
2 *2646:LO 0.000160714
3 gpio_oeb[15] gpio_oeb[9] 7.19757e-05
4 gpio_oeb[11] gpio_oeb[15] 7.82427e-05
*RES
1 *2646:LO gpio_oeb[15] 47.0789 
*END

*D_NET *44 0.000858133
*CONN
*P gpio_oeb[16] O
*I *2628:HI O *D sky130_fd_sc_hd__conb_1
*CAP
1 gpio_oeb[16] 0.000429066
2 *2628:HI 0.000429066
3 gpio_oeb[16] gpio_oeb[30] 0
*RES
1 *2628:HI gpio_oeb[16] 46.6171 
*END

*D_NET *45 0.00126957
*CONN
*P gpio_oeb[17] O
*I *2629:HI O *D sky130_fd_sc_hd__conb_1
*CAP
1 gpio_oeb[17] 0.00049679
2 *2629:HI 0.00049679
3 gpio_oeb[17] gpio_oeb[24] 7.82427e-05
4 gpio_oeb[17] gpio_out[0] 0
5 gpio_oeb[17] gpio_out[12] 7.89944e-05
6 gpio_oeb[17] *246:31 8.02925e-05
7 gpio_oeb[17] *757:106 3.84556e-05
*RES
1 *2629:HI gpio_oeb[17] 48.6419 
*END

*D_NET *46 0.00212153
*CONN
*P gpio_oeb[18] O
*I *2630:HI O *D sky130_fd_sc_hd__conb_1
*CAP
1 gpio_oeb[18] 0.000493446
2 *2630:HI 0.000167693
3 *46:8 0.000661139
4 gpio_oeb[18] gpio_out[21] 0.000656435
5 gpio_oeb[18] *49:10 2.33476e-05
6 *46:8 *49:10 0.000119467
*RES
1 *2630:HI *46:8 40.5271 
2 *46:8 gpio_oeb[18] 19.9182 
*END

*D_NET *47 0.000747769
*CONN
*P gpio_oeb[19] O
*I *2647:LO O *D sky130_fd_sc_hd__conb_1
*CAP
1 gpio_oeb[19] 0.000347587
2 *2647:LO 0.000347587
3 gpio_oeb[19] gpio_out[9] 2.0307e-05
4 gpio_oeb[19] *104:10 3.22879e-05
5 gpio_oeb[19] *260:10 0
*RES
1 *2647:LO gpio_oeb[19] 49.7274 
*END

*D_NET *48 0.00244925
*CONN
*P gpio_oeb[1] O
*I *2632:LO O *D sky130_fd_sc_hd__conb_1
*CAP
1 gpio_oeb[1] 0.000726234
2 *2632:LO 0
3 *48:6 0.000726234
4 gpio_oeb[1] gpio_out[19] 0.000916846
5 gpio_oeb[1] *100:10 7.99416e-05
*RES
1 *2632:LO *48:6 38 
2 *48:6 gpio_oeb[1] 22.9756 
*END

*D_NET *49 0.0011925
*CONN
*P gpio_oeb[20] O
*I *2648:LO O *D sky130_fd_sc_hd__conb_1
*CAP
1 gpio_oeb[20] 0.000128046
2 *2648:LO 0.000203427
3 *49:10 0.000331473
4 gpio_oeb[20] gpio_out[20] 2.61329e-05
5 gpio_oeb[20] gpio_out[24] 2.12457e-05
6 *49:10 gpio_out[20] 0
7 *49:10 gpio_out[21] 2.61141e-05
8 *49:10 *84:8 0.000313249
9 gpio_oeb[18] *49:10 2.33476e-05
10 *46:8 *49:10 0.000119467
*RES
1 *2648:LO *49:10 43.4582 
2 *49:10 gpio_oeb[20] 8.4816 
*END

*D_NET *50 0.000471646
*CONN
*P gpio_oeb[21] O
*I *2649:LO O *D sky130_fd_sc_hd__conb_1
*CAP
1 gpio_oeb[21] 0.000160714
2 *2649:LO 0.000160714
3 gpio_oeb[21] gpio_out[30] 7.19757e-05
4 gpio_oeb[21] gpio_out[3] 7.82427e-05
*RES
1 *2649:LO gpio_oeb[21] 47.0789 
*END

*D_NET *51 0.0018063
*CONN
*P gpio_oeb[22] O
*I *2650:LO O *D sky130_fd_sc_hd__conb_1
*CAP
1 gpio_oeb[22] 0.0002463
2 *2650:LO 0.000504381
3 *51:8 0.000750681
4 gpio_oeb[22] gpio_oeb[32] 0.000132544
5 gpio_oeb[22] *105:11 7.82427e-05
6 *51:8 *62:8 0
7 *51:8 *68:10 9.41483e-05
8 *51:8 *105:11 0
9 *51:8 *733:10 0
*RES
1 *2650:LO *51:8 48.8854 
2 *51:8 gpio_oeb[22] 9.27307 
*END

*D_NET *52 0.00082995
*CONN
*P gpio_oeb[23] O
*I *2651:LO O *D sky130_fd_sc_hd__conb_1
*CAP
1 gpio_oeb[23] 0.00033436
2 *2651:LO 0.00033436
3 gpio_oeb[23] gpio_out[18] 8.06147e-05
4 gpio_oeb[23] gpio_out[25] 8.06147e-05
5 gpio_oeb[23] gpio_out[2] 0
6 gpio_oeb[23] gpio_out[30] 0
7 gpio_oeb[23] *737:122 0
*RES
1 *2651:LO gpio_oeb[23] 49.4494 
*END

*D_NET *53 0.000515925
*CONN
*P gpio_oeb[24] O
*I *2652:LO O *D sky130_fd_sc_hd__conb_1
*CAP
1 gpio_oeb[24] 0.000178534
2 *2652:LO 0.000178534
3 gpio_oeb[24] gpio_out[0] 8.06147e-05
4 gpio_oeb[24] *757:106 0
5 gpio_oeb[17] gpio_oeb[24] 7.82427e-05
*RES
1 *2652:LO gpio_oeb[24] 47.7832 
*END

*D_NET *54 0.000696563
*CONN
*P gpio_oeb[25] O
*I *2653:LO O *D sky130_fd_sc_hd__conb_1
*CAP
1 gpio_oeb[25] 9.46544e-05
2 *2653:LO 0.000226846
3 *54:10 0.0003215
4 gpio_oeb[25] gpio_oeb[6] 2.12457e-05
5 gpio_oeb[25] gpio_out[9] 3.23168e-05
6 *54:10 *67:10 0
7 *54:10 *104:10 0
*RES
1 *2653:LO *54:10 42.0289 
2 *54:10 gpio_oeb[25] 8.4816 
*END

*D_NET *55 0.000604909
*CONN
*P gpio_oeb[26] O
*I *2654:LO O *D sky130_fd_sc_hd__conb_1
*CAP
1 gpio_oeb[26] 0.000212459
2 *2654:LO 0.000212459
3 gpio_oeb[26] gpio_oeb[2] 0.000108016
4 gpio_oeb[26] gpio_oeb[7] 0
5 gpio_oeb[26] gpio_out[1] 7.19757e-05
6 gpio_oeb[26] *733:25 0
*RES
1 *2654:LO gpio_oeb[26] 47.3365 
*END

*D_NET *56 0.000734448
*CONN
*P gpio_oeb[27] O
*I *2655:LO O *D sky130_fd_sc_hd__conb_1
*CAP
1 gpio_oeb[27] 8.9331e-05
2 *2655:LO 0.000252826
3 *56:10 0.000342157
4 gpio_oeb[27] gpio_out[23] 2.88889e-05
5 *56:10 gpio_out[23] 0
6 *56:10 *186:10 0
7 gpio_oeb[10] gpio_oeb[27] 2.12457e-05
*RES
1 *2655:LO *56:10 42.7332 
2 *56:10 gpio_oeb[27] 8.4816 
*END

*D_NET *57 0.000901682
*CONN
*P gpio_oeb[28] O
*I *2656:LO O *D sky130_fd_sc_hd__conb_1
*CAP
1 gpio_oeb[28] 0.000450841
2 *2656:LO 0.000450841
3 gpio_oeb[28] gpio_oeb[30] 0
4 gpio_oeb[13] gpio_oeb[28] 0
*RES
1 *2656:LO gpio_oeb[28] 47.3214 
*END

*D_NET *58 0.000775628
*CONN
*P gpio_oeb[29] O
*I *2657:LO O *D sky130_fd_sc_hd__conb_1
*CAP
1 gpio_oeb[29] 0.000311519
2 *2657:LO 0.000311519
3 gpio_oeb[29] gpio_out[15] 0
4 gpio_oeb[29] gpio_out[28] 8.06147e-05
5 gpio_oeb[29] gpio_out[32] 7.19757e-05
6 gpio_oeb[29] *757:130 0
7 gpio_oeb[12] gpio_oeb[29] 0
*RES
1 *2657:LO gpio_oeb[29] 48.7451 
*END

*D_NET *59 0.000818759
*CONN
*P gpio_oeb[2] O
*I *2633:LO O *D sky130_fd_sc_hd__conb_1
*CAP
1 gpio_oeb[2] 0.000315064
2 *2633:LO 0.000315064
3 gpio_oeb[2] gpio_oeb[9] 0
4 gpio_oeb[2] gpio_out[7] 8.06147e-05
5 gpio_oeb[2] *733:25 0
6 gpio_oeb[26] gpio_oeb[2] 0.000108016
*RES
1 *2633:LO gpio_oeb[2] 49.4494 
*END

*D_NET *60 0.000901682
*CONN
*P gpio_oeb[30] O
*I *2658:LO O *D sky130_fd_sc_hd__conb_1
*CAP
1 gpio_oeb[30] 0.000450841
2 *2658:LO 0.000450841
3 gpio_oeb[16] gpio_oeb[30] 0
4 gpio_oeb[28] gpio_oeb[30] 0
*RES
1 *2658:LO gpio_oeb[30] 47.3214 
*END

*D_NET *61 0.000807273
*CONN
*P gpio_oeb[31] O
*I *2659:LO O *D sky130_fd_sc_hd__conb_1
*CAP
1 gpio_oeb[31] 9.98094e-05
2 *2659:LO 0.000222924
3 *61:10 0.000322734
4 gpio_oeb[31] gpio_out[10] 2.61329e-05
5 gpio_oeb[31] gpio_out[14] 2.79122e-05
6 *61:10 *72:10 0.00010776
7 *61:10 *76:10 0
*RES
1 *2659:LO *61:10 42.7539 
2 *61:10 gpio_oeb[31] 8.4816 
*END

*D_NET *62 0.0015491
*CONN
*P gpio_oeb[32] O
*I *2660:LO O *D sky130_fd_sc_hd__conb_1
*CAP
1 gpio_oeb[32] 0.000398669
2 *2660:LO 0.00025704
3 *62:8 0.000655708
4 gpio_oeb[32] gpio_oeb[7] 0.000105143
5 gpio_oeb[22] gpio_oeb[32] 0.000132544
6 *51:8 *62:8 0
*RES
1 *2660:LO *62:8 43.2511 
2 *62:8 gpio_oeb[32] 9.87413 
*END

*D_NET *63 0.000694872
*CONN
*P gpio_oeb[33] O
*I *2661:LO O *D sky130_fd_sc_hd__conb_1
*CAP
1 gpio_oeb[33] 0.000316833
2 *2661:LO 0.000316833
3 gpio_oeb[33] gpio_out[13] 2.88889e-05
4 gpio_oeb[33] gpio_out[26] 3.23168e-05
5 gpio_oeb[33] *75:10 0
6 gpio_oeb[33] *89:10 0
*RES
1 *2661:LO gpio_oeb[33] 49.8062 
*END

*D_NET *64 0.00049784
*CONN
*P gpio_oeb[3] O
*I *2634:LO O *D sky130_fd_sc_hd__conb_1
*CAP
1 gpio_oeb[3] 0.000172625
2 *2634:LO 0.000172625
3 gpio_oeb[3] gpio_oeb[4] 8.06147e-05
4 gpio_oeb[3] gpio_out[11] 7.19757e-05
*RES
1 *2634:LO gpio_oeb[3] 47.4311 
*END

*D_NET *65 0.000753812
*CONN
*P gpio_oeb[4] O
*I *2635:LO O *D sky130_fd_sc_hd__conb_1
*CAP
1 gpio_oeb[4] 0.000297477
2 *2635:LO 0.000297477
3 gpio_oeb[4] gpio_out[11] 0
4 gpio_oeb[11] gpio_oeb[4] 7.82427e-05
5 gpio_oeb[3] gpio_oeb[4] 8.06147e-05
*RES
1 *2635:LO gpio_oeb[4] 48.7451 
*END

*D_NET *66 0.000551031
*CONN
*P gpio_oeb[5] O
*I *2636:LO O *D sky130_fd_sc_hd__conb_1
*CAP
1 gpio_oeb[5] 0.000264958
2 *2636:LO 0.000264958
3 *1:11 gpio_oeb[5] 2.11157e-05
4 *14:13 gpio_oeb[5] 0
*RES
1 *2636:LO gpio_oeb[5] 48.0051 
*END

*D_NET *67 0.000743971
*CONN
*P gpio_oeb[6] O
*I *2637:LO O *D sky130_fd_sc_hd__conb_1
*CAP
1 gpio_oeb[6] 8.08248e-05
2 *2637:LO 0.000266582
3 *67:10 0.000347407
4 gpio_oeb[6] gpio_out[6] 2.79122e-05
5 *67:10 *259:10 0
6 gpio_oeb[25] gpio_oeb[6] 2.12457e-05
7 *54:10 *67:10 0
*RES
1 *2637:LO *67:10 42.2568 
2 *67:10 gpio_oeb[6] 8.32853 
*END

*D_NET *68 0.00109294
*CONN
*P gpio_oeb[7] O
*I *2638:LO O *D sky130_fd_sc_hd__conb_1
*CAP
1 gpio_oeb[7] 0.000216056
2 *2638:LO 0.00017755
3 *68:10 0.000393606
4 gpio_oeb[7] gpio_out[1] 7.82427e-05
5 *68:10 gpio_out[1] 8.62073e-06
6 *68:10 *105:11 1.95789e-05
7 gpio_oeb[26] gpio_oeb[7] 0
8 gpio_oeb[32] gpio_oeb[7] 0.000105143
9 *51:8 *68:10 9.41483e-05
*RES
1 *2638:LO *68:10 49.8425 
2 *68:10 gpio_oeb[7] 1.01547 
*END

*D_NET *69 0.00104063
*CONN
*P gpio_oeb[8] O
*I *2639:LO O *D sky130_fd_sc_hd__conb_1
*CAP
1 gpio_oeb[8] 0.000520313
2 *2639:LO 0.000520313
3 gpio_oeb[8] gpio_out[33] 0
*RES
1 *2639:LO gpio_oeb[8] 48.73 
*END

*D_NET *70 0.000700233
*CONN
*P gpio_oeb[9] O
*I *2640:LO O *D sky130_fd_sc_hd__conb_1
*CAP
1 gpio_oeb[9] 0.000275008
2 *2640:LO 0.000275008
3 gpio_oeb[9] gpio_out[7] 7.82427e-05
4 gpio_oeb[15] gpio_oeb[9] 7.19757e-05
5 gpio_oeb[2] gpio_oeb[9] 0
*RES
1 *2640:LO gpio_oeb[9] 48.0408 
*END

*D_NET *71 0.000766008
*CONN
*P gpio_out[0] O
*I *2662:LO O *D sky130_fd_sc_hd__conb_1
*CAP
1 gpio_out[0] 0.000299009
2 *2662:LO 0.000299009
3 gpio_out[0] gpio_out[17] 8.73764e-05
4 gpio_out[0] gpio_out[8] 0
5 gpio_out[0] *757:106 0
6 gpio_oeb[17] gpio_out[0] 0
7 gpio_oeb[24] gpio_out[0] 8.06147e-05
*RES
1 *2662:LO gpio_out[0] 48.7451 
*END

*D_NET *72 0.000920959
*CONN
*P gpio_out[10] O
*I *2672:LO O *D sky130_fd_sc_hd__conb_1
*CAP
1 gpio_out[10] 0.000100457
2 *2672:LO 0.00028001
3 *72:10 0.000380467
4 gpio_out[10] gpio_out[23] 2.61329e-05
5 gpio_oeb[31] gpio_out[10] 2.61329e-05
6 *61:10 *72:10 0.00010776
*RES
1 *2672:LO *72:10 43.4375 
2 *72:10 gpio_out[10] 8.4816 
*END

*D_NET *73 0.000607352
*CONN
*P gpio_out[11] O
*I *2673:LO O *D sky130_fd_sc_hd__conb_1
*CAP
1 gpio_out[11] 0.000214866
2 *2673:LO 0.000214866
3 gpio_out[11] gpio_out[27] 0.000105644
4 gpio_oeb[3] gpio_out[11] 7.19757e-05
5 gpio_oeb[4] gpio_out[11] 0
*RES
1 *2673:LO gpio_out[11] 47.3365 
*END

*D_NET *74 0.000764348
*CONN
*P gpio_out[12] O
*I *2674:LO O *D sky130_fd_sc_hd__conb_1
*CAP
1 gpio_out[12] 0.000298989
2 *2674:LO 0.000298989
3 gpio_out[12] gpio_out[15] 8.73764e-05
4 gpio_out[12] *757:106 0
5 gpio_out[12] *757:130 0
6 gpio_oeb[17] gpio_out[12] 7.89944e-05
*RES
1 *2674:LO gpio_out[12] 49.2777 
*END

*D_NET *75 0.000747356
*CONN
*P gpio_out[13] O
*I *2675:LO O *D sky130_fd_sc_hd__conb_1
*CAP
1 gpio_out[13] 9.33412e-05
2 *2675:LO 0.000252826
3 *75:10 0.000346167
4 gpio_out[13] gpio_out[22] 2.61329e-05
5 gpio_oeb[33] gpio_out[13] 2.88889e-05
6 gpio_oeb[33] *75:10 0
*RES
1 *2675:LO *75:10 42.7332 
2 *75:10 gpio_out[13] 8.4816 
*END

*D_NET *76 0.00104698
*CONN
*P gpio_out[14] O
*I *2676:LO O *D sky130_fd_sc_hd__conb_1
*CAP
1 gpio_out[14] 9.34704e-05
2 *2676:LO 0.000251528
3 *76:10 0.000344998
4 *76:10 *99:10 0.000189791
5 gpio_oeb[14] gpio_out[14] 4.17018e-05
6 gpio_oeb[31] gpio_out[14] 2.79122e-05
7 *42:10 *76:10 9.75779e-05
8 *61:10 *76:10 0
*RES
1 *2676:LO *76:10 43.2304 
2 *76:10 gpio_out[14] 8.4144 
*END

*D_NET *77 0.000819525
*CONN
*P gpio_out[15] O
*I *2677:LO O *D sky130_fd_sc_hd__conb_1
*CAP
1 gpio_out[15] 0.000325767
2 *2677:LO 0.000325767
3 gpio_out[15] gpio_out[28] 8.06147e-05
4 gpio_out[15] *757:130 0
5 gpio_oeb[29] gpio_out[15] 0
6 gpio_out[12] gpio_out[15] 8.73764e-05
*RES
1 *2677:LO gpio_out[15] 49.4494 
*END

*D_NET *78 0.000913339
*CONN
*P gpio_out[16] O
*I *2623:X O *D sky130_fd_sc_hd__buf_2
*CAP
1 gpio_out[16] 0.000126491
2 *2623:X 0.000330179
3 *78:10 0.00045667
*RES
1 *2623:X *78:10 43.9139 
2 *78:10 gpio_out[16] 8.4816 
*END

*D_NET *79 0.000516571
*CONN
*P gpio_out[17] O
*I *2624:X O *D sky130_fd_sc_hd__buf_2
*CAP
1 gpio_out[17] 0.0001751
2 *2624:X 0.0001751
3 gpio_out[17] gpio_out[8] 7.89944e-05
4 gpio_out[17] *757:106 0
5 gpio_out[0] gpio_out[17] 8.73764e-05
*RES
1 *2624:X gpio_out[17] 47.1648 
*END

*D_NET *80 0.00055883
*CONN
*P gpio_out[18] O
*I *2678:LO O *D sky130_fd_sc_hd__conb_1
*CAP
1 gpio_out[18] 0.000199987
2 *2678:LO 0.000199987
3 gpio_out[18] gpio_out[30] 7.82427e-05
4 gpio_out[18] *755:23 0
5 gpio_oeb[23] gpio_out[18] 8.06147e-05
*RES
1 *2678:LO gpio_out[18] 47.7832 
*END

*D_NET *81 0.00264743
*CONN
*P gpio_out[19] O
*I *2679:LO O *D sky130_fd_sc_hd__conb_1
*CAP
1 gpio_out[19] 0.000580781
2 *2679:LO 3.78039e-05
3 *81:8 0.000618584
4 gpio_out[19] gpio_out[31] 0.000105644
5 gpio_out[19] gpio_out[5] 0
6 gpio_out[19] *95:8 0.000265736
7 gpio_out[19] *98:10 0.000122034
8 gpio_oeb[1] gpio_out[19] 0.000916846
*RES
1 *2679:LO *81:8 38.6214 
2 *81:8 gpio_out[19] 22.8897 
*END

*D_NET *82 0.000471532
*CONN
*P gpio_out[1] O
*I *2663:LO O *D sky130_fd_sc_hd__conb_1
*CAP
1 gpio_out[1] 0.000156346
2 *2663:LO 0.000156346
3 gpio_oeb[26] gpio_out[1] 7.19757e-05
4 gpio_oeb[7] gpio_out[1] 7.82427e-05
5 *68:10 gpio_out[1] 8.62073e-06
*RES
1 *2663:LO gpio_out[1] 47.0789 
*END

*D_NET *83 0.000751276
*CONN
*P gpio_out[20] O
*I *2680:LO O *D sky130_fd_sc_hd__conb_1
*CAP
1 gpio_out[20] 0.000278525
2 *2680:LO 0.000278525
3 gpio_out[20] gpio_out[22] 2.61329e-05
4 gpio_out[20] *87:10 0.00014196
5 gpio_oeb[20] gpio_out[20] 2.61329e-05
6 *49:10 gpio_out[20] 0
*RES
1 *2680:LO gpio_out[20] 49.8062 
*END

*D_NET *84 0.00250043
*CONN
*P gpio_out[21] O
*I *2681:LO O *D sky130_fd_sc_hd__conb_1
*CAP
1 gpio_out[21] 0.000300864
2 *2681:LO 0.0002153
3 *84:8 0.000516164
4 gpio_out[21] gpio_out[24] 4.12073e-05
5 gpio_out[21] *87:10 0.000431099
6 gpio_oeb[18] gpio_out[21] 0.000656435
7 *49:10 gpio_out[21] 2.61141e-05
8 *49:10 *84:8 0.000313249
*RES
1 *2681:LO *84:8 42.9093 
2 *84:8 gpio_out[21] 17.539 
*END

*D_NET *85 0.000631171
*CONN
*P gpio_out[22] O
*I *2682:LO O *D sky130_fd_sc_hd__conb_1
*CAP
1 gpio_out[22] 0.000289453
2 *2682:LO 0.000289453
3 gpio_out[13] gpio_out[22] 2.61329e-05
4 gpio_out[20] gpio_out[22] 2.61329e-05
*RES
1 *2682:LO gpio_out[22] 49.8062 
*END

*D_NET *86 0.000692272
*CONN
*P gpio_out[23] O
*I *2683:LO O *D sky130_fd_sc_hd__conb_1
*CAP
1 gpio_out[23] 0.000318625
2 *2683:LO 0.000318625
3 gpio_oeb[27] gpio_out[23] 2.88889e-05
4 gpio_out[10] gpio_out[23] 2.61329e-05
5 *56:10 gpio_out[23] 0
*RES
1 *2683:LO gpio_out[23] 49.8062 
*END

*D_NET *87 0.00182837
*CONN
*P gpio_out[24] O
*I *2684:LO O *D sky130_fd_sc_hd__conb_1
*CAP
1 gpio_out[24] 0.000123685
2 *2684:LO 0.000472743
3 *87:10 0.000596427
4 gpio_oeb[20] gpio_out[24] 2.12457e-05
5 gpio_out[20] *87:10 0.00014196
6 gpio_out[21] gpio_out[24] 4.12073e-05
7 gpio_out[21] *87:10 0.000431099
*RES
1 *2684:LO *87:10 48.7196 
2 *87:10 gpio_out[24] 8.50027 
*END

*D_NET *88 0.000683139
*CONN
*P gpio_out[25] O
*I *2685:LO O *D sky130_fd_sc_hd__conb_1
*CAP
1 gpio_out[25] 0.000260606
2 *2685:LO 0.000260606
3 gpio_out[25] gpio_out[2] 7.19757e-05
4 gpio_out[25] *93:10 9.33529e-06
5 gpio_out[25] *737:122 0
6 gpio_oeb[23] gpio_out[25] 8.06147e-05
*RES
1 *2685:LO gpio_out[25] 49.1918 
*END

*D_NET *89 0.000775882
*CONN
*P gpio_out[26] O
*I *2686:LO O *D sky130_fd_sc_hd__conb_1
*CAP
1 gpio_out[26] 9.74436e-05
2 *2686:LO 0.000264185
3 *89:10 0.000361629
4 gpio_out[26] gpio_out[6] 2.0307e-05
5 *89:10 gpio_out[6] 0
6 gpio_oeb[33] gpio_out[26] 3.23168e-05
7 gpio_oeb[33] *89:10 0
*RES
1 *2686:LO *89:10 42.7332 
2 *89:10 gpio_out[26] 8.4816 
*END

*D_NET *90 0.000916234
*CONN
*P gpio_out[27] O
*I *2687:LO O *D sky130_fd_sc_hd__conb_1
*CAP
1 gpio_out[27] 0.000281534
2 *2687:LO 0.000281534
3 gpio_out[27] *753:22 0.000141879
4 gpio_oeb[0] gpio_out[27] 0.000105644
5 gpio_out[11] gpio_out[27] 0.000105644
*RES
1 *2687:LO gpio_out[27] 49.4494 
*END

*D_NET *91 0.000539942
*CONN
*P gpio_out[28] O
*I *2688:LO O *D sky130_fd_sc_hd__conb_1
*CAP
1 gpio_out[28] 0.000189356
2 *2688:LO 0.000189356
3 gpio_out[28] *757:130 0
4 gpio_oeb[29] gpio_out[28] 8.06147e-05
5 gpio_out[15] gpio_out[28] 8.06147e-05
*RES
1 *2688:LO gpio_out[28] 47.7832 
*END

*D_NET *92 0.00144529
*CONN
*P gpio_out[29] O
*I *2689:LO O *D sky130_fd_sc_hd__conb_1
*CAP
1 gpio_out[29] 0.000282995
2 *2689:LO 0.000169575
3 *92:10 0.00045257
4 gpio_out[29] gpio_out[2] 0.00010386
5 *92:10 *2589:A 1.01436e-05
6 *92:10 *93:10 8.62073e-06
7 *92:10 *756:12 0
8 *92:10 *757:130 0.00028211
9 gpio_oeb[12] gpio_out[29] 0.000135417
*RES
1 *2689:LO *92:10 49.8425 
2 *92:10 gpio_out[29] 1.27307 
*END

*D_NET *93 0.00102285
*CONN
*P gpio_out[2] O
*I *2664:LO O *D sky130_fd_sc_hd__conb_1
*CAP
1 gpio_out[2] 0.000221928
2 *2664:LO 0.000187671
3 *93:10 0.000409598
4 *93:10 *2589:A 0
5 *93:10 *737:122 0
6 *93:10 *755:23 0
7 *93:10 *756:8 9.86551e-06
8 gpio_oeb[23] gpio_out[2] 0
9 gpio_out[25] gpio_out[2] 7.19757e-05
10 gpio_out[25] *93:10 9.33529e-06
11 gpio_out[29] gpio_out[2] 0.00010386
12 *92:10 *93:10 8.62073e-06
*RES
1 *2664:LO *93:10 49.8425 
2 *93:10 gpio_out[2] 1.01547 
*END

*D_NET *94 0.000749996
*CONN
*P gpio_out[30] O
*I *2690:LO O *D sky130_fd_sc_hd__conb_1
*CAP
1 gpio_out[30] 0.000299889
2 *2690:LO 0.000299889
3 gpio_oeb[21] gpio_out[30] 7.19757e-05
4 gpio_oeb[23] gpio_out[30] 0
5 gpio_out[18] gpio_out[30] 7.82427e-05
*RES
1 *2690:LO gpio_out[30] 48.7451 
*END

*D_NET *95 0.00130144
*CONN
*P gpio_out[31] O
*I *2625:LO O *D sky130_fd_sc_hd__conb_1
*CAP
1 gpio_out[31] 0.000176428
2 *2625:LO 0.00023578
3 *95:8 0.000412208
4 gpio_out[31] gpio_out[5] 0.000105644
5 gpio_out[19] gpio_out[31] 0.000105644
6 gpio_out[19] *95:8 0.000265736
*RES
1 *2625:LO *95:8 44.6596 
2 *95:8 gpio_out[31] 9.01547 
*END

*D_NET *96 0.000466468
*CONN
*P gpio_out[32] O
*I *2626:LO O *D sky130_fd_sc_hd__conb_1
*CAP
1 gpio_out[32] 0.000158125
2 *2626:LO 0.000158125
3 gpio_out[32] *2595:A 0
4 gpio_oeb[12] gpio_out[32] 7.82427e-05
5 gpio_oeb[29] gpio_out[32] 7.19757e-05
*RES
1 *2626:LO gpio_out[32] 47.0789 
*END

*D_NET *97 0.00105237
*CONN
*P gpio_out[33] O
*I *2627:LO O *D sky130_fd_sc_hd__conb_1
*CAP
1 gpio_out[33] 0.000526183
2 *2627:LO 0.000526183
3 gpio_oeb[8] gpio_out[33] 0
*RES
1 *2627:LO gpio_out[33] 48.73 
*END

*D_NET *98 0.000943558
*CONN
*P gpio_out[3] O
*I *2665:LO O *D sky130_fd_sc_hd__conb_1
*CAP
1 gpio_out[3] 0.000196217
2 *2665:LO 0.000122602
3 *98:10 0.000318819
4 gpio_out[3] gpio_out[5] 0.000105644
5 gpio_oeb[21] gpio_out[3] 7.82427e-05
6 gpio_out[19] *98:10 0.000122034
*RES
1 *2665:LO *98:10 49.1382 
2 *98:10 gpio_out[3] 1.01547 
*END

*D_NET *99 0.00160458
*CONN
*P gpio_out[4] O
*I *2666:LO O *D sky130_fd_sc_hd__conb_1
*CAP
1 gpio_out[4] 0.000164627
2 *2666:LO 0.00039452
3 *99:10 0.000559147
4 gpio_oeb[14] gpio_out[4] 5.99691e-05
5 *42:10 *99:10 0.000236524
6 *76:10 *99:10 0.000189791
*RES
1 *2666:LO *99:10 47.4146 
2 *99:10 gpio_out[4] 8.672 
*END

*D_NET *100 0.00125886
*CONN
*P gpio_out[5] O
*I *2667:LO O *D sky130_fd_sc_hd__conb_1
*CAP
1 gpio_out[5] 0.000354084
2 *2667:LO 0.000129729
3 *100:10 0.000483813
4 gpio_oeb[1] *100:10 7.99416e-05
5 gpio_out[19] gpio_out[5] 0
6 gpio_out[31] gpio_out[5] 0.000105644
7 gpio_out[3] gpio_out[5] 0.000105644
*RES
1 *2667:LO *100:10 49.1382 
2 *100:10 gpio_out[5] 1.53067 
*END

*D_NET *101 0.000623388
*CONN
*P gpio_out[6] O
*I *2668:LO O *D sky130_fd_sc_hd__conb_1
*CAP
1 gpio_out[6] 0.000287584
2 *2668:LO 0.000287584
3 gpio_oeb[6] gpio_out[6] 2.79122e-05
4 gpio_out[26] gpio_out[6] 2.0307e-05
5 *89:10 gpio_out[6] 0
*RES
1 *2668:LO gpio_out[6] 49.8062 
*END

*D_NET *102 0.000557862
*CONN
*P gpio_out[7] O
*I *2669:LO O *D sky130_fd_sc_hd__conb_1
*CAP
1 gpio_out[7] 0.000199502
2 *2669:LO 0.000199502
3 gpio_oeb[2] gpio_out[7] 8.06147e-05
4 gpio_oeb[9] gpio_out[7] 7.82427e-05
*RES
1 *2669:LO gpio_out[7] 47.7832 
*END

*D_NET *103 0.00104884
*CONN
*P gpio_out[8] O
*I *2670:LO O *D sky130_fd_sc_hd__conb_1
*CAP
1 gpio_out[8] 0.000232191
2 *2670:LO 0.000171806
3 *103:10 0.000403997
4 *103:10 *2452:RESET_B 4.75766e-05
5 *103:10 *757:106 0
6 gpio_oeb[0] gpio_out[8] 0.000114277
7 gpio_out[0] gpio_out[8] 0
8 gpio_out[17] gpio_out[8] 7.89944e-05
*RES
1 *2670:LO *103:10 49.1382 
2 *103:10 gpio_out[8] 1.10133 
*END

*D_NET *104 0.000938441
*CONN
*P gpio_out[9] O
*I *2671:LO O *D sky130_fd_sc_hd__conb_1
*CAP
1 gpio_out[9] 9.74436e-05
2 *2671:LO 0.000329321
3 *104:10 0.000426764
4 gpio_oeb[19] gpio_out[9] 2.0307e-05
5 gpio_oeb[19] *104:10 3.22879e-05
6 gpio_oeb[25] gpio_out[9] 3.23168e-05
7 *54:10 *104:10 0
*RES
1 *2671:LO *104:10 43.8104 
2 *104:10 gpio_out[9] 8.4816 
*END

*D_NET *105 0.00185113
*CONN
*P nrst I
*I *2614:A I *D sky130_fd_sc_hd__dlymetal6s2s_1
*I *829:DIODE I *D sky130_fd_sc_hd__diode_2
*CAP
1 nrst 0.000738471
2 *2614:A 0.000138182
3 *829:DIODE 0
4 *105:11 0.000876653
5 gpio_oeb[22] *105:11 7.82427e-05
6 *51:8 *105:11 0
7 *68:10 *105:11 1.95789e-05
*RES
1 nrst *105:11 35.3475 
2 *105:11 *829:DIODE 23 
3 *105:11 *2614:A 25.4236 
*END

*D_NET *108 0.00645581
*CONN
*I *2005:A I *D sky130_fd_sc_hd__inv_2
*I *2440:A I *D sky130_fd_sc_hd__nor2_1
*I *2553:A I *D sky130_fd_sc_hd__clkbuf_1
*I *2004:X O *D sky130_fd_sc_hd__or2_1
*CAP
1 *2005:A 0.000102164
2 *2440:A 4.92985e-05
3 *2553:A 0
4 *2004:X 0.000684772
5 *108:28 0.000552371
6 *108:20 0.00116239
7 *108:18 0.0010451
8 *108:10 0.00106699
9 *2005:A *2359:B 0.000175791
10 *2005:A *355:10 5.73288e-05
11 *2005:A *634:10 0.000119565
12 *2005:A *710:12 1.37232e-05
13 *2440:A *700:12 2.82074e-05
14 *108:10 *2002:B 1.28818e-05
15 *108:10 *2449:A0 2.93747e-05
16 *108:10 *156:29 0.000488383
17 *108:18 *2359:B 7.63261e-05
18 *108:18 *699:20 0
19 *108:18 *702:8 0
20 *108:20 *700:12 0.000651409
21 *108:20 *710:12 4.24988e-05
22 *108:28 *173:16 0
23 *108:28 *262:8 0
24 *108:28 *263:10 4.3407e-05
25 *108:28 *710:12 5.38249e-05
*RES
1 *2004:X *108:10 35.2214 
2 *108:10 *108:18 36.0693 
3 *108:18 *108:20 9.19714 
4 *108:20 *108:28 39.9429 
5 *108:28 *2553:A 23 
6 *108:20 *2440:A 24.2014 
7 *108:18 *2005:A 27.2464 
*END

*D_NET *109 0.0012236
*CONN
*I *2602:A I *D sky130_fd_sc_hd__dlygate4sd3_1
*I *2355:A I *D sky130_fd_sc_hd__nor3b_1
*I *2541:Q O *D sky130_fd_sc_hd__dfrtp_1
*CAP
1 *2602:A 0
2 *2355:A 0.00031369
3 *2541:Q 0
4 *109:27 0.000184212
5 *109:4 0.000497903
6 *2355:A *2355:B 3.85196e-05
7 *2355:A *2355:C_N 2.18888e-05
8 *109:27 *173:16 0
9 *109:27 *304:10 0.000167387
10 *109:27 *699:14 0
*RES
1 *2541:Q *109:4 23 
2 *109:4 *2355:A 29.2971 
3 *109:4 *109:27 33.48 
4 *109:27 *2602:A 23 
*END

*D_NET *110 0.00646245
*CONN
*I *2596:A I *D sky130_fd_sc_hd__dlygate4sd3_1
*I *2354:B I *D sky130_fd_sc_hd__nor2_1
*I *2364:A2 I *D sky130_fd_sc_hd__o31ai_1
*I *2189:A I *D sky130_fd_sc_hd__or4b_1
*I *2528:Q O *D sky130_fd_sc_hd__dfrtp_1
*CAP
1 *2596:A 0
2 *2354:B 0
3 *2364:A2 0
4 *2189:A 0
5 *2528:Q 0
6 *110:55 0.000272022
7 *110:43 0.000995561
8 *110:27 0.00111415
9 *110:14 0.000567208
10 *110:4 0.000957818
11 *110:14 *2190:B 3.47781e-05
12 *110:14 *2528:RESET_B 3.56537e-05
13 *110:14 *162:10 0.000136486
14 *110:14 *162:23 5.3304e-05
15 *110:14 *163:22 4.05745e-05
16 *110:14 *447:33 4.67488e-05
17 *110:14 *447:41 1.12487e-05
18 *110:14 *505:16 0
19 *110:14 *508:10 0.000367707
20 *110:14 *699:8 0.000119855
21 *110:27 *2438:B 0.000149866
22 *110:27 *2438:C 2.4732e-05
23 *110:27 *316:31 2.3612e-05
24 *110:27 *699:8 1.03955e-05
25 *110:27 *741:26 4.09238e-05
26 *110:27 *749:18 0
27 *110:43 *2194:B 7.87243e-05
28 *110:43 *2441:A2 2.51702e-05
29 *110:43 *111:22 1.00084e-05
30 *110:43 *112:90 0.000120222
31 *110:43 *293:10 0.00035793
32 *110:43 *505:16 0.000142173
33 *110:43 *630:8 4.08379e-06
34 *110:43 *634:10 0.000171497
35 *110:43 *646:12 0
36 *110:43 *699:10 0
37 *110:43 *718:12 0
38 *110:43 *749:18 9.64022e-05
39 *110:55 *2355:B 6.70361e-05
40 *110:55 *2355:C_N 0
41 *110:55 *2364:A3 6.17437e-06
42 *110:55 *2372:A 6.42943e-05
43 *110:55 *112:90 3.34311e-05
44 *110:55 *355:10 0.000189157
45 *110:55 *628:14 6.17437e-06
46 *110:55 *629:25 3.87477e-05
47 *110:55 *639:12 4.85776e-05
48 *110:55 *646:12 0
*RES
1 *2528:Q *110:4 23 
2 *110:4 *110:14 40.6057 
3 *110:14 *2189:A 23 
4 *110:4 *110:27 36.1936 
5 *110:27 *110:43 47.3379 
6 *110:43 *110:55 35.5411 
7 *110:55 *2364:A2 23 
8 *110:43 *2354:B 23 
9 *110:27 *2596:A 23 
*END

*D_NET *111 0.00141649
*CONN
*I *2604:A I *D sky130_fd_sc_hd__dlygate4sd3_1
*I *2364:A1 I *D sky130_fd_sc_hd__o31ai_1
*I *2354:A I *D sky130_fd_sc_hd__nor2_1
*I *2540:Q O *D sky130_fd_sc_hd__dfrtp_1
*CAP
1 *2604:A 0
2 *2364:A1 0
3 *2354:A 0
4 *2540:Q 0.000225021
5 *111:22 0.000198253
6 *111:10 0.000307168
7 *111:6 0.000333936
8 *111:6 *720:10 4.57742e-05
9 *111:22 *2355:B 1.93332e-05
10 *111:22 *2355:C_N 5.56279e-05
11 *111:22 *634:10 0.000221363
12 *111:22 *718:12 0
13 *110:43 *111:22 1.00084e-05
*RES
1 *2540:Q *111:6 26.9564 
2 *111:6 *111:10 2.07143 
3 *111:10 *111:22 34.7021 
4 *111:22 *2354:A 23 
5 *111:10 *2364:A1 23 
6 *111:6 *2604:A 23 
*END

*D_NET *112 0.0127127
*CONN
*I *2380:B2 I *D sky130_fd_sc_hd__a221o_1
*I *2377:A I *D sky130_fd_sc_hd__nand2_2
*I *2363:A I *D sky130_fd_sc_hd__or2_1
*I *1997:A I *D sky130_fd_sc_hd__or3_2
*I *2352:B I *D sky130_fd_sc_hd__or3b_1
*I *2373:A1 I *D sky130_fd_sc_hd__o311a_1
*I *2360:B2 I *D sky130_fd_sc_hd__a221o_2
*I *2001:A I *D sky130_fd_sc_hd__nand2_1
*I *1962:A I *D sky130_fd_sc_hd__inv_2
*I *2503:Q O *D sky130_fd_sc_hd__dfrtp_4
*CAP
1 *2380:B2 0.000254889
2 *2377:A 4.20045e-05
3 *2363:A 0
4 *1997:A 0
5 *2352:B 0
6 *2373:A1 0
7 *2360:B2 0
8 *2001:A 0
9 *1962:A 6.1845e-05
10 *2503:Q 0.000225309
11 *112:113 0.000169801
12 *112:90 0.00071063
13 *112:65 0.000985179
14 *112:55 0.000895772
15 *112:49 0.000878252
16 *112:41 0.000465168
17 *112:39 0.00028626
18 *112:35 0.000601565
19 *112:27 0.00115887
20 *112:10 0.000879496
21 *2377:A *2573:A 3.83555e-05
22 *2377:A *743:129 4.17736e-05
23 *2380:B2 *2367:D1 0
24 *2380:B2 *2380:A2 1.6318e-05
25 *2380:B2 *2380:B1 4.62242e-05
26 *2380:B2 *640:25 1.12478e-05
27 *112:10 *359:79 9.01041e-05
28 *112:27 *2576:A 3.53115e-05
29 *112:27 *315:6 1.54424e-05
30 *112:27 *347:79 3.70522e-05
31 *112:27 *351:72 0.000121642
32 *112:27 *651:10 0.000198311
33 *112:27 *742:6 0.000397602
34 *112:35 *2280:C 0.000206867
35 *112:35 *2378:A 0.000212087
36 *112:35 *114:14 5.83189e-05
37 *112:35 *351:72 5.24393e-05
38 *112:35 *640:25 3.79753e-05
39 *112:35 *651:10 0.000219882
40 *112:35 *739:14 0
41 *112:39 *2279:B 6.16283e-05
42 *112:39 *2363:B 3.22879e-05
43 *112:39 *2573:A 9.6103e-05
44 *112:39 *114:14 5.67058e-05
45 *112:39 *743:12 0.0005715
46 *112:39 *743:129 0.000187129
47 *112:49 *1999:A 5.50049e-05
48 *112:49 *1999:B 3.71251e-05
49 *112:49 *348:21 0.000104779
50 *112:49 *359:16 6.50143e-05
51 *112:49 *638:10 0.000181131
52 *112:49 *644:10 9.28078e-06
53 *112:55 *2352:A 3.17516e-05
54 *112:55 *2361:A 3.17881e-05
55 *112:55 *2364:A3 0.000137651
56 *112:55 *627:6 0.000520201
57 *112:55 *647:10 9.28078e-06
58 *112:55 *741:26 2.82589e-05
59 *112:55 *743:45 1.05441e-05
60 *112:65 *2364:B1 0.000222953
61 *112:65 *351:32 2.05503e-05
62 *112:65 *628:10 2.58308e-05
63 *112:65 *741:26 1.6873e-05
64 *112:65 *743:45 5.79466e-05
65 *112:90 *2441:A2 1.28818e-05
66 *112:90 *355:10 0
67 *112:90 *628:10 7.11028e-05
68 *112:90 *630:8 5.47903e-05
69 *112:90 *633:22 4.10479e-06
70 *112:90 *639:12 4.66032e-05
71 *112:90 *646:12 4.49122e-05
72 *112:90 *741:26 1.38855e-05
73 *112:90 *762:54 6.39489e-06
74 *112:113 *1997:B 0
75 *112:113 *1999:A 3.47781e-05
76 *112:113 *2363:B 4.6318e-06
77 *112:113 *348:8 3.39096e-05
78 *112:113 *348:21 1.27035e-05
79 *112:113 *350:10 0
80 *112:113 *743:12 0.000195004
81 *1:15 *112:90 0
82 *110:43 *112:90 0.000120222
83 *110:55 *112:90 3.34311e-05
*RES
1 *2503:Q *112:10 42.4329 
2 *112:10 *1962:A 39.2014 
3 *112:10 *112:27 40.2536 
4 *112:27 *112:35 22.6021 
5 *112:35 *112:39 9.09357 
6 *112:39 *112:41 0.621429 
7 *112:41 *112:49 35.8414 
8 *112:49 *112:55 24.4457 
9 *112:55 *112:65 34.2257 
10 *112:65 *2001:A 38 
11 *112:65 *112:90 37.2662 
12 *112:90 *2360:B2 23 
13 *112:55 *2373:A1 38 
14 *112:49 *2352:B 23 
15 *112:41 *112:113 33.6664 
16 *112:113 *1997:A 23 
17 *112:39 *2363:A 23 
18 *112:35 *2377:A 24.1186 
19 *112:27 *2380:B2 41.5266 
*END

*D_NET *113 0.00397009
*CONN
*I *2000:B I *D sky130_fd_sc_hd__nor2_1
*I *2010:A_N I *D sky130_fd_sc_hd__nand2b_1
*I *1996:B I *D sky130_fd_sc_hd__nand2b_2
*I *2376:A1 I *D sky130_fd_sc_hd__mux2_1
*I *2504:Q O *D sky130_fd_sc_hd__dfrtp_1
*CAP
1 *2000:B 0.000113691
2 *2010:A_N 0
3 *1996:B 4.01155e-05
4 *2376:A1 0
5 *2504:Q 0.000560805
6 *113:32 0.000693122
7 *113:19 0.00081934
8 *113:12 6.56444e-05
9 *113:6 0.000826243
10 *2000:B *2558:A 5.50106e-05
11 *2000:B *351:10 3.22879e-05
12 *2000:B *358:10 0
13 *113:6 *2504:RESET_B 0.00013506
14 *113:6 *635:42 3.82058e-06
15 *113:12 *2376:S 1.01436e-05
16 *113:12 *290:8 0
17 *113:12 *635:42 8.4047e-05
18 *113:19 *2504:CLK 1.21972e-05
19 *113:19 *2504:D 0.000185428
20 *113:19 *635:42 3.70553e-06
21 *113:32 *2504:CLK 7.9284e-05
22 *113:32 *116:20 0.000185655
23 *113:32 *347:14 6.44887e-05
24 *113:32 *351:10 0
25 *113:32 *358:10 0
*RES
1 *2504:Q *113:6 30.2914 
2 *113:6 *113:12 31.2014 
3 *113:12 *2376:A1 23 
4 *113:6 *113:19 3.00357 
5 *113:19 *1996:B 23.8493 
6 *113:19 *113:32 24.4871 
7 *113:32 *2010:A_N 38 
8 *113:32 *2000:B 40.03 
*END

*D_NET *114 0.00344503
*CONN
*I *2600:A I *D sky130_fd_sc_hd__dlygate4sd3_1
*I *2577:A I *D sky130_fd_sc_hd__clkbuf_2
*I *2505:Q O *D sky130_fd_sc_hd__dfrtp_1
*CAP
1 *2600:A 0.000177734
2 *2577:A 0
3 *2505:Q 0
4 *114:14 0.000907202
5 *114:4 0.00108494
6 *2600:A *752:37 0.000196607
7 *114:14 *2573:A 5.50106e-05
8 *114:14 *289:8 3.21327e-05
9 *114:14 *291:8 8.62783e-05
10 *114:14 *632:10 0.000296017
11 *114:14 *640:8 7.31082e-05
12 *114:14 *640:25 2.49733e-05
13 *114:14 *641:25 0
14 *114:14 *642:8 0
15 *114:14 *651:10 6.0099e-05
16 *114:14 *705:27 3.82956e-05
17 *114:14 *705:52 9.28739e-05
18 *114:14 *714:10 3.46351e-05
19 *114:14 *715:8 0
20 *114:14 *739:14 4.90787e-05
21 *114:14 *742:90 0
22 *114:14 *752:37 0.000121027
23 *112:35 *114:14 5.83189e-05
24 *112:39 *114:14 5.67058e-05
*RES
1 *2505:Q *114:4 23 
2 *114:4 *114:14 48.6636 
3 *114:14 *2577:A 23 
4 *114:4 *2600:A 27.3293 
*END

*D_NET *115 0.00113461
*CONN
*I *2576:A I *D sky130_fd_sc_hd__clkbuf_2
*I *2599:A I *D sky130_fd_sc_hd__dlygate4sd3_1
*I *2506:Q O *D sky130_fd_sc_hd__dfrtp_1
*CAP
1 *2576:A 4.58526e-05
2 *2599:A 0
3 *2506:Q 0.000231034
4 *115:12 4.58526e-05
5 *115:10 0.000231034
6 *2576:A *315:6 0.000103647
7 *2576:A *742:6 5.41385e-05
8 *115:10 *2380:B1 0.000181125
9 *115:10 *2506:RESET_B 4.42795e-05
10 *115:10 *292:8 6.34844e-05
11 *115:10 *315:12 7.56417e-05
12 *115:10 *347:89 2.32101e-05
13 *112:27 *2576:A 3.53115e-05
*RES
1 *2506:Q *115:10 43.4893 
2 *115:10 *115:12 15 
3 *115:12 *2599:A 23 
4 *115:12 *2576:A 25.0507 
*END

*D_NET *116 0.00260413
*CONN
*I *2592:A I *D sky130_fd_sc_hd__dlygate4sd3_1
*I *2000:A I *D sky130_fd_sc_hd__nor2_1
*I *2010:B I *D sky130_fd_sc_hd__nand2b_1
*I *1996:A_N I *D sky130_fd_sc_hd__nand2b_2
*I *2507:Q O *D sky130_fd_sc_hd__dfrtp_1
*CAP
1 *2592:A 0
2 *2000:A 1.59765e-05
3 *2010:B 3.94864e-05
4 *1996:A_N 0
5 *2507:Q 0.000164526
6 *116:29 0.000173603
7 *116:20 0.000223909
8 *116:14 0.000726268
9 *116:6 0.000548746
10 *2010:B *2558:A 7.34039e-05
11 *116:6 *749:8 0.000143059
12 *116:14 *2558:A 5.47808e-05
13 *116:14 *358:8 9.8971e-06
14 *116:14 *358:10 7.76364e-06
15 *116:14 *752:47 0.000138708
16 *116:20 *358:10 0
17 *116:20 *752:37 9.03784e-05
18 *116:29 *2558:A 7.96658e-06
19 *113:32 *116:20 0.000185655
*RES
1 *2507:Q *116:6 26.9564 
2 *116:6 *116:14 35.7379 
3 *116:14 *116:20 35.075 
4 *116:20 *1996:A_N 23 
5 *116:14 *116:29 2.07143 
6 *116:29 *2010:B 24.9057 
7 *116:29 *2000:A 23.4971 
8 *116:6 *2592:A 23 
*END

*D_NET *117 0.00791289
*CONN
*I *2344:A0 I *D sky130_fd_sc_hd__mux2_1
*I *2298:A I *D sky130_fd_sc_hd__and4_1
*I *2289:B2 I *D sky130_fd_sc_hd__a22o_1
*I *2281:A I *D sky130_fd_sc_hd__and2_1
*I *2285:A1 I *D sky130_fd_sc_hd__a22oi_1
*I *2288:A I *D sky130_fd_sc_hd__nand4_1
*I *2299:B2 I *D sky130_fd_sc_hd__a22oi_1
*I *2495:Q O *D sky130_fd_sc_hd__dfstp_1
*CAP
1 *2344:A0 0.000324725
2 *2298:A 0
3 *2289:B2 0
4 *2281:A 4.59239e-05
5 *2285:A1 2.53108e-05
6 *2288:A 0.000126447
7 *2299:B2 0
8 *2495:Q 8.28739e-05
9 *117:66 0.000343682
10 *117:47 0.000398894
11 *117:45 0.00045172
12 *117:33 0.000631031
13 *117:18 0.000732901
14 *117:8 0.000961188
15 *2281:A *2281:B 2.18506e-05
16 *2281:A *2283:A 8.19838e-05
17 *2281:A *2283:B 6.82611e-05
18 *2281:A *122:100 1.55941e-05
19 *2285:A1 *2281:B 4.00259e-06
20 *2285:A1 *2283:A 0
21 *2288:A *118:84 5.9405e-05
22 *2288:A *123:71 0.000131316
23 *2288:A *602:10 8.93663e-05
24 *2344:A0 *119:33 5.12254e-05
25 *2344:A0 *121:12 0.000101575
26 *2344:A0 *153:31 0.000137788
27 *2344:A0 *281:10 0
28 *2344:A0 *746:25 4.85126e-05
29 *2344:A0 *746:93 3.3746e-05
30 *2344:A0 *748:68 0.000324751
31 *117:8 *2495:SET_B 0.000120217
32 *117:18 *2299:A2 1.55941e-05
33 *117:18 *2299:B1 5.67058e-05
34 *117:18 *2300:C 5.3304e-05
35 *117:18 *2495:SET_B 2.18506e-05
36 *117:18 *119:43 8.61308e-05
37 *117:18 *281:10 0
38 *117:18 *746:6 1.76557e-05
39 *117:18 *748:68 0.00011835
40 *117:33 *2297:A 5.62433e-05
41 *117:33 *2300:C 8.60475e-05
42 *117:33 *118:55 5.50106e-05
43 *117:33 *118:67 3.75171e-05
44 *117:33 *119:43 2.18506e-05
45 *117:33 *119:49 5.94125e-05
46 *117:33 *121:19 0.000139357
47 *117:33 *123:51 5.27196e-05
48 *117:33 *123:61 0.000163686
49 *117:33 *594:10 1.22906e-05
50 *117:45 *2296:A 0
51 *117:45 *2296:B 5.67058e-05
52 *117:45 *118:67 0.000147861
53 *117:45 *119:64 0.000528025
54 *117:45 *121:19 6.67283e-05
55 *117:45 *121:28 1.56665e-05
56 *117:45 *121:41 0.000151634
57 *117:45 *587:10 5.12254e-05
58 *117:45 *592:10 9.58714e-05
59 *117:66 *2281:B 4.2062e-05
60 *117:66 *2283:A 0
61 *117:66 *2283:B 5.3304e-05
62 *117:66 *121:41 7.56417e-05
63 *117:66 *602:10 2.24973e-05
64 *117:66 *614:12 0
65 *117:66 *733:43 0.000137651
*RES
1 *2495:Q *117:8 39.3361 
2 *117:8 *117:18 26.9936 
3 *117:18 *2299:B2 23 
4 *117:18 *117:33 35.2821 
5 *117:33 *117:45 12.2836 
6 *117:45 *117:47 15 
7 *117:47 *2288:A 41.2314 
8 *117:47 *117:66 20.6343 
9 *117:66 *2285:A1 23.4971 
10 *117:66 *2281:A 24.5743 
11 *117:45 *2289:B2 23 
12 *117:33 *2298:A 23 
13 *117:8 *2344:A0 45.9336 
*END

*D_NET *118 0.0117732
*CONN
*I *2313:B2 I *D sky130_fd_sc_hd__a22o_1
*I *2298:B I *D sky130_fd_sc_hd__and4_1
*I *2284:B I *D sky130_fd_sc_hd__and3_1
*I *2285:B1 I *D sky130_fd_sc_hd__a22oi_1
*I *2283:B I *D sky130_fd_sc_hd__nand2_1
*I *2289:A2 I *D sky130_fd_sc_hd__a22o_1
*I *2288:C I *D sky130_fd_sc_hd__nand4_1
*I *2312:A I *D sky130_fd_sc_hd__and4_1
*I *2299:A1 I *D sky130_fd_sc_hd__a22oi_1
*I *2345:A0 I *D sky130_fd_sc_hd__mux2_1
*I *2496:Q O *D sky130_fd_sc_hd__dfstp_2
*CAP
1 *2313:B2 0
2 *2298:B 0
3 *2284:B 0.000296423
4 *2285:B1 0
5 *2283:B 0.000423154
6 *2289:A2 0
7 *2288:C 2.0995e-05
8 *2312:A 0
9 *2299:A1 6.24746e-05
10 *2345:A0 0
11 *2496:Q 0
12 *118:110 0.000325888
13 *118:93 0.000533533
14 *118:84 0.000276881
15 *118:67 0.000653011
16 *118:55 0.000536924
17 *118:48 0.000133585
18 *118:35 0.000143723
19 *118:31 0.000318969
20 *118:23 0.000840584
21 *118:12 0.00038573
22 *118:4 0.000955883
23 *2283:B *2283:A 0.000108798
24 *2283:B *580:23 3.53115e-05
25 *2284:B *2284:A 7.80354e-05
26 *2284:B *2286:B 8.46575e-05
27 *2284:B *122:96 1.14452e-05
28 *2284:B *583:8 0.000182873
29 *2284:B *740:30 3.49587e-05
30 *2288:C *123:71 1.14154e-05
31 *2288:C *587:36 0
32 *2299:A1 *2299:A2 0.000140949
33 *2299:A1 *2299:B1 6.6869e-05
34 *2299:A1 *123:111 1.14452e-05
35 *118:12 *2345:S 0.00010018
36 *118:12 *2495:CLK 0
37 *118:12 *703:31 0
38 *118:23 *2313:B1 5.90675e-06
39 *118:23 *2325:B1 5.90675e-06
40 *118:23 *2348:S 9.62764e-05
41 *118:23 *2496:SET_B 0.000746386
42 *118:23 *2581:A 0.000242019
43 *118:23 *733:49 1.40958e-05
44 *118:23 *748:6 3.16784e-05
45 *118:23 *748:18 7.38255e-05
46 *118:31 *119:37 0
47 *118:31 *121:19 0.000310641
48 *118:31 *123:94 4.08664e-05
49 *118:31 *123:102 0.000139352
50 *118:31 *607:8 8.41115e-05
51 *118:31 *746:25 0
52 *118:35 *2299:B1 1.58805e-05
53 *118:35 *123:111 7.48331e-05
54 *118:35 *124:29 2.24973e-05
55 *118:48 *2312:D 5.50106e-05
56 *118:55 *2298:C 5.3304e-05
57 *118:55 *2298:D 8.43466e-05
58 *118:55 *2312:D 5.50049e-05
59 *118:55 *121:19 1.41129e-05
60 *118:55 *594:10 5.3304e-05
61 *118:67 *119:64 0.000136863
62 *118:67 *122:72 0.000530622
63 *118:67 *123:61 0.000660144
64 *118:67 *123:71 2.18409e-05
65 *118:67 *592:10 6.7177e-06
66 *118:84 *122:72 5.50106e-05
67 *118:84 *122:83 0.000178235
68 *118:84 *122:96 2.5694e-05
69 *118:84 *123:71 0.000197828
70 *118:84 *585:8 1.76557e-05
71 *118:84 *587:10 0.000108681
72 *118:93 *121:41 2.35393e-05
73 *118:93 *122:96 0.000163343
74 *118:93 *733:39 8.4047e-05
75 *118:110 *121:41 1.89075e-05
76 *118:110 *122:96 8.94487e-05
77 *118:110 *583:8 3.92407e-05
78 *2281:A *2283:B 6.82611e-05
79 *2288:A *118:84 5.9405e-05
80 *117:33 *118:55 5.50106e-05
81 *117:33 *118:67 3.75171e-05
82 *117:45 *118:67 0.000147861
83 *117:66 *2283:B 5.3304e-05
*RES
1 *2496:Q *118:4 23 
2 *118:4 *118:12 37.1671 
3 *118:12 *2345:A0 23 
4 *118:4 *118:23 14.5829 
5 *118:23 *118:31 36.09 
6 *118:31 *118:35 16.2014 
7 *118:35 *2299:A1 39.9057 
8 *118:35 *118:48 15.6214 
9 *118:48 *2312:A 23 
10 *118:48 *118:55 2.52714 
11 *118:55 *118:67 42.3457 
12 *118:67 *2288:C 23.4971 
13 *118:67 *118:84 20.5514 
14 *118:84 *2289:A2 38 
15 *118:84 *118:93 2.25786 
16 *118:93 *2283:B 44.8771 
17 *118:93 *118:110 1.20143 
18 *118:110 *2285:B1 38 
19 *118:110 *2284:B 44.1936 
20 *118:55 *2298:B 23 
21 *118:23 *2313:B2 23 
*END

*D_NET *119 0.0101465
*CONN
*I *2324:B I *D sky130_fd_sc_hd__nand4_1
*I *2327:A1 I *D sky130_fd_sc_hd__a22o_1
*I *2313:A2 I *D sky130_fd_sc_hd__a22o_1
*I *2312:C I *D sky130_fd_sc_hd__and4_1
*I *2290:B I *D sky130_fd_sc_hd__and2_1
*I *2297:B I *D sky130_fd_sc_hd__and2_1
*I *2346:A0 I *D sky130_fd_sc_hd__mux2_1
*I *2497:Q O *D sky130_fd_sc_hd__dfstp_1
*CAP
1 *2324:B 0
2 *2327:A1 0
3 *2313:A2 0
4 *2312:C 4.55235e-05
5 *2290:B 0
6 *2297:B 0
7 *2346:A0 0
8 *2497:Q 0
9 *119:114 0.000150243
10 *119:95 0.000685408
11 *119:64 0.00041631
12 *119:49 2.89726e-05
13 *119:43 0.000850112
14 *119:37 0.000672611
15 *119:35 0.000337988
16 *119:33 0.00163687
17 *119:12 0.000114348
18 *119:4 0.00110032
19 *2312:C *2312:D 2.93845e-05
20 *119:12 *2345:S 6.4393e-05
21 *119:12 *2497:SET_B 1.06929e-05
22 *119:12 *150:42 8.06039e-05
23 *119:12 *350:56 1.37349e-05
24 *119:33 *2314:A_N 0.000141954
25 *119:33 *2316:A 8.94207e-06
26 *119:33 *2344:S 1.76557e-05
27 *119:33 *2497:SET_B 2.46007e-05
28 *119:33 *149:27 0.000559379
29 *119:33 *281:10 7.44257e-05
30 *119:35 *124:14 0
31 *119:35 *607:8 1.99391e-05
32 *119:35 *608:12 0.000114083
33 *119:35 *610:10 0
34 *119:37 *2299:A2 1.83667e-05
35 *119:37 *123:102 0.000163361
36 *119:37 *123:111 4.60263e-05
37 *119:37 *124:14 0
38 *119:37 *124:29 0
39 *119:43 *2299:A2 4.56547e-05
40 *119:43 *2299:B1 5.50049e-05
41 *119:43 *123:61 9.41704e-05
42 *119:49 *2297:A 6.16439e-05
43 *119:64 *2297:A 0
44 *119:64 *121:28 0.000441076
45 *119:64 *121:41 8.6949e-05
46 *119:64 *122:68 2.24973e-05
47 *119:64 *123:61 0.000187609
48 *119:64 *592:10 8.4047e-05
49 *119:95 *2327:B1 3.17027e-05
50 *119:95 *120:21 6.93345e-05
51 *119:95 *123:45 9.41704e-05
52 *119:95 *123:131 5.50106e-05
53 *119:95 *123:141 0.000124507
54 *119:95 *124:14 0
55 *119:95 *608:12 8.02348e-05
56 *119:95 *610:10 0
57 *119:114 *2327:A2 9.95097e-05
58 *119:114 *2327:B1 3.8198e-05
59 *119:114 *120:52 1.01436e-05
60 *119:114 *120:65 8.62876e-05
61 *119:114 *123:141 1.56762e-05
62 *119:114 *622:10 5.3304e-05
63 *2344:A0 *119:33 5.12254e-05
64 *117:18 *119:43 8.61308e-05
65 *117:33 *119:43 2.18506e-05
66 *117:33 *119:49 5.94125e-05
67 *117:45 *119:64 0.000528025
68 *118:31 *119:37 0
69 *118:67 *119:64 0.000136863
*RES
1 *2497:Q *119:4 23 
2 *119:4 *119:12 32.6411 
3 *119:12 *2346:A0 23 
4 *119:4 *119:33 34.8132 
5 *119:33 *119:35 2.25786 
6 *119:35 *119:37 4.01857 
7 *119:37 *119:43 20.6343 
8 *119:43 *119:49 30.8493 
9 *119:49 *2297:B 23 
10 *119:43 *119:64 41.2479 
11 *119:64 *2290:B 23 
12 *119:37 *2312:C 38.6214 
13 *119:35 *2313:A2 38 
14 *119:33 *119:95 25.5229 
15 *119:95 *2327:A1 23 
16 *119:95 *119:114 33.4386 
17 *119:114 *2324:B 23 
*END

*D_NET *120 0.00659204
*CONN
*I *2323:B I *D sky130_fd_sc_hd__nand2_1
*I *2324:D I *D sky130_fd_sc_hd__nand4_1
*I *2327:B1 I *D sky130_fd_sc_hd__a22o_1
*I *2315:B I *D sky130_fd_sc_hd__nand2_1
*I *2325:A2 I *D sky130_fd_sc_hd__a31o_1
*I *2296:B I *D sky130_fd_sc_hd__nand2_1
*I *2347:A0 I *D sky130_fd_sc_hd__mux2_1
*I *2498:Q O *D sky130_fd_sc_hd__dfstp_1
*CAP
1 *2323:B 0.000157777
2 *2324:D 0
3 *2327:B1 6.68331e-05
4 *2315:B 0
5 *2325:A2 0.000121455
6 *2296:B 0.000222568
7 *2347:A0 0
8 *2498:Q 0
9 *120:65 0.000214795
10 *120:52 0.000216627
11 *120:36 0.000121455
12 *120:23 0.000457935
13 *120:21 0.00113309
14 *120:12 0.000521947
15 *120:4 0.0013269
16 *2296:B *2297:A 2.71291e-05
17 *2296:B *121:19 5.50106e-05
18 *2296:B *122:47 9.04083e-05
19 *2296:B *614:12 0
20 *2296:B *733:73 0
21 *2323:B *2327:A2 6.07611e-06
22 *2323:B *2330:A 5.01986e-05
23 *2323:B *123:39 0
24 *2323:B *124:75 5.50106e-05
25 *2323:B *124:79 0.000116321
26 *2325:A2 *2325:A1 5.3304e-05
27 *2325:A2 *2325:A3 5.3304e-05
28 *2325:A2 *122:43 9.84794e-05
29 *2325:A2 *610:10 3.88863e-05
30 *2325:A2 *733:49 0.0001164
31 *120:12 *2498:SET_B 2.52027e-05
32 *120:12 *152:42 0.000163352
33 *120:12 *350:78 4.67488e-05
34 *120:12 *748:18 0.000163352
35 *120:21 *123:45 3.16784e-05
36 *120:21 *123:131 1.22822e-05
37 *120:21 *123:141 7.4416e-05
38 *120:23 *122:24 0
39 *120:23 *619:8 5.86165e-05
40 *120:23 *620:10 8.4047e-05
41 *120:23 *733:73 0
42 *120:52 *2327:A2 2.24973e-05
43 *120:52 *620:10 0.000129513
44 *120:52 *733:73 0
45 *120:65 *2327:A2 2.60152e-05
46 *120:65 *2330:A 1.14452e-05
47 *120:65 *620:10 0.000128583
48 *117:45 *2296:B 5.67058e-05
49 *119:95 *2327:B1 3.17027e-05
50 *119:95 *120:21 6.93345e-05
51 *119:114 *2327:B1 3.8198e-05
52 *119:114 *120:52 1.01436e-05
53 *119:114 *120:65 8.62876e-05
*RES
1 *2498:Q *120:4 23 
2 *120:4 *120:12 37.8818 
3 *120:12 *2347:A0 23 
4 *120:4 *120:21 25.8646 
5 *120:21 *120:23 4.72286 
6 *120:23 *2296:B 41.9357 
7 *120:23 *120:36 15 
8 *120:36 *2325:A2 26.5007 
9 *120:36 *2315:B 23 
10 *120:21 *120:52 1.90571 
11 *120:52 *2327:B1 39.1186 
12 *120:52 *120:65 1.90571 
13 *120:65 *2324:D 38 
14 *120:65 *2323:B 41.9357 
*END

*D_NET *121 0.00599549
*CONN
*I *2281:B I *D sky130_fd_sc_hd__and2_1
*I *2285:B2 I *D sky130_fd_sc_hd__a22oi_1
*I *2290:A I *D sky130_fd_sc_hd__and2_1
*I *2296:A I *D sky130_fd_sc_hd__nand2_1
*I *2348:A0 I *D sky130_fd_sc_hd__mux2_1
*I *2499:Q O *D sky130_fd_sc_hd__dfstp_1
*CAP
1 *2281:B 0.000263354
2 *2285:B2 0
3 *2290:A 0
4 *2296:A 2.34823e-05
5 *2348:A0 0
6 *2499:Q 0
7 *121:41 0.000517674
8 *121:28 0.000433388
9 *121:19 0.000557442
10 *121:12 0.000424073
11 *121:4 0.000778964
12 *2281:B *2283:A 0.000181471
13 *2281:B *122:100 1.46586e-05
14 *2281:B *580:12 5.50106e-05
15 *121:12 *2348:S 1.83667e-05
16 *121:12 *153:31 1.14452e-05
17 *121:12 *281:10 6.11286e-05
18 *121:19 *2298:D 9.41704e-05
19 *121:19 *2312:D 0.000221997
20 *121:19 *122:68 0.000226306
21 *121:19 *123:94 6.53382e-05
22 *121:28 *122:68 0.000141954
23 *121:41 *583:8 3.92407e-05
24 *121:41 *587:10 2.98648e-05
25 *121:41 *602:10 0.000181131
26 *121:41 *733:39 8.62783e-05
27 *2281:A *2281:B 2.18506e-05
28 *2285:A1 *2281:B 4.00259e-06
29 *2296:B *121:19 5.50106e-05
30 *2344:A0 *121:12 0.000101575
31 *117:33 *121:19 0.000139357
32 *117:45 *2296:A 0
33 *117:45 *121:19 6.67283e-05
34 *117:45 *121:28 1.56665e-05
35 *117:45 *121:41 0.000151634
36 *117:66 *2281:B 4.2062e-05
37 *117:66 *121:41 7.56417e-05
38 *118:31 *121:19 0.000310641
39 *118:55 *121:19 1.41129e-05
40 *118:93 *121:41 2.35393e-05
41 *118:110 *121:41 1.89075e-05
42 *119:64 *121:28 0.000441076
43 *119:64 *121:41 8.6949e-05
*RES
1 *2499:Q *121:4 23 
2 *121:4 *121:12 38.1096 
3 *121:12 *2348:A0 23 
4 *121:4 *121:19 10.3882 
5 *121:19 *2296:A 23.4971 
6 *121:19 *121:28 5.38571 
7 *121:28 *2290:A 23 
8 *121:28 *121:41 36.9186 
9 *121:41 *2285:B2 23 
10 *121:41 *2281:B 27.9507 
*END

*D_NET *122 0.0159651
*CONN
*I *2349:A0 I *D sky130_fd_sc_hd__mux2_1
*I *2315:A I *D sky130_fd_sc_hd__nand2_1
*I *2284:A I *D sky130_fd_sc_hd__and3_1
*I *2283:A I *D sky130_fd_sc_hd__nand2_1
*I *2285:A2 I *D sky130_fd_sc_hd__a22oi_1
*I *2289:A1 I *D sky130_fd_sc_hd__a22o_1
*I *2288:B I *D sky130_fd_sc_hd__nand4_1
*I *2297:A I *D sky130_fd_sc_hd__and2_1
*I *2325:A1 I *D sky130_fd_sc_hd__a31o_1
*I *2500:Q O *D sky130_fd_sc_hd__dfstp_2
*CAP
1 *2349:A0 0
2 *2315:A 0
3 *2284:A 0.000108615
4 *2283:A 0.000138582
5 *2285:A2 0
6 *2289:A1 5.72359e-05
7 *2288:B 0
8 *2297:A 0.000347079
9 *2325:A1 9.92686e-05
10 *2500:Q 0.000489776
11 *122:100 0.00014271
12 *122:96 0.000333229
13 *122:83 0.000560385
14 *122:72 0.000669334
15 *122:68 0.000729218
16 *122:47 0.000818464
17 *122:43 0.000194364
18 *122:24 0.00046771
19 *122:20 0.00252027
20 *122:10 0.00270713
21 *2283:A *580:12 3.97681e-05
22 *2283:A *580:23 2.4754e-05
23 *2284:A *2286:B 5.3304e-05
24 *2284:A *740:30 0.000164291
25 *2289:A1 *587:10 5.3304e-05
26 *2289:A1 *602:10 3.3577e-05
27 *2297:A *123:51 0
28 *2297:A *592:10 0
29 *2297:A *594:10 0
30 *2325:A1 *2325:A3 2.02872e-05
31 *2325:A1 *2325:B1 2.36373e-06
32 *2325:A1 *123:45 5.94125e-05
33 *2325:A1 *733:49 9.5877e-05
34 *122:10 *2341:A0 0.000167443
35 *122:10 *2341:S 0.000139647
36 *122:10 *2500:D 7.44257e-05
37 *122:10 *154:27 8.62783e-05
38 *122:10 *286:8 0
39 *122:10 *350:37 0
40 *122:10 *354:33 6.17437e-06
41 *122:20 *2336:S 7.44257e-05
42 *122:20 *2502:CLK 0.000170529
43 *122:20 *2502:D 5.12254e-05
44 *122:20 *2502:SET_B 1.53169e-05
45 *122:20 *2546:SET_B 0.000111824
46 *122:20 *124:8 2.32834e-05
47 *122:20 *150:14 2.86109e-05
48 *122:20 *150:29 0
49 *122:20 *150:42 2.07242e-05
50 *122:20 *350:37 0
51 *122:20 *703:63 0.000373337
52 *122:20 *744:10 0
53 *122:24 *123:39 0.000275473
54 *122:24 *123:45 0.000422629
55 *122:24 *124:14 3.81554e-05
56 *122:24 *124:64 5.0449e-05
57 *122:24 *619:8 8.76088e-05
58 *122:24 *620:10 0
59 *122:43 *123:51 0
60 *122:43 *610:10 9.84794e-05
61 *122:47 *123:51 0
62 *122:68 *592:10 8.62783e-05
63 *122:68 *614:12 0
64 *122:83 *585:8 7.43025e-06
65 *122:83 *587:10 8.4047e-05
66 *122:83 *587:36 5.50106e-05
67 *122:83 *740:30 5.31444e-05
68 *122:96 *740:30 0.000120554
69 *2281:A *2283:A 8.19838e-05
70 *2281:A *122:100 1.55941e-05
71 *2281:B *2283:A 0.000181471
72 *2281:B *122:100 1.46586e-05
73 *2283:B *2283:A 0.000108798
74 *2284:B *2284:A 7.80354e-05
75 *2284:B *122:96 1.14452e-05
76 *2285:A1 *2283:A 0
77 *2296:B *2297:A 2.71291e-05
78 *2296:B *122:47 9.04083e-05
79 *2325:A2 *2325:A1 5.3304e-05
80 *2325:A2 *122:43 9.84794e-05
81 *117:33 *2297:A 5.62433e-05
82 *117:66 *2283:A 0
83 *118:67 *122:72 0.000530622
84 *118:84 *122:72 5.50106e-05
85 *118:84 *122:83 0.000178235
86 *118:84 *122:96 2.5694e-05
87 *118:93 *122:96 0.000163343
88 *118:110 *122:96 8.94487e-05
89 *119:49 *2297:A 6.16439e-05
90 *119:64 *2297:A 0
91 *119:64 *122:68 2.24973e-05
92 *120:23 *122:24 0
93 *121:19 *122:68 0.000226306
94 *121:28 *122:68 0.000141954
*RES
1 *2500:Q *122:10 46.2029 
2 *122:10 *122:20 49.365 
3 *122:20 *122:24 24.3007 
4 *122:24 *2325:A1 40.4443 
5 *122:24 *122:43 16.7193 
6 *122:43 *122:47 17.61 
7 *122:47 *2297:A 42.785 
8 *122:47 *122:68 36.5664 
9 *122:68 *122:72 21.3386 
10 *122:72 *2288:B 23 
11 *122:72 *122:83 19.5571 
12 *122:83 *2289:A1 39.0979 
13 *122:83 *122:96 4.28786 
14 *122:96 *122:100 15.1709 
15 *122:100 *2285:A2 23 
16 *122:100 *2283:A 27.7384 
17 *122:96 *2284:A 40.8793 
18 *122:43 *2315:A 23 
19 *122:10 *2349:A0 38 
*END

*D_NET *123 0.0187677
*CONN
*I *2327:B2 I *D sky130_fd_sc_hd__a22o_1
*I *2324:A I *D sky130_fd_sc_hd__nand4_1
*I *2312:B I *D sky130_fd_sc_hd__and4_1
*I *2299:A2 I *D sky130_fd_sc_hd__a22oi_1
*I *2313:A1 I *D sky130_fd_sc_hd__a22o_1
*I *2298:C I *D sky130_fd_sc_hd__and4_1
*I *2288:D I *D sky130_fd_sc_hd__nand4_1
*I *2289:B1 I *D sky130_fd_sc_hd__a22o_1
*I *2350:A0 I *D sky130_fd_sc_hd__mux2_1
*I *2501:Q O *D sky130_fd_sc_hd__dfstp_2
*CAP
1 *2327:B2 0
2 *2324:A 0
3 *2312:B 0
4 *2299:A2 0.00010097
5 *2313:A1 0
6 *2298:C 4.99221e-05
7 *2288:D 0
8 *2289:B1 0
9 *2350:A0 0
10 *2501:Q 0
11 *123:141 0.000247642
12 *123:131 0.000258417
13 *123:111 0.00016345
14 *123:102 0.000177156
15 *123:94 0.000393318
16 *123:71 0.00021212
17 *123:61 0.000627461
18 *123:51 0.000588383
19 *123:45 0.000560474
20 *123:39 0.00128167
21 *123:35 0.00301337
22 *123:14 0.000623984
23 *123:4 0.00265013
24 *2299:A2 *594:10 0
25 *123:14 *2342:A1 0.000115141
26 *123:14 *2350:S 5.50049e-05
27 *123:14 *2448:A0 6.93553e-05
28 *123:14 *2501:SET_B 7.88828e-05
29 *123:14 *2552:SET_B 4.5051e-05
30 *123:14 *354:14 0
31 *123:14 *703:170 1.21972e-05
32 *123:35 *2405:A 4.79612e-05
33 *123:35 *2406:B 0.000200069
34 *123:35 *128:38 0.000374564
35 *123:35 *130:119 3.2839e-06
36 *123:35 *668:8 9.84794e-05
37 *123:35 *671:10 0.000305425
38 *123:35 *672:14 4.6318e-06
39 *123:35 *673:12 2.71291e-05
40 *123:35 *682:10 0.000392386
41 *123:35 *703:164 0.000468525
42 *123:35 *703:170 9.86742e-05
43 *123:35 *733:83 0
44 *123:39 *2330:A 2.04774e-05
45 *123:39 *124:64 0
46 *123:39 *129:43 0
47 *123:39 *129:58 0
48 *123:39 *130:119 0
49 *123:39 *620:10 6.28591e-05
50 *123:39 *655:10 0.000105154
51 *123:39 *660:8 4.23817e-05
52 *123:39 *661:35 0
53 *123:39 *662:10 2.29192e-05
54 *123:39 *662:25 0
55 *123:39 *675:8 0
56 *123:39 *733:73 0
57 *123:39 *733:83 0
58 *123:45 *124:14 0.000382595
59 *123:45 *124:29 0.000125413
60 *123:51 *2299:B1 3.4702e-05
61 *123:51 *124:29 8.72173e-05
62 *123:61 *2300:A 1.98161e-05
63 *123:61 *2300:C 0.000142908
64 *123:61 *594:10 0.000110913
65 *123:71 *2292:C 1.83667e-05
66 *123:71 *585:8 0.00010018
67 *123:71 *587:10 7.64851e-06
68 *123:71 *602:10 0
69 *123:71 *603:10 2.18506e-05
70 *123:102 *607:8 0.000165593
71 *123:111 *124:29 6.7177e-06
72 *123:141 *2327:A2 8.37527e-05
73 *123:141 *621:8 0.000140958
74 *123:141 *733:73 0.000218952
75 *2288:A *123:71 0.000131316
76 *2288:C *123:71 1.14154e-05
77 *2297:A *123:51 0
78 *2299:A1 *2299:A2 0.000140949
79 *2299:A1 *123:111 1.14452e-05
80 *2323:B *123:39 0
81 *2325:A1 *123:45 5.94125e-05
82 *117:18 *2299:A2 1.55941e-05
83 *117:33 *123:51 5.27196e-05
84 *117:33 *123:61 0.000163686
85 *118:31 *123:94 4.08664e-05
86 *118:31 *123:102 0.000139352
87 *118:35 *123:111 7.48331e-05
88 *118:55 *2298:C 5.3304e-05
89 *118:67 *123:61 0.000660144
90 *118:67 *123:71 2.18409e-05
91 *118:84 *123:71 0.000197828
92 *119:37 *2299:A2 1.83667e-05
93 *119:37 *123:102 0.000163361
94 *119:37 *123:111 4.60263e-05
95 *119:43 *2299:A2 4.56547e-05
96 *119:43 *123:61 9.41704e-05
97 *119:64 *123:61 0.000187609
98 *119:95 *123:45 9.41704e-05
99 *119:95 *123:131 5.50106e-05
100 *119:95 *123:141 0.000124507
101 *119:114 *123:141 1.56762e-05
102 *120:21 *123:45 3.16784e-05
103 *120:21 *123:131 1.22822e-05
104 *120:21 *123:141 7.4416e-05
105 *121:19 *123:94 6.53382e-05
106 *122:24 *123:39 0.000275473
107 *122:24 *123:45 0.000422629
108 *122:43 *123:51 0
109 *122:47 *123:51 0
*RES
1 *2501:Q *123:4 23 
2 *123:4 *123:14 39.6943 
3 *123:14 *2350:A0 23 
4 *123:4 *123:35 48.7539 
5 *123:35 *123:39 32.5968 
6 *123:39 *123:45 23.99 
7 *123:45 *123:51 2.67214 
8 *123:51 *123:61 27.8221 
9 *123:61 *123:71 35.6343 
10 *123:71 *2289:B1 23 
11 *123:61 *2288:D 23 
12 *123:51 *2298:C 38.6214 
13 *123:45 *123:94 17.0507 
14 *123:94 *123:102 33.8321 
15 *123:102 *2313:A1 23 
16 *123:94 *123:111 16.5536 
17 *123:111 *2299:A2 40.4287 
18 *123:111 *2312:B 38 
19 *123:39 *123:131 0.621429 
20 *123:131 *123:141 36.9393 
21 *123:141 *2324:A 23 
22 *123:131 *2327:B2 23 
*END

*D_NET *124 0.00788662
*CONN
*I *2323:A I *D sky130_fd_sc_hd__nand2_1
*I *2324:C I *D sky130_fd_sc_hd__nand4_1
*I *2327:A2 I *D sky130_fd_sc_hd__a22o_1
*I *2351:A0 I *D sky130_fd_sc_hd__mux2_1
*I *2298:D I *D sky130_fd_sc_hd__and4_1
*I *2312:D I *D sky130_fd_sc_hd__and4_1
*I *2299:B1 I *D sky130_fd_sc_hd__a22oi_1
*I *2313:B1 I *D sky130_fd_sc_hd__a22o_1
*I *2502:Q O *D sky130_fd_sc_hd__dfstp_1
*CAP
1 *2323:A 2.94841e-05
2 *2324:C 1.50079e-05
3 *2327:A2 0.000120497
4 *2351:A0 0.000456404
5 *2298:D 3.20476e-05
6 *2312:D 9.21112e-05
7 *2299:B1 0.000105422
8 *2313:B1 0.000275136
9 *2502:Q 0.000168431
10 *124:79 0.000258479
11 *124:75 0.000488576
12 *124:64 0.00104491
13 *124:42 0.000124159
14 *124:29 0.000249232
15 *124:14 0.000745202
16 *124:8 0.000747078
17 *2299:B1 *594:10 0.000108681
18 *2313:B1 *2325:B1 7.99127e-05
19 *2313:B1 *2581:A 9.72057e-06
20 *2313:B1 *733:49 0.000136743
21 *2323:A *617:8 1.94812e-05
22 *2324:C *2328:B 5.50049e-05
23 *2324:C *622:10 5.50049e-05
24 *2327:A2 *621:8 0.000135547
25 *2351:A0 *2351:A1 5.67058e-05
26 *2351:A0 *2351:S 2.4754e-05
27 *124:14 *610:10 0.000197479
28 *124:75 *2333:A2 0
29 *124:75 *2333:C1 0
30 *124:79 *621:8 3.47781e-05
31 *124:79 *733:73 0.000100133
32 *2299:A1 *2299:B1 6.6869e-05
33 *2312:C *2312:D 2.93845e-05
34 *2323:B *2327:A2 6.07611e-06
35 *2323:B *124:75 5.50106e-05
36 *2323:B *124:79 0.000116321
37 *117:18 *2299:B1 5.67058e-05
38 *118:23 *2313:B1 5.90675e-06
39 *118:35 *2299:B1 1.58805e-05
40 *118:35 *124:29 2.24973e-05
41 *118:48 *2312:D 5.50106e-05
42 *118:55 *2298:D 8.43466e-05
43 *118:55 *2312:D 5.50049e-05
44 *119:35 *124:14 0
45 *119:37 *124:14 0
46 *119:37 *124:29 0
47 *119:43 *2299:B1 5.50049e-05
48 *119:95 *124:14 0
49 *119:114 *2327:A2 9.95097e-05
50 *120:52 *2327:A2 2.24973e-05
51 *120:65 *2327:A2 2.60152e-05
52 *121:19 *2298:D 9.41704e-05
53 *121:19 *2312:D 0.000221997
54 *122:20 *124:8 2.32834e-05
55 *122:24 *124:14 3.81554e-05
56 *122:24 *124:64 5.0449e-05
57 *123:39 *124:64 0
58 *123:45 *124:14 0.000382595
59 *123:45 *124:29 0.000125413
60 *123:51 *2299:B1 3.4702e-05
61 *123:51 *124:29 8.72173e-05
62 *123:111 *124:29 6.7177e-06
63 *123:141 *2327:A2 8.37527e-05
*RES
1 *2502:Q *124:8 40.2889 
2 *124:8 *124:14 8.65857 
3 *124:14 *2313:B1 42.1221 
4 *124:14 *124:29 2.96214 
5 *124:29 *2299:B1 40.8793 
6 *124:29 *124:42 15 
7 *124:42 *2312:D 25.5271 
8 *124:42 *2298:D 24.0979 
9 *124:8 *124:64 20.1371 
10 *124:64 *2351:A0 31.2443 
11 *124:64 *124:75 5.88286 
12 *124:75 *124:79 18.3143 
13 *124:79 *2327:A2 41.2314 
14 *124:79 *2324:C 38.6214 
15 *124:75 *2323:A 23.6214 
*END

*D_NET *125 0.00990728
*CONN
*I *2402:A I *D sky130_fd_sc_hd__and4_1
*I *2403:B2 I *D sky130_fd_sc_hd__a22o_1
*I *2395:B2 I *D sky130_fd_sc_hd__a22oi_1
*I *2387:A I *D sky130_fd_sc_hd__and4_1
*I *2389:A1 I *D sky130_fd_sc_hd__a22o_1
*I *2385:A I *D sky130_fd_sc_hd__and2_1
*I *2394:A I *D sky130_fd_sc_hd__and4_1
*I *2336:A0 I *D sky130_fd_sc_hd__mux2_1
*I *2487:Q O *D sky130_fd_sc_hd__dfstp_1
*CAP
1 *2402:A 0.000202446
2 *2403:B2 0
3 *2395:B2 0
4 *2387:A 0
5 *2389:A1 0
6 *2385:A 6.28405e-05
7 *2394:A 0
8 *2336:A0 0.000101643
9 *2487:Q 0.000112508
10 *125:90 0.000225675
11 *125:82 0.000649301
12 *125:71 0.000222362
13 *125:58 0.000222362
14 *125:42 0.000248796
15 *125:34 0.000308147
16 *125:23 0.000525169
17 *125:19 0.00101372
18 *125:8 0.000603715
19 *2336:A0 *2336:S 0.000138727
20 *2336:A0 *703:16 4.1251e-05
21 *2336:A0 *703:18 1.86869e-05
22 *2336:A0 *746:51 1.69668e-05
23 *2385:A *2385:B 0
24 *2385:A *2389:B1 0.000137618
25 *2385:A *2390:C_N 5.67058e-05
26 *2385:A *129:39 0.000102093
27 *2402:A *128:38 2.4754e-05
28 *2402:A *130:46 0.0002263
29 *125:8 *153:27 1.04374e-05
30 *125:19 *2336:S 0.000290884
31 *125:19 *2338:A0 0
32 *125:19 *2339:A0 0.000302348
33 *125:19 *2490:SET_B 3.40853e-05
34 *125:19 *126:10 0
35 *125:19 *126:21 0
36 *125:19 *128:25 0.000343324
37 *125:19 *354:45 0.000139647
38 *125:19 *701:150 0
39 *125:19 *703:16 0.000130045
40 *125:23 *126:25 0.000174301
41 *125:23 *126:29 0.000575797
42 *125:23 *703:8 0.000198206
43 *125:34 *126:29 9.58714e-05
44 *125:34 *126:40 4.16764e-05
45 *125:34 *126:42 1.19796e-05
46 *125:34 *130:69 0.000158229
47 *125:42 *2340:A0 2.76611e-06
48 *125:42 *2387:B 6.21275e-05
49 *125:42 *126:42 1.69668e-05
50 *125:42 *130:69 6.48142e-05
51 *125:42 *130:75 0.000104844
52 *125:71 *2387:C 2.64616e-05
53 *125:71 *2387:D 7.44161e-06
54 *125:71 *126:40 4.17929e-05
55 *125:71 *126:74 9.41704e-05
56 *125:71 *129:43 0.000135557
57 *125:71 *129:58 5.55911e-05
58 *125:71 *130:69 5.12254e-05
59 *125:71 *661:8 0.000110922
60 *125:71 *661:12 2.93845e-05
61 *125:82 *128:25 0.000164282
62 *125:82 *130:29 1.24376e-05
63 *125:82 *130:46 0.000122599
64 *125:82 *701:144 0
65 *125:82 *701:150 0
66 *125:90 *2494:CLK 0.000163352
67 *125:90 *131:16 1.21972e-05
68 *125:90 *131:25 0.000228909
69 *125:90 *132:32 2.99898e-05
70 *125:90 *132:43 0.000199277
71 *125:90 *156:46 0.000290624
72 *125:90 *280:10 0
73 *125:90 *701:144 0
74 *125:90 *703:156 0.000110922
*RES
1 *2487:Q *125:8 39.3361 
2 *125:8 *2336:A0 40.61 
3 *125:8 *125:19 12.1179 
4 *125:19 *125:23 26.5793 
5 *125:23 *2394:A 23 
6 *125:23 *125:34 18.3557 
7 *125:34 *125:42 19.0807 
8 *125:42 *2385:A 25.5479 
9 *125:42 *2389:A1 23 
10 *125:34 *125:58 15 
11 *125:58 *2387:A 23 
12 *125:58 *125:71 35.1371 
13 *125:71 *2395:B2 23 
14 *125:19 *125:82 18.8321 
15 *125:82 *125:90 37.0221 
16 *125:90 *2403:B2 23 
17 *125:82 *2402:A 26.5007 
*END

*D_NET *126 0.0126998
*CONN
*I *2415:B2 I *D sky130_fd_sc_hd__a22o_1
*I *2414:A I *D sky130_fd_sc_hd__and3_1
*I *2403:A1 I *D sky130_fd_sc_hd__a22o_1
*I *2402:B I *D sky130_fd_sc_hd__and4_1
*I *2395:A2 I *D sky130_fd_sc_hd__a22oi_1
*I *2387:D I *D sky130_fd_sc_hd__and4_1
*I *2389:B1 I *D sky130_fd_sc_hd__a22o_1
*I *2394:C I *D sky130_fd_sc_hd__and4_1
*I *2337:A0 I *D sky130_fd_sc_hd__mux2_1
*I *2488:Q O *D sky130_fd_sc_hd__dfstp_1
*CAP
1 *2415:B2 0.000260415
2 *2414:A 0.000170057
3 *2403:A1 0.000184946
4 *2402:B 0
5 *2395:A2 0.000147966
6 *2387:D 4.70746e-05
7 *2389:B1 0.000215985
8 *2394:C 0
9 *2337:A0 0.000596306
10 *2488:Q 0.000186457
11 *126:111 0.000648986
12 *126:89 0.000259557
13 *126:74 0.000383265
14 *126:42 0.000325059
15 *126:40 0.000414849
16 *126:29 0.000300068
17 *126:25 0.000926496
18 *126:21 0.00113301
19 *126:10 0.00102789
20 *2337:A0 *2490:CLK 3.3577e-05
21 *2337:A0 *2490:D 0.000134065
22 *2337:A0 *150:29 4.93341e-05
23 *2337:A0 *354:45 2.61078e-05
24 *2387:D *2387:C 6.17437e-06
25 *2387:D *661:12 7.53384e-06
26 *2389:B1 *2340:A0 0
27 *2389:B1 *129:39 2.35625e-05
28 *2389:B1 *129:43 3.31683e-05
29 *2389:B1 *130:75 0.000138718
30 *2389:B1 *655:10 0
31 *2395:A2 *2393:A 0.000268603
32 *2395:A2 *2393:B 0.000136358
33 *2395:A2 *662:10 9.67842e-05
34 *2403:A1 *2402:D 0.000278316
35 *2403:A1 *131:31 0.000228051
36 *2403:A1 *131:41 1.14452e-05
37 *2403:A1 *682:10 4.52821e-05
38 *2414:A *2494:CLK 2.93747e-05
39 *2414:A *131:16 0.000178233
40 *2414:A *131:25 0
41 *2414:A *132:32 0.000209317
42 *2414:A *132:43 0
43 *2415:B2 *2343:A0 1.22822e-05
44 *2415:B2 *2415:A1 0.00013635
45 *2415:B2 *2415:A2 5.50049e-05
46 *2415:B2 *127:21 0.000216721
47 *2415:B2 *132:12 3.21327e-05
48 *2415:B2 *701:144 6.7177e-06
49 *126:10 *2488:SET_B 1.06929e-05
50 *126:10 *2490:SET_B 9.33529e-06
51 *126:10 *151:38 0
52 *126:10 *276:8 3.98859e-05
53 *126:21 *2338:A0 0.000169683
54 *126:21 *127:21 0.000136746
55 *126:21 *151:38 0
56 *126:21 *748:35 0
57 *126:21 *748:44 0
58 *126:29 *2404:A_N 5.67058e-05
59 *126:29 *131:41 0.000496166
60 *126:40 *131:41 5.67058e-05
61 *126:40 *131:48 4.17736e-05
62 *126:40 *661:8 8.62876e-05
63 *126:42 *129:43 1.69668e-05
64 *126:42 *130:75 5.24393e-05
65 *126:42 *661:8 8.72173e-05
66 *126:74 *129:43 0.000110922
67 *126:74 *129:58 1.14452e-05
68 *126:74 *661:12 2.98648e-05
69 *126:74 *662:10 3.83778e-05
70 *126:89 *131:41 8.62876e-05
71 *126:111 *127:21 0.000343073
72 *126:111 *748:44 0
73 *2385:A *2389:B1 0.000137618
74 *125:19 *126:10 0
75 *125:19 *126:21 0
76 *125:23 *126:25 0.000174301
77 *125:23 *126:29 0.000575797
78 *125:34 *126:29 9.58714e-05
79 *125:34 *126:40 4.16764e-05
80 *125:34 *126:42 1.19796e-05
81 *125:42 *126:42 1.69668e-05
82 *125:71 *2387:D 7.44161e-06
83 *125:71 *126:40 4.17929e-05
84 *125:71 *126:74 9.41704e-05
*RES
1 *2488:Q *126:10 41.3454 
2 *126:10 *2337:A0 46.2443 
3 *126:10 *126:21 5.77929 
4 *126:21 *126:25 23.7207 
5 *126:25 *126:29 8.61714 
6 *126:29 *2394:C 23 
7 *126:29 *126:40 18.3557 
8 *126:40 *126:42 1.90571 
9 *126:42 *2389:B1 43.0336 
10 *126:42 *2387:D 38.6214 
11 *126:40 *126:74 48.6043 
12 *126:74 *2395:A2 27.7643 
13 *126:25 *126:89 16.2014 
14 *126:89 *2402:B 38 
15 *126:89 *2403:A1 43.1371 
16 *126:21 *126:111 4.72286 
17 *126:111 *2414:A 43.4271 
18 *126:111 *2415:B2 44.3386 
*END

*D_NET *127 0.00996672
*CONN
*I *2416:A1 I *D sky130_fd_sc_hd__a21bo_1
*I *2427:A1 I *D sky130_fd_sc_hd__a22o_1
*I *2426:B I *D sky130_fd_sc_hd__and4_1
*I *2401:B I *D sky130_fd_sc_hd__nand2_1
*I *2393:B I *D sky130_fd_sc_hd__and2_1
*I *2419:A2 I *D sky130_fd_sc_hd__a31o_1
*I *2429:A1 I *D sky130_fd_sc_hd__a22o_1
*I *2415:A2 I *D sky130_fd_sc_hd__a22o_1
*I *2338:A0 I *D sky130_fd_sc_hd__mux2_1
*I *2489:Q O *D sky130_fd_sc_hd__dfstp_2
*CAP
1 *2416:A1 0
2 *2427:A1 0
3 *2426:B 0
4 *2401:B 0
5 *2393:B 0.00049501
6 *2419:A2 0
7 *2429:A1 0
8 *2415:A2 4.75095e-05
9 *2338:A0 0.000292194
10 *2489:Q 0
11 *127:113 0.000213886
12 *127:96 0.000416099
13 *127:64 0.000629257
14 *127:62 0.000510816
15 *127:53 0.00047257
16 *127:38 0.000413911
17 *127:34 0.00030337
18 *127:21 0.000520834
19 *127:6 0.000577844
20 *2338:A0 *2338:S 5.70419e-05
21 *2338:A0 *701:150 4.334e-05
22 *2393:B *2393:A 3.96243e-05
23 *2393:B *2395:B1 0.000134782
24 *2393:B *130:61 6.07611e-06
25 *2393:B *130:63 6.33614e-05
26 *2393:B *130:69 4.6318e-06
27 *2393:B *131:41 5.67058e-05
28 *2393:B *131:48 9.84794e-05
29 *2393:B *131:52 4.23714e-05
30 *2415:A2 *2343:A0 4.9662e-05
31 *2415:A2 *680:8 6.17437e-06
32 *127:21 *701:144 0.000273117
33 *127:21 *701:150 6.51012e-05
34 *127:34 *2343:A0 0.000241075
35 *127:34 *2343:S 5.67058e-05
36 *127:34 *2416:A2 1.16183e-05
37 *127:34 *2429:A2 1.76557e-05
38 *127:34 *156:33 2.4754e-05
39 *127:34 *156:46 7.88828e-05
40 *127:34 *679:12 2.20313e-05
41 *127:34 *680:8 0.00035292
42 *127:38 *2416:A2 3.91386e-05
43 *127:38 *2429:A2 0.000355822
44 *127:38 *2429:B1 7.73389e-05
45 *127:38 *680:8 5.98028e-05
46 *127:53 *2418:B 0
47 *127:53 *2429:A2 5.67943e-05
48 *127:53 *2429:B1 3.91386e-05
49 *127:53 *128:51 0
50 *127:53 *682:10 0
51 *127:62 *2419:A3 2.93845e-05
52 *127:62 *130:57 2.9938e-05
53 *127:62 *669:6 6.17437e-06
54 *127:62 *684:8 0.000226295
55 *127:64 *128:51 0.00021039
56 *127:64 *130:61 8.68016e-06
57 *127:64 *131:52 6.92421e-05
58 *127:96 *2427:A2 4.34745e-05
59 *127:96 *2427:B2 4.09412e-06
60 *127:96 *128:51 0.000397074
61 *127:96 *131:52 0.000125013
62 *127:96 *132:62 1.32314e-05
63 *127:96 *683:14 3.52912e-05
64 *127:113 *2427:A2 0.000251429
65 *127:113 *2427:B2 1.57799e-05
66 *127:113 *128:96 3.87221e-06
67 *127:113 *132:68 0
68 *127:113 *579:27 0
69 *127:113 *683:14 0.000160875
70 *127:113 *691:8 1.14452e-05
71 *2395:A2 *2393:B 0.000136358
72 *2415:B2 *2415:A2 5.50049e-05
73 *2415:B2 *127:21 0.000216721
74 *125:19 *2338:A0 0
75 *126:21 *2338:A0 0.000169683
76 *126:21 *127:21 0.000136746
77 *126:111 *127:21 0.000343073
*RES
1 *2489:Q *127:6 38 
2 *127:6 *2338:A0 44.2143 
3 *127:6 *127:21 24.3007 
4 *127:21 *2415:A2 24.0979 
5 *127:21 *127:34 7.45714 
6 *127:34 *127:38 4.80571 
7 *127:38 *2429:A1 23 
8 *127:38 *127:53 35.3857 
9 *127:53 *2419:A2 23 
10 *127:53 *127:62 18.9564 
11 *127:62 *127:64 3.31429 
12 *127:64 *2393:B 46.9071 
13 *127:64 *2401:B 38 
14 *127:62 *127:96 21.5457 
15 *127:96 *2426:B 23 
16 *127:96 *127:113 34.495 
17 *127:113 *2427:A1 23 
18 *127:34 *2416:A1 23 
*END

*D_NET *128 0.0104147
*CONN
*I *2406:B I *D sky130_fd_sc_hd__and3_1
*I *2427:B1 I *D sky130_fd_sc_hd__a22o_1
*I *2426:D I *D sky130_fd_sc_hd__and4_1
*I *2433:A2 I *D sky130_fd_sc_hd__a22o_1
*I *2434:B I *D sky130_fd_sc_hd__nand4_1
*I *2407:A2 I *D sky130_fd_sc_hd__a21o_1
*I *2417:B I *D sky130_fd_sc_hd__and2_1
*I *2339:A0 I *D sky130_fd_sc_hd__mux2_1
*I *2490:Q O *D sky130_fd_sc_hd__dfstp_1
*CAP
1 *2406:B 0.000165195
2 *2427:B1 0
3 *2426:D 0
4 *2433:A2 0.000155778
5 *2434:B 0
6 *2407:A2 0
7 *2417:B 0
8 *2339:A0 0.000115378
9 *2490:Q 3.07853e-05
10 *128:96 0.000448921
11 *128:61 0.000300386
12 *128:53 0.000144608
13 *128:51 0.000850975
14 *128:45 0.000590731
15 *128:38 0.00074981
16 *128:25 0.000973992
17 *128:8 0.000393827
18 *2339:A0 *152:29 2.93845e-05
19 *2339:A0 *152:42 7.53384e-06
20 *2339:A0 *354:60 5.3304e-05
21 *2339:A0 *703:10 5.01986e-05
22 *2339:A0 *703:16 0.000249909
23 *2406:B *2406:C 7.22308e-05
24 *2406:B *2408:A_N 2.02517e-05
25 *2406:B *2408:B 0.000139357
26 *2406:B *671:10 5.3304e-05
27 *2406:B *671:14 9.41704e-05
28 *2433:A2 *2431:B 0.000167987
29 *2433:A2 *2433:B1 1.14154e-05
30 *2433:A2 *2434:C 0.0001638
31 *2433:A2 *691:12 6.17437e-06
32 *2433:A2 *691:14 4.67488e-05
33 *2433:A2 *694:12 5.50106e-05
34 *2433:A2 *694:19 4.34745e-05
35 *2433:A2 *701:122 1.57571e-05
36 *128:8 *2491:SET_B 3.28708e-05
37 *128:25 *130:46 5.3304e-05
38 *128:25 *701:144 0
39 *128:25 *703:10 0.000299178
40 *128:25 *703:156 0.000256767
41 *128:25 *703:164 5.3304e-05
42 *128:38 *2402:D 0.000136743
43 *128:38 *2405:A 0.000308012
44 *128:38 *2406:A 9.48923e-06
45 *128:38 *130:46 0.000253028
46 *128:38 *703:164 1.24376e-05
47 *128:51 *2405:A 7.53384e-06
48 *128:51 *2419:B1 0
49 *128:51 *130:61 0.000135547
50 *128:51 *671:10 0.000181125
51 *128:51 *687:14 0
52 *128:61 *132:62 0.000227208
53 *128:61 *132:68 0
54 *128:61 *683:14 0.000128391
55 *128:61 *687:14 1.01436e-05
56 *128:61 *694:8 8.85189e-05
57 *128:96 *650:29 0
58 *2402:A *128:38 2.4754e-05
59 *123:35 *2406:B 0.000200069
60 *123:35 *128:38 0.000374564
61 *125:19 *2339:A0 0.000302348
62 *125:19 *128:25 0.000343324
63 *125:82 *128:25 0.000164282
64 *127:53 *128:51 0
65 *127:64 *128:51 0.00021039
66 *127:96 *128:51 0.000397074
67 *127:113 *128:96 3.87221e-06
*RES
1 *2490:Q *128:8 38.3832 
2 *128:8 *2339:A0 42.64 
3 *128:8 *128:25 23.1614 
4 *128:25 *2417:B 23 
5 *128:25 *128:38 15.3286 
6 *128:38 *2407:A2 23 
7 *128:38 *128:45 0.497143 
8 *128:45 *128:51 25.6471 
9 *128:51 *128:53 15 
10 *128:53 *128:61 34.4329 
11 *128:61 *2434:B 23 
12 *128:61 *2433:A2 27.6193 
13 *128:53 *2426:D 23 
14 *128:51 *128:96 32.4709 
15 *128:96 *2427:B1 23 
16 *128:45 *2406:B 28.0957 
*END

*D_NET *129 0.00513613
*CONN
*I *2385:B I *D sky130_fd_sc_hd__and2_1
*I *2406:A I *D sky130_fd_sc_hd__and3_1
*I *2407:A1 I *D sky130_fd_sc_hd__a21o_1
*I *2393:A I *D sky130_fd_sc_hd__and2_1
*I *2389:B2 I *D sky130_fd_sc_hd__a22o_1
*I *2387:B I *D sky130_fd_sc_hd__and4_1
*I *2340:A0 I *D sky130_fd_sc_hd__mux2_1
*I *2491:Q O *D sky130_fd_sc_hd__dfstp_1
*CAP
1 *2385:B 5.16693e-05
2 *2406:A 0.000132027
3 *2407:A1 4.55529e-05
4 *2393:A 7.47345e-05
5 *2389:B2 0
6 *2387:B 0.000286673
7 *2340:A0 0.000509354
8 *2491:Q 7.6124e-05
9 *129:58 0.000313599
10 *129:43 0.000439769
11 *129:39 0.000527752
12 *129:8 0.000796027
13 *129:6 0.000323191
14 *2340:A0 *2340:A1 5.41288e-05
15 *2340:A0 *2340:S 0.00010018
16 *2385:B *2390:C_N 2.16583e-05
17 *2387:B *130:69 7.44257e-05
18 *2393:A *2395:B1 4.12285e-05
19 *2393:A *662:10 2.02872e-05
20 *2406:A *2406:C 0.000125496
21 *2406:A *671:14 2.64616e-05
22 *2407:A1 *671:14 2.93747e-05
23 *129:39 *2390:C_N 1.76557e-05
24 *129:43 *655:10 0
25 *129:43 *661:8 2.60152e-05
26 *129:58 *130:119 0.000101201
27 *129:58 *131:52 4.96264e-05
28 *2385:A *2385:B 0
29 *2385:A *129:39 0.000102093
30 *2389:B1 *2340:A0 0
31 *2389:B1 *129:39 2.35625e-05
32 *2389:B1 *129:43 3.31683e-05
33 *2393:B *2393:A 3.96243e-05
34 *2395:A2 *2393:A 0.000268603
35 *123:39 *129:43 0
36 *123:39 *129:58 0
37 *125:42 *2340:A0 2.76611e-06
38 *125:42 *2387:B 6.21275e-05
39 *125:71 *129:43 0.000135557
40 *125:71 *129:58 5.55911e-05
41 *126:42 *129:43 1.69668e-05
42 *126:74 *129:43 0.000110922
43 *126:74 *129:58 1.14452e-05
44 *128:38 *2406:A 9.48923e-06
*RES
1 *2491:Q *129:6 24.3361 
2 *129:6 *129:8 15 
3 *129:8 *2340:A0 47.6529 
4 *129:8 *2387:B 41.9564 
5 *129:6 *2389:B2 23 
6 *129:6 *129:39 4.45357 
7 *129:39 *129:43 19.7229 
8 *129:43 *2393:A 41.0243 
9 *129:43 *129:58 17.61 
10 *129:58 *2407:A1 23.6214 
11 *129:58 *2406:A 25.6929 
12 *129:39 *2385:B 24.1186 
*END

*D_NET *130 0.0118776
*CONN
*I *2395:A1 I *D sky130_fd_sc_hd__a22oi_1
*I *2401:A I *D sky130_fd_sc_hd__nand2_1
*I *2394:B I *D sky130_fd_sc_hd__and4_1
*I *2387:C I *D sky130_fd_sc_hd__and4_1
*I *2389:A2 I *D sky130_fd_sc_hd__a22o_1
*I *2419:A1 I *D sky130_fd_sc_hd__a31o_1
*I *2417:A I *D sky130_fd_sc_hd__and2_1
*I *2341:A0 I *D sky130_fd_sc_hd__mux2_1
*I *2492:Q O *D sky130_fd_sc_hd__dfstp_1
*CAP
1 *2395:A1 0
2 *2401:A 0
3 *2394:B 4.24857e-05
4 *2387:C 3.39081e-05
5 *2389:A2 0
6 *2419:A1 0.000122694
7 *2417:A 2.34823e-05
8 *2341:A0 0.000356261
9 *2492:Q 2.90312e-05
10 *130:119 0.000572693
11 *130:75 8.41257e-05
12 *130:69 0.00037122
13 *130:63 0.00039746
14 *130:61 0.000202412
15 *130:57 0.0010115
16 *130:46 0.000958504
17 *130:29 0.00137888
18 *130:8 0.00124306
19 *2341:A0 *2341:S 0.000164375
20 *2341:A0 *152:29 0.00035322
21 *2341:A0 *350:37 0
22 *2341:A0 *354:16 0.000169683
23 *2394:B *131:41 5.50106e-05
24 *2419:A1 *2403:A2 3.91386e-05
25 *2419:A1 *2419:A3 0
26 *2419:A1 *131:31 1.4345e-05
27 *2419:A1 *669:6 7.73389e-05
28 *130:8 *2492:SET_B 3.32734e-05
29 *130:29 *2501:SET_B 2.02872e-05
30 *130:29 *354:14 0.000335229
31 *130:29 *354:16 0.000102638
32 *130:29 *703:164 0.000402981
33 *130:29 *703:170 0.000454918
34 *130:29 *703:176 0.000111148
35 *130:29 *745:41 1.69668e-05
36 *130:46 *2402:D 8.68903e-05
37 *130:46 *2403:A2 2.02872e-05
38 *130:46 *131:25 9.17998e-05
39 *130:46 *156:46 0
40 *130:46 *703:164 2.32004e-05
41 *130:57 *2419:A3 4.2573e-05
42 *130:57 *669:6 0.000182826
43 *130:57 *684:8 7.88828e-05
44 *130:61 *669:12 0
45 *130:61 *670:8 0
46 *130:63 *670:8 0
47 *130:69 *669:12 0
48 *130:69 *670:8 0
49 *130:119 *131:52 6.24896e-05
50 *130:119 *671:10 5.94125e-05
51 *130:119 *673:12 3.98859e-05
52 *130:119 *684:8 0.000116554
53 *130:119 *685:10 2.93747e-05
54 *2387:B *130:69 7.44257e-05
55 *2387:D *2387:C 6.17437e-06
56 *2389:B1 *130:75 0.000138718
57 *2393:B *130:61 6.07611e-06
58 *2393:B *130:63 6.33614e-05
59 *2393:B *130:69 4.6318e-06
60 *2402:A *130:46 0.0002263
61 *122:10 *2341:A0 0.000167443
62 *123:35 *130:119 3.2839e-06
63 *123:39 *130:119 0
64 *125:34 *130:69 0.000158229
65 *125:42 *130:69 6.48142e-05
66 *125:42 *130:75 0.000104844
67 *125:71 *2387:C 2.64616e-05
68 *125:71 *130:69 5.12254e-05
69 *125:82 *130:29 1.24376e-05
70 *125:82 *130:46 0.000122599
71 *126:42 *130:75 5.24393e-05
72 *127:62 *130:57 2.9938e-05
73 *127:64 *130:61 8.68016e-06
74 *128:25 *130:46 5.3304e-05
75 *128:38 *130:46 0.000253028
76 *128:51 *130:61 0.000135547
77 *129:58 *130:119 0.000101201
*RES
1 *2492:Q *130:8 38.3832 
2 *130:8 *2341:A0 47.0314 
3 *130:8 *130:29 34.43 
4 *130:29 *2417:A 23.4971 
5 *130:29 *130:46 39.57 
6 *130:46 *2419:A1 26.2521 
7 *130:46 *130:57 5.38571 
8 *130:57 *130:61 17.2579 
9 *130:61 *130:63 1.90571 
10 *130:63 *130:69 20.5929 
11 *130:69 *130:75 32.61 
12 *130:75 *2389:A2 23 
13 *130:69 *2387:C 23.6214 
14 *130:63 *2394:B 38.6214 
15 *130:61 *2401:A 38 
16 *130:57 *130:119 39.3836 
17 *130:119 *2395:A1 23 
*END

*D_NET *131 0.0103283
*CONN
*I *2415:A1 I *D sky130_fd_sc_hd__a22o_1
*I *2342:A0 I *D sky130_fd_sc_hd__mux2_1
*I *2403:A2 I *D sky130_fd_sc_hd__a22o_1
*I *2402:C I *D sky130_fd_sc_hd__and4_1
*I *2395:B1 I *D sky130_fd_sc_hd__a22oi_1
*I *2427:B2 I *D sky130_fd_sc_hd__a22o_1
*I *2426:A I *D sky130_fd_sc_hd__and4_1
*I *2394:D I *D sky130_fd_sc_hd__and4_1
*I *2414:B I *D sky130_fd_sc_hd__and3_1
*I *2493:Q O *D sky130_fd_sc_hd__dfstp_1
*CAP
1 *2415:A1 0.000247554
2 *2342:A0 0.000303511
3 *2403:A2 4.4289e-05
4 *2402:C 0
5 *2395:B1 7.56816e-05
6 *2427:B2 0.000321488
7 *2426:A 0
8 *2394:D 0
9 *2414:B 0
10 *2493:Q 0
11 *131:52 0.000923368
12 *131:48 0.000713224
13 *131:41 0.000497789
14 *131:31 0.000614744
15 *131:25 0.000392281
16 *131:16 0.00109765
17 *131:10 0.00134392
18 *131:4 0.000385686
19 *2342:A0 *2342:A1 5.50049e-05
20 *2342:A0 *2350:S 4.5051e-05
21 *2342:A0 *2552:SET_B 3.46673e-05
22 *2342:A0 *350:37 4.67488e-05
23 *2395:B1 *662:10 8.06804e-06
24 *2415:A1 *2343:A0 4.07999e-05
25 *2427:B2 *2427:A2 3.7122e-06
26 *2427:B2 *683:14 6.74154e-05
27 *131:10 *2493:SET_B 3.28876e-05
28 *131:10 *132:12 0
29 *131:16 *2493:SET_B 2.76611e-06
30 *131:16 *2494:CLK 2.93747e-05
31 *131:16 *2494:SET_B 4.2573e-05
32 *131:16 *2552:SET_B 0.000227208
33 *131:16 *132:6 2.05898e-05
34 *131:16 *132:32 1.51418e-05
35 *131:16 *350:37 2.8936e-05
36 *131:25 *2403:B1 2.02872e-05
37 *131:25 *132:43 2.18409e-05
38 *131:31 *2404:A_N 0
39 *131:31 *682:10 0.000110922
40 *131:41 *2404:A_N 5.50049e-05
41 *131:52 *671:10 6.16439e-05
42 *131:52 *673:12 0
43 *131:52 *683:20 0
44 *131:52 *686:10 0
45 *2393:A *2395:B1 4.12285e-05
46 *2393:B *2395:B1 0.000134782
47 *2393:B *131:41 5.67058e-05
48 *2393:B *131:48 9.84794e-05
49 *2393:B *131:52 4.23714e-05
50 *2394:B *131:41 5.50106e-05
51 *2403:A1 *131:31 0.000228051
52 *2403:A1 *131:41 1.14452e-05
53 *2414:A *131:16 0.000178233
54 *2414:A *131:25 0
55 *2415:B2 *2415:A1 0.00013635
56 *2419:A1 *2403:A2 3.91386e-05
57 *2419:A1 *131:31 1.4345e-05
58 *125:90 *131:16 1.21972e-05
59 *125:90 *131:25 0.000228909
60 *126:29 *131:41 0.000496166
61 *126:40 *131:41 5.67058e-05
62 *126:40 *131:48 4.17736e-05
63 *126:89 *131:41 8.62876e-05
64 *127:64 *131:52 6.92421e-05
65 *127:96 *2427:B2 4.09412e-06
66 *127:96 *131:52 0.000125013
67 *127:113 *2427:B2 1.57799e-05
68 *129:58 *131:52 4.96264e-05
69 *130:46 *2403:A2 2.02872e-05
70 *130:46 *131:25 9.17998e-05
71 *130:119 *131:52 6.24896e-05
*RES
1 *2493:Q *131:4 23 
2 *131:4 *131:10 17.4132 
3 *131:10 *131:16 28.485 
4 *131:16 *2414:B 23 
5 *131:16 *131:25 4.80571 
6 *131:25 *131:31 18.8114 
7 *131:31 *131:41 24.6114 
8 *131:41 *2394:D 23 
9 *131:41 *131:48 1.09786 
10 *131:48 *131:52 25.3571 
11 *131:52 *2426:A 38 
12 *131:52 *2427:B2 43.4064 
13 *131:48 *2395:B1 25.3614 
14 *131:31 *2402:C 38 
15 *131:25 *2403:A2 24.1186 
16 *131:10 *2342:A0 41.9564 
17 *131:4 *2415:A1 28.3132 
*END

*D_NET *132 0.00882273
*CONN
*I *2403:B1 I *D sky130_fd_sc_hd__a22o_1
*I *2434:A I *D sky130_fd_sc_hd__nand4_1
*I *2427:A2 I *D sky130_fd_sc_hd__a22o_1
*I *2426:C I *D sky130_fd_sc_hd__and4_1
*I *2433:A1 I *D sky130_fd_sc_hd__a22o_1
*I *2402:D I *D sky130_fd_sc_hd__and4_1
*I *2414:C I *D sky130_fd_sc_hd__and3_1
*I *2415:B1 I *D sky130_fd_sc_hd__a22o_1
*I *2343:A0 I *D sky130_fd_sc_hd__mux2_1
*I *2494:Q O *D sky130_fd_sc_hd__dfstp_1
*CAP
1 *2403:B1 3.75535e-05
2 *2434:A 0.000296153
3 *2427:A2 0.000143692
4 *2426:C 0
5 *2433:A1 0
6 *2402:D 0.00026146
7 *2414:C 0
8 *2415:B1 0
9 *2343:A0 0.000293131
10 *2494:Q 0.000293549
11 *132:68 9.1335e-05
12 *132:62 0.000603292
13 *132:58 0.000989091
14 *132:45 0.000586132
15 *132:43 0.000200843
16 *132:32 0.000664151
17 *132:12 0.000419753
18 *132:6 0.000921033
19 *2343:A0 *2343:A1 0
20 *2343:A0 *156:33 9.84851e-05
21 *2343:A0 *280:10 5.3304e-05
22 *2402:D *156:46 0
23 *2402:D *682:10 3.35885e-06
24 *2427:A2 *683:14 9.24795e-06
25 *2434:A *2378:A 0
26 *2434:A *701:122 0.000227417
27 *132:6 *2494:SET_B 1.39431e-05
28 *132:6 *2552:SET_B 4.71665e-05
29 *132:58 *2343:S 0
30 *132:58 *2418:B 6.53609e-05
31 *132:58 *156:46 0
32 *132:58 *679:8 0
33 *132:58 *681:8 0
34 *132:58 *682:10 4.90994e-05
35 *132:58 *687:14 0
36 *132:62 *2418:B 7.59794e-05
37 *132:62 *683:14 9.9899e-05
38 *132:62 *687:14 9.84794e-05
39 *132:62 *690:10 9.84794e-05
40 *132:68 *690:10 0.000110922
41 *132:68 *691:8 0
42 *132:68 *691:36 3.70187e-05
43 *2403:A1 *2402:D 0.000278316
44 *2414:A *132:32 0.000209317
45 *2414:A *132:43 0
46 *2415:A1 *2343:A0 4.07999e-05
47 *2415:A2 *2343:A0 4.9662e-05
48 *2415:B2 *2343:A0 1.22822e-05
49 *2415:B2 *132:12 3.21327e-05
50 *2427:B2 *2427:A2 3.7122e-06
51 *125:90 *132:32 2.99898e-05
52 *125:90 *132:43 0.000199277
53 *127:34 *2343:A0 0.000241075
54 *127:96 *2427:A2 4.34745e-05
55 *127:96 *132:62 1.32314e-05
56 *127:113 *2427:A2 0.000251429
57 *127:113 *132:68 0
58 *128:38 *2402:D 0.000136743
59 *128:61 *132:62 0.000227208
60 *128:61 *132:68 0
61 *130:46 *2402:D 8.68903e-05
62 *131:10 *132:12 0
63 *131:16 *132:6 2.05898e-05
64 *131:16 *132:32 1.51418e-05
65 *131:25 *2403:B1 2.02872e-05
66 *131:25 *132:43 2.18409e-05
*RES
1 *2494:Q *132:6 27.1946 
2 *132:6 *132:12 31.5536 
3 *132:12 *2343:A0 29.0486 
4 *132:12 *2415:B1 23 
5 *132:6 *132:32 6.89786 
6 *132:32 *2414:C 23 
7 *132:32 *132:43 3.56286 
8 *132:43 *132:45 15 
9 *132:45 *2402:D 43.5929 
10 *132:45 *132:58 5.77929 
11 *132:58 *132:62 23.2443 
12 *132:62 *132:68 31.9057 
13 *132:68 *2433:A1 23 
14 *132:62 *2426:C 23 
15 *132:62 *2427:A2 26.5007 
16 *132:58 *2434:A 44.6907 
17 *132:43 *2403:B1 23.6214 
*END

*D_NET *133 0.00445905
*CONN
*I *2282:A0 I *D sky130_fd_sc_hd__mux2_1
*I *2246:B I *D sky130_fd_sc_hd__nor2_1
*I *2204:B I *D sky130_fd_sc_hd__and2_1
*I *2206:A2 I *D sky130_fd_sc_hd__a311o_1
*I *2479:Q O *D sky130_fd_sc_hd__dfstp_1
*CAP
1 *2282:A0 0
2 *2246:B 0.000208802
3 *2204:B 0.000181145
4 *2206:A2 2.84143e-05
5 *2479:Q 0.000469064
6 *133:31 0.000443357
7 *133:20 0.000459448
8 *133:14 0.000453853
9 *133:10 0.000545293
10 *2204:B *2204:A 2.16757e-05
11 *2204:B *2206:C1 0.000188238
12 *2204:B *516:6 2.93845e-05
13 *2204:B *516:19 2.32004e-05
14 *2204:B *518:6 8.6949e-05
15 *2204:B *518:14 0.000263657
16 *2206:A2 *134:16 9.67842e-05
17 *2206:A2 *516:6 5.50106e-05
18 *2206:A2 *516:19 4.17736e-05
19 *2246:B *2205:A1 1.24376e-05
20 *2246:B *2205:B1 1.22906e-05
21 *2246:B *134:16 0
22 *2246:B *518:14 0.000114083
23 *2246:B *520:8 0.000114083
24 *2246:B *559:10 6.32658e-05
25 *133:10 *2295:A0 0
26 *133:10 *2295:A1 0
27 *133:10 *137:21 0
28 *133:10 *757:35 7.84431e-05
29 *133:10 *757:46 0
30 *133:10 *757:67 0
31 *133:14 *2282:S 2.4754e-05
32 *133:14 *580:42 5.67058e-05
33 *133:20 *135:23 0
34 *133:20 *135:36 0
35 *133:20 *137:21 0.000205687
36 *133:20 *580:42 0.000139357
37 *133:31 *2205:B1 1.22803e-05
38 *133:31 *134:16 0
39 *133:31 *137:21 2.96154e-05
*RES
1 *2479:Q *133:10 46.0475 
2 *133:10 *133:14 16.5743 
3 *133:14 *133:20 22.3536 
4 *133:20 *2206:A2 39.0979 
5 *133:20 *133:31 1.20143 
6 *133:31 *2204:B 43.2821 
7 *133:31 *2246:B 42.8057 
8 *133:14 *2282:A0 23 
*END

*D_NET *134 0.00358338
*CONN
*I *2246:A I *D sky130_fd_sc_hd__nor2_1
*I *2386:A1 I *D sky130_fd_sc_hd__mux2_1
*I *2204:A I *D sky130_fd_sc_hd__and2_1
*I *2206:A1 I *D sky130_fd_sc_hd__a311o_1
*I *2532:Q O *D sky130_fd_sc_hd__dfstp_1
*CAP
1 *2246:A 0
2 *2386:A1 0.000514963
3 *2204:A 0.000125934
4 *2206:A1 0
5 *2532:Q 9.91454e-05
6 *134:16 0.000657115
7 *134:8 0.00104614
8 *134:6 9.91454e-05
9 *2204:A *2206:C1 5.35436e-05
10 *2204:A *516:19 5.67058e-05
11 *2386:A1 *2207:B 5.3304e-05
12 *2386:A1 *2236:A 8.54716e-05
13 *2386:A1 *2534:SET_B 0.000141954
14 *2386:A1 *138:19 0.000122226
15 *2386:A1 *139:25 1.52362e-05
16 *2386:A1 *519:10 3.83778e-05
17 *2386:A1 *520:8 0
18 *134:6 *519:10 5.41288e-05
19 *134:16 *135:36 8.80821e-05
20 *134:16 *139:25 0.000100303
21 *134:16 *516:6 9.74625e-05
22 *134:16 *516:19 1.56762e-05
23 *134:16 *520:8 0
24 *2204:B *2204:A 2.16757e-05
25 *2206:A2 *134:16 9.67842e-05
26 *2246:B *134:16 0
27 *133:31 *134:16 0
*RES
1 *2532:Q *134:6 24.8125 
2 *134:6 *134:8 15 
3 *134:8 *134:16 23.9486 
4 *134:16 *2206:A1 23 
5 *134:16 *2204:A 25.5479 
6 *134:8 *2386:A1 46.2443 
7 *134:6 *2246:A 23 
*END

*D_NET *135 0.00269633
*CONN
*I *2202:B I *D sky130_fd_sc_hd__or2_1
*I *2201:B I *D sky130_fd_sc_hd__nor2_1
*I *2203:B I *D sky130_fd_sc_hd__and2_1
*I *2287:A0 I *D sky130_fd_sc_hd__mux2_1
*I *2480:Q O *D sky130_fd_sc_hd__dfstp_1
*CAP
1 *2202:B 0
2 *2201:B 5.54124e-05
3 *2203:B 0
4 *2287:A0 0
5 *2480:Q 2.07705e-05
6 *135:36 0.000262489
7 *135:23 0.000565617
8 *135:14 0.000379875
9 *135:6 0.000759186
10 *2201:B *2202:A 3.92938e-05
11 *135:6 *2481:CLK 1.70074e-05
12 *135:14 *2311:A2 2.08324e-05
13 *135:14 *2481:CLK 0.000211123
14 *135:14 *707:50 8.76088e-05
15 *135:14 *740:50 6.42902e-05
16 *135:23 *2295:A0 0
17 *135:23 *137:21 0
18 *135:23 *139:25 0
19 *135:23 *265:10 7.06124e-05
20 *135:23 *267:8 0
21 *135:36 *2202:A 5.41288e-05
22 *135:36 *139:25 0
23 *133:20 *135:23 0
24 *133:20 *135:36 0
25 *134:16 *135:36 8.80821e-05
*RES
1 *2480:Q *135:6 23.3832 
2 *135:6 *135:14 36.6907 
3 *135:14 *2287:A0 23 
4 *135:6 *135:23 21.8357 
5 *135:23 *2203:B 38 
6 *135:23 *135:36 18.8321 
7 *135:36 *2201:B 24.1186 
8 *135:36 *2202:B 23 
*END

*D_NET *136 0.00270985
*CONN
*I *2202:A I *D sky130_fd_sc_hd__or2_1
*I *2201:A I *D sky130_fd_sc_hd__nor2_1
*I *2203:A I *D sky130_fd_sc_hd__and2_1
*I *2391:A1 I *D sky130_fd_sc_hd__a21bo_1
*I *2533:Q O *D sky130_fd_sc_hd__dfstp_1
*CAP
1 *2202:A 0.000176578
2 *2201:A 0
3 *2203:A 8.82497e-05
4 *2391:A1 0.000284249
5 *2533:Q 0.00017278
6 *136:12 0.000501629
7 *136:6 0.000478488
8 *2203:A *2244:A 0.000141052
9 *2391:A1 *2480:SET_B 8.52481e-05
10 *2391:A1 *2483:SET_B 0.000446281
11 *136:6 *2533:SET_B 7.67422e-05
12 *136:12 *2480:SET_B 9.48381e-06
13 *136:12 *139:25 3.93272e-05
14 *136:12 *515:8 0.000116314
15 *136:12 *753:36 0
16 *2201:B *2202:A 3.92938e-05
17 *135:36 *2202:A 5.41288e-05
*RES
1 *2533:Q *136:6 26.2418 
2 *136:6 *136:12 32.61 
3 *136:12 *2391:A1 30.2914 
4 *136:12 *2203:A 25.0507 
5 *136:6 *2201:A 23 
6 *136:6 *2202:A 26.5214 
*END

*D_NET *137 0.00398296
*CONN
*I *2205:B1 I *D sky130_fd_sc_hd__o211a_1
*I *2206:C1 I *D sky130_fd_sc_hd__a311o_1
*I *2295:A0 I *D sky130_fd_sc_hd__mux2_1
*I *2481:Q O *D sky130_fd_sc_hd__dfstp_1
*CAP
1 *2205:B1 0.000101041
2 *2206:C1 8.46985e-05
3 *2295:A0 0.000209298
4 *2481:Q 0.000521041
5 *137:21 0.000608532
6 *137:8 0.00115313
7 *2205:B1 *516:19 0.000104133
8 *2205:B1 *518:14 0.000166522
9 *2206:C1 *516:19 9.67842e-05
10 *2295:A0 *2295:A1 5.67058e-05
11 *2295:A0 *2295:S 5.50106e-05
12 *2295:A0 *265:10 0
13 *2295:A0 *267:8 4.58924e-05
14 *137:8 *793:DIODE 0.000120222
15 *137:8 *2481:SET_B 9.18637e-05
16 *137:21 *516:19 1.58805e-05
17 *137:21 *517:19 5.05552e-05
18 *2204:A *2206:C1 5.35436e-05
19 *2204:B *2206:C1 0.000188238
20 *2246:B *2205:B1 1.22906e-05
21 *133:10 *2295:A0 0
22 *133:10 *137:21 0
23 *133:20 *137:21 0.000205687
24 *133:31 *2205:B1 1.22803e-05
25 *133:31 *137:21 2.96154e-05
26 *135:23 *2295:A0 0
27 *135:23 *137:21 0
*RES
1 *2481:Q *137:8 45.0532 
2 *137:8 *2295:A0 42.64 
3 *137:8 *137:21 7.89214 
4 *137:21 *2206:C1 40.5479 
5 *137:21 *2205:B1 40.9621 
*END

*D_NET *138 0.00241255
*CONN
*I *2236:A I *D sky130_fd_sc_hd__xnor2_1
*I *2207:A I *D sky130_fd_sc_hd__or2_1
*I *2601:A I *D sky130_fd_sc_hd__dlygate4sd3_1
*I *2534:Q O *D sky130_fd_sc_hd__dfstp_1
*CAP
1 *2236:A 0.000263653
2 *2207:A 0
3 *2601:A 0
4 *2534:Q 4.12217e-05
5 *138:19 0.000396946
6 *138:12 0.000131712
7 *138:6 0.000306227
8 *2236:A *2207:B 5.3304e-05
9 *2236:A *2232:B 2.4754e-05
10 *2236:A *2236:B 0.000141052
11 *138:6 *2534:SET_B 0.000295424
12 *138:6 *650:37 0.000293723
13 *138:12 *624:12 0
14 *138:12 *753:28 7.30978e-05
15 *138:19 *2534:SET_B 0.000128723
16 *138:19 *650:37 5.50106e-05
17 *2386:A1 *2236:A 8.54716e-05
18 *2386:A1 *138:19 0.000122226
*RES
1 *2534:Q *138:6 26.2418 
2 *138:6 *138:12 32.9621 
3 *138:12 *2601:A 23 
4 *138:6 *138:19 3.95643 
5 *138:19 *2207:A 23 
6 *138:19 *2236:A 28.8621 
*END

*D_NET *139 0.00536765
*CONN
*I *2208:B1 I *D sky130_fd_sc_hd__a21o_1
*I *2209:A I *D sky130_fd_sc_hd__and3_1
*I *2311:A1 I *D sky130_fd_sc_hd__o21a_1
*I *2482:Q O *D sky130_fd_sc_hd__dfstp_1
*CAP
1 *2208:B1 0
2 *2209:A 0
3 *2311:A1 8.24535e-05
4 *2482:Q 0.00020308
5 *139:35 0.000216505
6 *139:25 0.00145527
7 *139:8 0.0015243
8 *2311:A1 *2311:A2 7.03869e-05
9 *139:8 *2482:SET_B 0.000202251
10 *139:8 *733:39 4.59048e-05
11 *139:25 *2311:A2 0.000167434
12 *139:25 *2480:SET_B 0
13 *139:25 *2482:SET_B 0
14 *139:25 *265:10 0.000563587
15 *139:25 *515:8 0.000114092
16 *139:25 *519:10 0.000110913
17 *139:25 *520:8 0
18 *139:25 *520:21 0
19 *139:25 *521:8 0
20 *139:25 *521:14 9.84851e-05
21 *139:25 *522:10 7.09886e-05
22 *139:25 *740:50 0.000138459
23 *139:25 *753:28 0
24 *139:25 *753:30 0
25 *139:25 *753:32 0
26 *139:35 *2208:A1 0.000118731
27 *139:35 *521:14 2.9938e-05
28 *139:35 *522:10 0
29 *139:35 *550:8 0
30 *2386:A1 *139:25 1.52362e-05
31 *134:16 *139:25 0.000100303
32 *135:23 *139:25 0
33 *135:36 *139:25 0
34 *136:12 *139:25 3.93272e-05
*RES
1 *2482:Q *139:8 41.2418 
2 *139:8 *2311:A1 39.9057 
3 *139:8 *139:25 43.275 
4 *139:25 *139:35 34.1014 
5 *139:35 *2209:A 23 
6 *139:25 *2208:B1 23 
*END

*D_NET *140 0.00520414
*CONN
*I *2250:A1 I *D sky130_fd_sc_hd__a21oi_1
*I *2251:A I *D sky130_fd_sc_hd__nor2_1
*I *2210:A1 I *D sky130_fd_sc_hd__a21oi_1
*I *2413:A1 I *D sky130_fd_sc_hd__a22o_1
*I *2535:Q O *D sky130_fd_sc_hd__dfstp_1
*CAP
1 *2250:A1 0
2 *2251:A 3.87814e-05
3 *2210:A1 0.000165692
4 *2413:A1 0.000815042
5 *2535:Q 0
6 *140:47 0.000263739
7 *140:30 0.000467209
8 *140:19 0.00051424
9 *140:4 0.000998901
10 *2210:A1 *2251:B 4.34745e-05
11 *2210:A1 *2535:SET_B 5.90675e-06
12 *2210:A1 *522:14 5.50106e-05
13 *2210:A1 *707:16 2.02517e-05
14 *2251:A *2252:D 5.38706e-05
15 *2251:A *533:52 0
16 *2251:A *541:24 0
17 *2413:A1 *2413:B2 1.37232e-05
18 *2413:A1 *2535:CLK 0.000292745
19 *2413:A1 *2535:D 2.16583e-05
20 *2413:A1 *707:16 0.000173828
21 *140:19 *2568:A 2.32101e-05
22 *140:19 *707:16 0.000207166
23 *140:30 *2210:B1 1.22822e-05
24 *140:30 *2251:B 0.000187129
25 *140:30 *522:14 5.50106e-05
26 *140:47 *2250:A2 0.000182826
27 *140:47 *2250:B1 0.00035673
28 *140:47 *524:8 8.41115e-05
29 *140:47 *533:41 0
30 *140:47 *563:10 0
31 *140:47 *707:12 5.41385e-05
32 *140:47 *707:106 9.74625e-05
*RES
1 *2535:Q *140:4 23 
2 *140:4 *2413:A1 35.5425 
3 *140:4 *140:19 4.23607 
4 *140:19 *2210:A1 26.8529 
5 *140:19 *140:30 4.90929 
6 *140:30 *2251:A 24.0875 
7 *140:30 *140:47 37.8714 
8 *140:47 *2250:A1 23 
*END

*D_NET *141 0.00422864
*CONN
*I *2200:B I *D sky130_fd_sc_hd__nand2_1
*I *2199:B I *D sky130_fd_sc_hd__nor2_1
*I *2322:A0 I *D sky130_fd_sc_hd__mux2_1
*I *2483:Q O *D sky130_fd_sc_hd__dfstp_1
*CAP
1 *2200:B 2.53257e-05
2 *2199:B 0
3 *2322:A0 0.000198716
4 *2483:Q 3.35477e-05
5 *141:31 0.00107523
6 *141:8 0.00128216
7 *2200:B *2200:A 5.3304e-05
8 *2200:B *701:193 2.02872e-05
9 *2322:A0 *580:42 1.01436e-05
10 *2322:A0 *624:8 0.000359332
11 *2322:A0 *707:35 0
12 *2322:A0 *740:20 6.17437e-06
13 *2322:A0 *740:30 0
14 *2322:A0 *740:39 4.04303e-05
15 *2322:A0 *740:46 0.000272377
16 *141:8 *2483:SET_B 7.29612e-06
17 *141:31 *2200:A 5.03299e-05
18 *141:31 *142:10 0
19 *141:31 *142:21 9.5877e-05
20 *141:31 *296:10 0.000141879
21 *141:31 *650:31 4.92689e-05
22 *141:31 *650:37 0.00045195
23 *141:31 *701:193 5.50049e-05
24 *141:31 *707:27 0
25 *141:31 *707:29 0
26 *141:31 *707:35 0
*RES
1 *2483:Q *141:8 38.3832 
2 *141:8 *2322:A0 44.2143 
3 *141:8 *141:31 36.7707 
4 *141:31 *2199:B 23 
5 *141:31 *2200:B 23.6214 
*END

*D_NET *142 0.00225416
*CONN
*I *2199:A I *D sky130_fd_sc_hd__nor2_1
*I *2200:A I *D sky130_fd_sc_hd__nand2_1
*I *2425:A1 I *D sky130_fd_sc_hd__mux2_1
*I *2536:Q O *D sky130_fd_sc_hd__dfstp_1
*CAP
1 *2199:A 0
2 *2200:A 0.000162272
3 *2425:A1 0.000219032
4 *2536:Q 0.000153105
5 *142:21 0.000289949
6 *142:12 0.000346709
7 *142:10 0.000153105
8 *2200:A *514:10 2.93845e-05
9 *2200:A *701:193 8.48502e-06
10 *2425:A1 *2425:S 0.000402806
11 *142:10 *650:31 0
12 *142:10 *706:29 0
13 *142:10 *753:94 3.32677e-05
14 *142:21 *2425:S 0.000256538
15 *2200:B *2200:A 5.3304e-05
16 *141:31 *2200:A 5.03299e-05
17 *141:31 *142:10 0
18 *141:31 *142:21 9.5877e-05
*RES
1 *2536:Q *142:10 40.6411 
2 *142:10 *142:12 15 
3 *142:12 *2425:A1 28.3857 
4 *142:12 *142:21 3.48 
5 *142:21 *2200:A 26.5214 
6 *142:21 *2199:A 23 
*END

*D_NET *143 0.00216852
*CONN
*I *2197:B I *D sky130_fd_sc_hd__or2_1
*I *2198:B I *D sky130_fd_sc_hd__nand2_1
*I *2331:A0 I *D sky130_fd_sc_hd__mux2_1
*I *2484:Q O *D sky130_fd_sc_hd__dfstp_1
*CAP
1 *2197:B 0.000253814
2 *2198:B 0
3 *2331:A0 0
4 *2484:Q 0.00034481
5 *143:17 0.000432919
6 *143:6 0.000523915
7 *2197:B *2213:A2 1.22803e-05
8 *2197:B *2255:A1 0
9 *2197:B *144:12 0.00011218
10 *2197:B *144:22 9.84794e-05
11 *2197:B *511:10 2.45549e-06
12 *2197:B *526:10 8.41012e-05
13 *2197:B *701:193 0
14 *143:6 *2331:S 0.000254061
15 *143:17 *2255:A1 0
16 *143:17 *2331:S 4.95081e-05
17 *143:17 *701:193 0
*RES
1 *2484:Q *143:6 28.1475 
2 *143:6 *2331:A0 23 
3 *143:6 *143:17 18.0036 
4 *143:17 *2198:B 38 
5 *143:17 *2197:B 43.7171 
*END

*D_NET *144 0.00162391
*CONN
*I *2198:A I *D sky130_fd_sc_hd__nand2_1
*I *2197:A I *D sky130_fd_sc_hd__or2_1
*I *2432:A1 I *D sky130_fd_sc_hd__mux2_1
*I *2537:Q O *D sky130_fd_sc_hd__dfstp_1
*CAP
1 *2198:A 0.000115351
2 *2197:A 0
3 *2432:A1 0
4 *2537:Q 0
5 *144:22 0.00026676
6 *144:12 0.000380204
7 *144:4 0.000228795
8 *2198:A *2254:A 0
9 *2198:A *512:8 6.81213e-05
10 *144:12 *701:193 7.66085e-05
11 *144:22 *2432:S 0.000138708
12 *144:22 *145:23 4.9662e-05
13 *144:22 *701:178 6.17437e-06
14 *144:22 *701:193 8.28701e-05
15 *2197:B *144:12 0.00011218
16 *2197:B *144:22 9.84794e-05
*RES
1 *2537:Q *144:4 23 
2 *144:4 *144:12 33.3454 
3 *144:12 *144:22 35.0543 
4 *144:22 *2432:A1 23 
5 *144:12 *2197:A 23 
6 *144:4 *2198:A 25.3096 
*END

*D_NET *145 0.00259575
*CONN
*I *2196:B I *D sky130_fd_sc_hd__nand2_1
*I *2195:B I *D sky130_fd_sc_hd__nor2_1
*I *1986:A I *D sky130_fd_sc_hd__inv_2
*I *2485:Q O *D sky130_fd_sc_hd__dfstp_1
*CAP
1 *2196:B 0
2 *2195:B 0
3 *1986:A 0
4 *2485:Q 0
5 *145:29 0.000133804
6 *145:23 0.00039492
7 *145:16 0.000475086
8 *145:4 0.000736202
9 *145:16 *2567:A 3.93404e-05
10 *145:16 *300:8 0
11 *145:16 *695:6 9.84851e-05
12 *145:16 *695:14 0
13 *145:16 *706:10 0.000162948
14 *145:16 *706:14 1.22906e-05
15 *145:16 *706:88 0.000276232
16 *145:23 *695:14 7.88926e-05
17 *145:29 *2432:S 1.19796e-05
18 *145:29 *146:35 0.000125904
19 *144:22 *145:23 4.9662e-05
*RES
1 *2485:Q *145:4 23 
2 *145:4 *145:16 40.4918 
3 *145:16 *1986:A 23 
4 *145:4 *145:23 5.1475 
5 *145:23 *145:29 33.3143 
6 *145:29 *2195:B 23 
7 *145:23 *2196:B 23 
*END

*D_NET *146 0.00449708
*CONN
*I *2195:A I *D sky130_fd_sc_hd__nor2_1
*I *2196:A I *D sky130_fd_sc_hd__nand2_1
*I *2605:A I *D sky130_fd_sc_hd__dlygate4sd3_1
*I *2538:Q O *D sky130_fd_sc_hd__dfstp_1
*CAP
1 *2195:A 0
2 *2196:A 0
3 *2605:A 0.000110804
4 *2538:Q 5.96041e-05
5 *146:35 0.00012648
6 *146:29 0.00139393
7 *146:8 0.00143786
8 *2605:A *733:83 0
9 *2605:A *752:14 0
10 *146:8 *706:102 4.17615e-05
11 *146:29 *2486:SET_B 0.000278461
12 *146:29 *147:10 7.84431e-05
13 *146:29 *359:89 0.000230604
14 *146:29 *509:10 2.38288e-05
15 *146:29 *706:98 4.93223e-05
16 *146:29 *706:102 8.46575e-05
17 *146:29 *733:83 0
18 *146:29 *752:14 0
19 *146:29 *756:83 0.000217372
20 *146:29 *756:85 0.000185434
21 *146:35 *2213:A1 2.11827e-05
22 *146:35 *2215:B 0
23 *146:35 *509:10 3.14274e-05
24 *145:29 *146:35 0.000125904
*RES
1 *2538:Q *146:8 38.8596 
2 *146:8 *2605:A 39.9057 
3 *146:8 *146:29 38.2 
4 *146:29 *146:35 33.3143 
5 *146:35 *2196:A 23 
6 *146:29 *2195:A 23 
*END

*D_NET *147 0.000826279
*CONN
*I *2214:B I *D sky130_fd_sc_hd__xor2_1
*I *2335:A1 I *D sky130_fd_sc_hd__o21ba_1
*I *2486:Q O *D sky130_fd_sc_hd__dfstp_1
*CAP
1 *2214:B 0
2 *2335:A1 0.000113829
3 *2486:Q 0.00020573
4 *147:12 0.000113829
5 *147:10 0.00020573
6 *2335:A1 *2214:A 8.57986e-05
7 *147:10 *2335:A2 0
8 *147:10 *756:112 2.29192e-05
9 *146:29 *147:10 7.84431e-05
*RES
1 *2486:Q *147:10 41.1175 
2 *147:10 *147:12 15 
3 *147:12 *2335:A1 25.5479 
4 *147:12 *2214:B 23 
*END

*D_NET *148 0.00207533
*CONN
*I *2214:A I *D sky130_fd_sc_hd__xor2_1
*I *2603:A I *D sky130_fd_sc_hd__dlygate4sd3_1
*I *2539:Q O *D sky130_fd_sc_hd__dfstp_1
*CAP
1 *2214:A 0.000316562
2 *2603:A 0
3 *2539:Q 0
4 *148:12 0.000202209
5 *148:4 0.000518771
6 *2214:A *2539:SET_B 3.98456e-05
7 *2214:A *272:10 0.000140259
8 *2214:A *756:112 0.000326323
9 *148:12 *2539:SET_B 3.32734e-05
10 *148:12 *272:10 8.16253e-05
11 *148:12 *701:10 0
12 *148:12 *706:98 0.00019747
13 *148:12 *733:83 0.000133191
14 *2335:A1 *2214:A 8.57986e-05
*RES
1 *2539:Q *148:4 23 
2 *148:4 *148:12 35.8104 
3 *148:12 *2603:A 23 
4 *148:4 *2214:A 31.1925 
*END

*D_NET *149 0.00564389
*CONN
*I *2336:A1 I *D sky130_fd_sc_hd__mux2_1
*I *2344:A1 I *D sky130_fd_sc_hd__mux2_1
*I *2442:A0 I *D sky130_fd_sc_hd__mux2_1
*I *2545:Q O *D sky130_fd_sc_hd__dfstp_1
*CAP
1 *2336:A1 6.02574e-05
2 *2344:A1 0
3 *2442:A0 0.00080499
4 *2545:Q 0
5 *149:27 0.000528014
6 *149:19 0.00104941
7 *149:4 0.00126613
8 *2336:A1 *703:18 4.08641e-05
9 *2336:A1 *746:51 0
10 *2442:A0 *2346:A1 1.06533e-05
11 *2442:A0 *2545:CLK 0.0001454
12 *2442:A0 *2545:D 6.72929e-05
13 *2442:A0 *166:27 0.000185428
14 *2442:A0 *703:80 0.000151721
15 *2442:A0 *748:24 2.13733e-05
16 *149:19 *2346:A1 0.000103869
17 *149:19 *2498:CLK 2.93747e-05
18 *149:19 *350:78 7.9284e-05
19 *149:19 *748:24 7.43025e-06
20 *149:27 *2344:S 0.000393266
21 *149:27 *284:10 5.50106e-05
22 *149:27 *703:18 3.0647e-05
23 *149:27 *703:31 5.40866e-05
24 *149:27 *746:51 0
25 *119:33 *149:27 0.000559379
*RES
1 *2545:Q *149:4 23 
2 *149:4 *2442:A0 36.2882 
3 *149:4 *149:19 21.5768 
4 *149:19 *149:27 27.0557 
5 *149:27 *2344:A1 23 
6 *149:19 *2336:A1 39.2014 
*END

*D_NET *150 0.00659182
*CONN
*I *2345:A1 I *D sky130_fd_sc_hd__mux2_1
*I *2337:A1 I *D sky130_fd_sc_hd__mux2_1
*I *2443:A0 I *D sky130_fd_sc_hd__mux2_1
*I *2546:Q O *D sky130_fd_sc_hd__dfstp_1
*CAP
1 *2345:A1 0
2 *2337:A1 0
3 *2443:A0 0
4 *2546:Q 0
5 *150:42 0.000934422
6 *150:29 0.000416177
7 *150:21 0.00136897
8 *150:14 0.000930993
9 *150:4 0.000949365
10 *150:14 *2546:SET_B 0.000199252
11 *150:14 *152:18 0.000185434
12 *150:14 *166:27 0.000146822
13 *150:14 *699:45 0
14 *150:21 *2546:SET_B 3.32677e-05
15 *150:29 *2546:SET_B 5.91383e-05
16 *150:29 *274:10 0.000166513
17 *150:29 *350:37 0.000121586
18 *150:29 *354:45 0.000182826
19 *150:29 *744:10 6.70914e-05
20 *150:29 *745:18 7.80354e-05
21 *150:29 *745:31 0.00018732
22 *150:42 *2345:S 0
23 *150:42 *2496:CLK 0
24 *150:42 *2546:SET_B 9.84851e-05
25 *150:42 *2579:A 5.50049e-05
26 *150:42 *151:25 0
27 *150:42 *151:38 0
28 *150:42 *282:10 0
29 *150:42 *283:8 7.03869e-05
30 *150:42 *350:56 0
31 *150:42 *703:63 0.000161461
32 *2337:A0 *150:29 4.93341e-05
33 *119:12 *150:42 8.06039e-05
34 *122:20 *150:14 2.86109e-05
35 *122:20 *150:29 0
36 *122:20 *150:42 2.07242e-05
*RES
1 *2546:Q *150:4 23 
2 *150:4 *150:14 43.6404 
3 *150:14 *2443:A0 23 
4 *150:4 *150:21 0.383214 
5 *150:21 *150:29 41.3514 
6 *150:29 *2337:A1 23 
7 *150:21 *150:42 46.2193 
8 *150:42 *2345:A1 23 
*END

*D_NET *151 0.00681668
*CONN
*I *2338:A1 I *D sky130_fd_sc_hd__mux2_1
*I *2346:A1 I *D sky130_fd_sc_hd__mux2_1
*I *2444:A0 I *D sky130_fd_sc_hd__mux2_1
*I *2547:Q O *D sky130_fd_sc_hd__dfstp_1
*CAP
1 *2338:A1 0
2 *2346:A1 9.50119e-05
3 *2444:A0 0.000357812
4 *2547:Q 0.000149499
5 *151:38 0.000638702
6 *151:25 0.00194262
7 *151:12 0.00156671
8 *151:10 0.000149499
9 *2346:A1 *748:24 0.000310653
10 *2444:A0 *744:28 0.000493457
11 *151:10 *257:10 0
12 *151:10 *741:73 7.06733e-06
13 *151:25 *2470:CLK 2.30292e-05
14 *151:25 *2470:SET_B 0.00014042
15 *151:25 *2496:CLK 0
16 *151:25 *2497:D 0.000155269
17 *151:25 *283:8 7.03869e-05
18 *151:25 *744:28 9.18694e-05
19 *151:25 *748:24 1.83667e-05
20 *151:38 *2490:SET_B 0
21 *151:38 *273:8 0
22 *151:38 *350:56 0
23 *151:38 *746:51 0
24 *151:38 *746:58 0
25 *151:38 *748:24 8.67875e-05
26 *151:38 *748:35 0.000404995
27 *2442:A0 *2346:A1 1.06533e-05
28 *126:10 *151:38 0
29 *126:21 *151:38 0
30 *149:19 *2346:A1 0.000103869
31 *150:42 *151:25 0
32 *150:42 *151:38 0
*RES
1 *2547:Q *151:10 40.0611 
2 *151:10 *151:12 15 
3 *151:12 *2444:A0 28.3857 
4 *151:12 *151:25 33.5807 
5 *151:25 *2346:A1 41.48 
6 *151:25 *151:38 28.5264 
7 *151:38 *2338:A1 23 
*END

*D_NET *152 0.00846379
*CONN
*I *2347:A1 I *D sky130_fd_sc_hd__mux2_1
*I *2339:A1 I *D sky130_fd_sc_hd__mux2_1
*I *2445:A0 I *D sky130_fd_sc_hd__mux2_1
*I *2548:Q O *D sky130_fd_sc_hd__dfstp_1
*CAP
1 *2347:A1 0
2 *2339:A1 0
3 *2445:A0 0
4 *2548:Q 2.78612e-05
5 *152:42 0.000788671
6 *152:29 0.0020007
7 *152:18 0.000716377
8 *152:6 0.00195626
9 *152:6 *278:10 7.28476e-06
10 *152:18 *2546:CLK 0.000593982
11 *152:18 *154:14 0
12 *152:18 *286:8 0
13 *152:18 *306:10 1.19796e-05
14 *152:18 *699:43 0
15 *152:29 *2488:CLK 0.000153634
16 *152:29 *2488:SET_B 0.000352711
17 *152:29 *154:27 0.000308946
18 *152:29 *278:10 1.39431e-05
19 *152:29 *354:60 1.21972e-05
20 *152:42 *2340:S 0.000112697
21 *152:42 *2348:S 2.49733e-05
22 *152:42 *2351:S 0.000424869
23 *152:42 *153:31 0
24 *152:42 *156:46 0
25 *152:42 *284:10 0
26 *152:42 *350:80 0.000127272
27 *152:42 *350:82 6.16531e-05
28 *152:42 *354:60 1.40958e-05
29 *152:42 *703:16 0
30 *152:42 *703:18 0
31 *152:42 *748:18 1.47563e-05
32 *2339:A0 *152:29 2.93845e-05
33 *2339:A0 *152:42 7.53384e-06
34 *2341:A0 *152:29 0.00035322
35 *120:12 *152:42 0.000163352
36 *150:14 *152:18 0.000185434
*RES
1 *2548:Q *152:6 23.3832 
2 *152:6 *152:18 44.1893 
3 *152:18 *2445:A0 23 
4 *152:6 *152:29 20.3207 
5 *152:29 *2339:A1 23 
6 *152:29 *152:42 45.0179 
7 *152:42 *2347:A1 23 
*END

*D_NET *153 0.00831508
*CONN
*I *2340:A1 I *D sky130_fd_sc_hd__mux2_1
*I *2348:A1 I *D sky130_fd_sc_hd__mux2_1
*I *2446:A0 I *D sky130_fd_sc_hd__mux2_1
*I *2549:Q O *D sky130_fd_sc_hd__dfstp_1
*CAP
1 *2340:A1 0.000155576
2 *2348:A1 0
3 *2446:A0 0
4 *2549:Q 0
5 *153:31 0.000599146
6 *153:27 0.00291554
7 *153:14 0.000592481
8 *153:4 0.0027533
9 *153:14 *2446:A1 2.30292e-05
10 *153:14 *308:14 2.8653e-05
11 *153:14 *699:43 2.67179e-05
12 *153:14 *744:99 0.000206175
13 *153:27 *2349:S 5.41288e-05
14 *153:27 *2351:A1 0.000244801
15 *153:27 *2487:D 0.000157167
16 *153:27 *350:56 8.11977e-05
17 *153:31 *2348:S 6.08043e-05
18 *153:31 *2351:S 0
19 *153:31 *2502:SET_B 3.39231e-05
20 *153:31 *288:8 6.68793e-05
21 *153:31 *350:80 0
22 *153:31 *350:82 0
23 *153:31 *746:93 0.000101759
24 *2340:A0 *2340:A1 5.41288e-05
25 *2344:A0 *153:31 0.000137788
26 *121:12 *153:31 1.14452e-05
27 *125:8 *153:27 1.04374e-05
28 *152:42 *153:31 0
*RES
1 *2549:Q *153:4 23 
2 *153:4 *153:14 38.7518 
3 *153:14 *2446:A0 23 
4 *153:4 *153:27 46.9932 
5 *153:27 *153:31 27.1179 
6 *153:31 *2348:A1 23 
7 *153:27 *2340:A1 40.2993 
*END

*D_NET *154 0.00384372
*CONN
*I *2447:A0 I *D sky130_fd_sc_hd__mux2_1
*I *2349:A1 I *D sky130_fd_sc_hd__mux2_1
*I *2341:A1 I *D sky130_fd_sc_hd__mux2_1
*I *2550:Q O *D sky130_fd_sc_hd__dfstp_1
*CAP
1 *2447:A0 0.000608873
2 *2349:A1 0
3 *2341:A1 0
4 *2550:Q 0.000325278
5 *154:27 0.000290278
6 *154:14 0.000587553
7 *154:10 0.00123143
8 *2447:A0 *2492:D 2.93747e-05
9 *2447:A0 *310:10 1.56662e-06
10 *2447:A0 *703:176 0.000182514
11 *154:10 *278:10 0
12 *154:10 *354:14 0
13 *154:10 *354:16 0
14 *154:10 *745:45 6.04605e-05
15 *154:14 *278:10 0
16 *154:14 *286:8 0.000131169
17 *154:14 *354:16 0
18 *154:27 *350:37 0
19 *122:10 *154:27 8.62783e-05
20 *152:18 *154:14 0
21 *152:29 *154:27 0.000308946
*RES
1 *2550:Q *154:10 43.2511 
2 *154:10 *154:14 20.7793 
3 *154:14 *2341:A1 23 
4 *154:14 *154:27 34.6814 
5 *154:27 *2349:A1 23 
6 *154:10 *2447:A0 46.2443 
*END

*D_NET *155 0.00272712
*CONN
*I *2342:A1 I *D sky130_fd_sc_hd__mux2_1
*I *2350:A1 I *D sky130_fd_sc_hd__mux2_1
*I *2448:A0 I *D sky130_fd_sc_hd__mux2_1
*I *2551:Q O *D sky130_fd_sc_hd__dfstp_1
*CAP
1 *2342:A1 0.00020359
2 *2350:A1 0
3 *2448:A0 0.000525267
4 *2551:Q 0.000204871
5 *155:12 0.000933728
6 *2342:A1 *2350:S 0.000217652
7 *2342:A1 *279:10 0.00010018
8 *2448:A0 *2448:A1 5.67058e-05
9 *2448:A0 *2501:CLK 0
10 *2448:A0 *2551:SET_B 0
11 *2448:A0 *287:10 0.000141869
12 *2448:A0 *354:14 0
13 *155:12 *2493:CLK 4.51341e-05
14 *155:12 *2501:CLK 5.86165e-05
15 *155:12 *279:10 0
16 *2342:A0 *2342:A1 5.50049e-05
17 *123:14 *2342:A1 0.000115141
18 *123:14 *2448:A0 6.93553e-05
*RES
1 *2551:Q *155:12 42.2154 
2 *155:12 *2448:A0 47.7771 
3 *155:12 *2350:A1 38 
4 *155:12 *2342:A1 43.7586 
*END

*D_NET *156 0.00954914
*CONN
*I *2351:A1 I *D sky130_fd_sc_hd__mux2_1
*I *2343:A1 I *D sky130_fd_sc_hd__mux2_1
*I *2449:A0 I *D sky130_fd_sc_hd__mux2_1
*I *2552:Q O *D sky130_fd_sc_hd__dfstp_1
*CAP
1 *2351:A1 0.000199254
2 *2343:A1 2.34823e-05
3 *2449:A0 0.000146673
4 *2552:Q 0.000335072
5 *156:46 0.00123927
6 *156:33 0.00115778
7 *156:29 0.00119662
8 *156:12 0.00124901
9 *156:10 0.000335072
10 *2343:A1 *2416:A2 0
11 *2351:A1 *2351:S 0.000313255
12 *2449:A0 *2449:A1 5.73309e-05
13 *2449:A0 *699:20 2.46906e-05
14 *2449:A0 *699:33 0.00015285
15 *156:10 *2552:SET_B 2.92259e-05
16 *156:10 *699:20 0
17 *156:10 *699:33 0.000324751
18 *156:10 *702:10 0
19 *156:10 *702:38 0
20 *156:29 *2002:B 1.37039e-05
21 *156:29 *2004:A 5.50049e-05
22 *156:29 *2343:S 6.28591e-05
23 *156:29 *280:10 1.01436e-05
24 *156:29 *354:103 4.79641e-05
25 *156:29 *354:112 0.000512465
26 *156:29 *699:33 2.02872e-05
27 *156:29 *701:144 0.000126548
28 *156:46 *277:10 7.28526e-05
29 *156:46 *280:10 0
30 *156:46 *679:8 3.83778e-05
31 *156:46 *703:10 0.000174407
32 *156:46 *703:16 0.000217654
33 *156:46 *703:156 0.000100533
34 *2343:A0 *2343:A1 0
35 *2343:A0 *156:33 9.84851e-05
36 *2351:A0 *2351:A1 5.67058e-05
37 *2402:D *156:46 0
38 *108:10 *2449:A0 2.93747e-05
39 *108:10 *156:29 0.000488383
40 *125:90 *156:46 0.000290624
41 *127:34 *156:33 2.4754e-05
42 *127:34 *156:46 7.88828e-05
43 *130:46 *156:46 0
44 *132:58 *156:46 0
45 *152:42 *156:46 0
46 *153:27 *2351:A1 0.000244801
*RES
1 *2552:Q *156:10 44.4111 
2 *156:10 *156:12 15 
3 *156:12 *2449:A0 26.9564 
4 *156:12 *156:29 42.3221 
5 *156:29 *156:33 16.5743 
6 *156:33 *2343:A1 23.4971 
7 *156:33 *156:46 35.3829 
8 *156:46 *2351:A1 44.3386 
*END

*D_NET *157 0.00401285
*CONN
*I *2554:A I *D sky130_fd_sc_hd__clkbuf_1
*I *2258:Y O *D sky130_fd_sc_hd__o31ai_1
*CAP
1 *2554:A 0
2 *2258:Y 0.00100503
3 *157:22 0.000148358
4 *157:14 0.00115339
5 *157:14 *2216:B 4.08664e-05
6 *157:14 *2217:A 3.61695e-05
7 *157:14 *2220:A 5.50106e-05
8 *157:14 *2223:A 0.000182826
9 *157:14 *2224:A1 4.75206e-05
10 *157:14 *247:14 4.08664e-05
11 *157:14 *247:22 0.000267931
12 *157:14 *530:10 7.59794e-05
13 *157:14 *531:10 5.41288e-05
14 *157:14 *532:20 0.000222378
15 *157:14 *532:39 0.000182642
16 *157:14 *533:27 6.30728e-05
17 *157:14 *534:10 6.82416e-05
18 *157:14 *537:6 7.88926e-05
19 *157:22 *574:47 0.000215411
20 *157:22 *757:106 7.41334e-05
*RES
1 *2258:Y *157:14 43.3621 
2 *157:14 *157:22 34.06 
3 *157:22 *2554:A 23 
*END

*D_NET *158 0.00177056
*CONN
*I *2529:D I *D sky130_fd_sc_hd__dfrtp_1
*I *2192:Y O *D sky130_fd_sc_hd__nand2_1
*CAP
1 *2529:D 0.000431067
2 *2192:Y 9.62732e-05
3 *158:8 0.00052734
4 *158:8 *174:10 0.000357939
5 *158:8 *504:28 0.000357939
*RES
1 *2192:Y *158:8 42.7229 
2 *158:8 *2529:D 45.2914 
*END

*D_NET *159 0.00150097
*CONN
*I *2530:D I *D sky130_fd_sc_hd__dfrtp_1
*I *2188:Y O *D sky130_fd_sc_hd__o21bai_1
*CAP
1 *2530:D 0.00020031
2 *2188:Y 0.000224664
3 *159:8 0.000424974
4 *2530:D *316:18 2.50575e-05
5 *2530:D *504:28 5.56356e-05
6 *2530:D *750:34 4.32397e-05
7 *159:8 *316:18 3.76761e-05
8 *159:8 *504:44 6.07306e-05
9 *159:8 *508:10 0.000428682
*RES
1 *2188:Y *159:8 43.7793 
2 *159:8 *2530:D 41.0243 
*END

*D_NET *160 0.00120996
*CONN
*I *2531:D I *D sky130_fd_sc_hd__dfrtp_1
*I *2194:Y O *D sky130_fd_sc_hd__nand2_1
*CAP
1 *2531:D 0
2 *2194:Y 0.000478078
3 *160:10 0.000478078
4 *160:10 *2194:B 3.56477e-05
5 *160:10 *177:33 8.68575e-05
6 *160:10 *704:12 2.42905e-05
7 *160:10 *704:219 0.000107011
8 *160:10 *741:26 0
*RES
1 *2194:Y *160:10 47.135 
2 *160:10 *2531:D 38 
*END

*D_NET *161 0.00517743
*CONN
*I *1960:A I *D sky130_fd_sc_hd__inv_2
*I *2120:B1 I *D sky130_fd_sc_hd__a31o_1
*I *2006:A I *D sky130_fd_sc_hd__nor2_1
*I *2191:A1_N I *D sky130_fd_sc_hd__o2bb2a_1
*I *1994:A I *D sky130_fd_sc_hd__nor2_1
*I *2512:Q O *D sky130_fd_sc_hd__dfrtp_1
*CAP
1 *1960:A 0
2 *2120:B1 0
3 *2006:A 0
4 *2191:A1_N 0
5 *1994:A 0
6 *2512:Q 0.000135442
7 *161:57 0.000668466
8 *161:43 0.000719688
9 *161:36 0.000133851
10 *161:30 0.000574559
11 *161:23 0.000152532
12 *161:15 0.000657286
13 *161:8 0.000250709
14 *161:8 *750:67 0.00010018
15 *161:23 *163:30 2.76611e-06
16 *161:23 *177:33 0
17 *161:23 *447:33 5.94125e-05
18 *161:23 *506:10 1.37702e-05
19 *161:23 *750:55 0
20 *161:23 *750:67 0
21 *161:36 *177:37 0
22 *161:36 *313:12 0.000220948
23 *161:36 *741:26 1.13013e-05
24 *161:43 *313:12 5.56279e-05
25 *161:57 *2118:B1 0.000181131
26 *161:57 *2119:B1 0.000102913
27 *161:57 *2119:C1 0.000404502
28 *161:57 *2120:A2 0
29 *161:57 *313:12 2.70917e-05
30 *161:57 *438:39 1.02387e-05
31 *161:57 *448:8 9.35072e-05
32 *161:57 *451:12 0.000376242
33 *161:57 *752:47 0.000225265
*RES
1 *2512:Q *161:8 25.4236 
2 *161:8 *1994:A 23 
3 *161:8 *161:15 2.05071 
4 *161:15 *161:23 32.7705 
5 *161:23 *2191:A1_N 23 
6 *161:15 *161:30 6.815 
7 *161:30 *161:36 33.3143 
8 *161:36 *2006:A 23 
9 *161:30 *161:43 1.09786 
10 *161:43 *161:57 46.4679 
11 *161:57 *2120:B1 23 
12 *161:43 *1960:A 23 
*END

*D_NET *162 0.00689111
*CONN
*I *2190:B I *D sky130_fd_sc_hd__or4b_1
*I *2115:A I *D sky130_fd_sc_hd__nor3b_2
*I *2116:A_N I *D sky130_fd_sc_hd__and4bb_1
*I *2187:B I *D sky130_fd_sc_hd__nand2b_1
*I *2438:B I *D sky130_fd_sc_hd__and3_4
*I *2189:C I *D sky130_fd_sc_hd__or4b_1
*I *2529:Q O *D sky130_fd_sc_hd__dfrtp_1
*CAP
1 *2190:B 0.00031714
2 *2115:A 1.28627e-05
3 *2116:A_N 0.000415774
4 *2187:B 0.000215815
5 *2438:B 0.000316176
6 *2189:C 0
7 *2529:Q 0.000218057
8 *162:38 0.000808196
9 *162:25 0.000492784
10 *162:23 0.000194761
11 *162:12 0.000181898
12 *162:10 0.000535197
13 *2115:A *163:16 4.3198e-05
14 *2115:A *164:36 5.56356e-05
15 *2116:A_N *2116:B_N 0.000174905
16 *2116:A_N *2530:RESET_B 2.84479e-05
17 *2187:B *2191:B2 7.80291e-06
18 *2187:B *164:59 0
19 *2187:B *177:33 1.3334e-05
20 *2187:B *447:14 7.80291e-06
21 *2187:B *447:33 0
22 *2187:B *750:14 0.000128964
23 *2190:B *163:30 0.00012257
24 *2190:B *447:33 0.000315268
25 *2190:B *447:41 7.80035e-05
26 *2190:B *506:10 2.98648e-05
27 *2190:B *507:8 0.000163361
28 *2190:B *508:10 2.13834e-05
29 *2438:B *2438:C 0.00043444
30 *2438:B *164:25 0.000161121
31 *2438:B *177:12 1.08287e-05
32 *162:10 *447:41 0.000193737
33 *162:10 *504:28 4.39607e-05
34 *162:23 *2189:D_N 0.000239436
35 *162:23 *163:16 5.3304e-05
36 *162:23 *163:22 0.000379861
37 *162:23 *164:36 4.08664e-05
38 *162:38 *2530:RESET_B 3.0647e-05
39 *162:38 *164:25 2.46345e-05
40 *162:38 *750:14 4.6318e-06
41 *110:14 *2190:B 3.47781e-05
42 *110:14 *162:10 0.000136486
43 *110:14 *162:23 5.3304e-05
44 *110:27 *2438:B 0.000149866
*RES
1 *2529:Q *162:10 41.9564 
2 *162:10 *162:12 15 
3 *162:12 *2189:C 23 
4 *162:12 *162:23 6.02786 
5 *162:23 *162:25 15 
6 *162:25 *2438:B 45.9543 
7 *162:25 *162:38 2.96214 
8 *162:38 *2187:B 41.7337 
9 *162:38 *2116:A_N 45.9336 
10 *162:23 *2115:A 23.6214 
11 *162:10 *2190:B 45.975 
*END

*D_NET *163 0.00461305
*CONN
*I *2116:D I *D sky130_fd_sc_hd__and4bb_1
*I *1963:A I *D sky130_fd_sc_hd__inv_2
*I *2115:C_N I *D sky130_fd_sc_hd__nor3b_2
*I *2594:A I *D sky130_fd_sc_hd__dlygate4sd3_1
*I *2189:B I *D sky130_fd_sc_hd__or4b_1
*I *2190:A I *D sky130_fd_sc_hd__or4b_1
*I *2530:Q O *D sky130_fd_sc_hd__dfrtp_1
*CAP
1 *2116:D 0.000258722
2 *1963:A 0
3 *2115:C_N 0
4 *2594:A 0
5 *2189:B 0
6 *2190:A 0
7 *2530:Q 0
8 *163:30 0.000315542
9 *163:22 0.000620576
10 *163:16 0.000589909
11 *163:12 0.000347912
12 *163:10 0.000182478
13 *163:4 0.000378163
14 *2116:D *2116:B_N 9.84851e-05
15 *2116:D *2120:A3 9.75779e-05
16 *163:10 *177:33 0
17 *163:10 *187:10 0
18 *163:12 *316:6 5.70419e-05
19 *163:16 *164:36 0.000119101
20 *163:16 *316:6 3.4875e-05
21 *163:16 *447:10 2.93845e-05
22 *163:22 *724:10 0.000231381
23 *163:30 *2190:C 0
24 *163:30 *2192:A 0.000275473
25 *163:30 *447:33 4.09412e-06
26 *163:30 *447:41 0.000144119
27 *163:30 *505:16 1.01436e-05
28 *163:30 *506:10 1.24376e-05
29 *163:30 *507:8 0.000163361
30 *163:30 *750:55 0
31 *2115:A *163:16 4.3198e-05
32 *2190:B *163:30 0.00012257
33 *110:14 *163:22 4.05745e-05
34 *161:23 *163:30 2.76611e-06
35 *162:23 *163:16 5.3304e-05
36 *162:23 *163:22 0.000379861
*RES
1 *2530:Q *163:4 23 
2 *163:4 *163:10 31.9057 
3 *163:10 *163:12 1.57429 
4 *163:12 *163:16 5.88286 
5 *163:16 *163:22 6.85643 
6 *163:22 *163:30 37.9336 
7 *163:30 *2190:A 23 
8 *163:22 *2189:B 23 
9 *163:16 *2594:A 23 
10 *163:12 *2115:C_N 23 
11 *163:10 *1963:A 23 
12 *163:4 *2116:D 27.5986 
*END

*D_NET *164 0.00628222
*CONN
*I *2115:B I *D sky130_fd_sc_hd__nor3b_2
*I *2187:A_N I *D sky130_fd_sc_hd__nand2b_1
*I *2191:B2 I *D sky130_fd_sc_hd__o2bb2a_1
*I *2116:B_N I *D sky130_fd_sc_hd__and4bb_1
*I *2189:D_N I *D sky130_fd_sc_hd__or4b_1
*I *2438:C I *D sky130_fd_sc_hd__and3_4
*I *2531:Q O *D sky130_fd_sc_hd__dfrtp_1
*CAP
1 *2115:B 0
2 *2187:A_N 0
3 *2191:B2 0.00012488
4 *2116:B_N 0.000285845
5 *2189:D_N 9.34926e-05
6 *2438:C 0.00020093
7 *2531:Q 0.000121492
8 *164:59 0.000384243
9 *164:40 0.000657991
10 *164:36 0.000224566
11 *164:25 0.000343952
12 *164:8 0.0004611
13 *2189:D_N *316:18 0.000232401
14 *2191:B2 *447:14 5.0633e-05
15 *2191:B2 *504:14 0.000189002
16 *2191:B2 *506:10 2.07484e-05
17 *2191:B2 *750:14 5.3304e-05
18 *2438:C *177:12 7.64495e-05
19 *2438:C *699:8 1.32314e-05
20 *2438:C *724:10 9.03784e-05
21 *2438:C *749:18 0.000113153
22 *164:8 *2188:A1 3.42398e-05
23 *164:8 *2531:RESET_B 8.658e-06
24 *164:25 *724:10 7.39034e-05
25 *164:36 *316:6 4.08664e-05
26 *164:36 *316:18 0.000271906
27 *164:40 *316:31 6.07306e-05
28 *164:40 *741:26 0.000135547
29 *164:59 *447:14 0.000149925
30 *164:59 *741:26 0.000295746
31 *164:59 *750:14 9.17484e-05
32 *2115:A *164:36 5.56356e-05
33 *2116:A_N *2116:B_N 0.000174905
34 *2116:D *2116:B_N 9.84851e-05
35 *2187:B *2191:B2 7.80291e-06
36 *2187:B *164:59 0
37 *2438:B *2438:C 0.00043444
38 *2438:B *164:25 0.000161121
39 *110:27 *2438:C 2.4732e-05
40 *162:23 *2189:D_N 0.000239436
41 *162:23 *164:36 4.08664e-05
42 *162:38 *164:25 2.46345e-05
43 *163:16 *164:36 0.000119101
*RES
1 *2531:Q *164:8 39.5743 
2 *164:8 *2438:C 44.3386 
3 *164:8 *164:25 17.61 
4 *164:25 *2189:D_N 26.48 
5 *164:25 *164:36 3.97714 
6 *164:36 *164:40 16.9057 
7 *164:40 *2116:B_N 43.075 
8 *164:40 *164:59 22.0221 
9 *164:59 *2191:B2 26.8529 
10 *164:59 *2187:A_N 23 
11 *164:36 *2115:B 23 
*END

*D_NET *165 0.00213459
*CONN
*I *2442:A1 I *D sky130_fd_sc_hd__mux2_1
*I *2270:A0 I *D sky130_fd_sc_hd__mux2_1
*I *2470:Q O *D sky130_fd_sc_hd__dfstp_1
*CAP
1 *2442:A1 0.00018565
2 *2270:A0 0.000407251
3 *2470:Q 0.000165974
4 *165:10 0.000758876
5 *2270:A0 *2270:A1 0.000272383
6 *2270:A0 *2270:S 2.32004e-05
7 *2270:A0 *166:27 0
8 *2270:A0 *256:10 5.67058e-05
9 *2270:A0 *741:73 5.31757e-05
10 *2442:A1 *166:27 0
11 *165:10 *2470:SET_B 0.00010018
12 *165:10 *744:28 0.000111193
*RES
1 *2470:Q *165:10 41.8632 
2 *165:10 *2270:A0 45.9957 
3 *165:10 *2442:A1 40.61 
*END

*D_NET *166 0.00426401
*CONN
*I *2443:A1 I *D sky130_fd_sc_hd__mux2_1
*I *2271:A0 I *D sky130_fd_sc_hd__mux2_1
*I *2270:A1 I *D sky130_fd_sc_hd__mux2_1
*I *2471:Q O *D sky130_fd_sc_hd__dfstp_1
*CAP
1 *2443:A1 0
2 *2271:A0 0.000167569
3 *2270:A1 5.69748e-05
4 *2471:Q 0.000419507
5 *166:27 0.000789461
6 *166:10 0.00109837
7 *2270:A1 *2270:S 0.000315857
8 *2271:A0 *2442:S 0.000100069
9 *2271:A0 *167:27 5.79559e-05
10 *2271:A0 *741:98 1.71761e-05
11 *2271:A0 *741:111 0.000144494
12 *166:27 *2442:S 0.000173003
13 *166:27 *256:10 4.48568e-05
14 *166:27 *306:10 0.000274078
15 *166:27 *703:97 0
16 *2270:A0 *2270:A1 0.000272383
17 *2270:A0 *166:27 0
18 *2442:A0 *166:27 0.000185428
19 *2442:A1 *166:27 0
20 *150:14 *166:27 0.000146822
*RES
1 *2471:Q *166:10 43.4996 
2 *166:10 *2270:A1 41.48 
3 *166:10 *166:27 28.4436 
4 *166:27 *2271:A0 26.9564 
5 *166:27 *2443:A1 23 
*END

*D_NET *167 0.00198428
*CONN
*I *2444:A1 I *D sky130_fd_sc_hd__mux2_1
*I *2271:A1 I *D sky130_fd_sc_hd__mux2_1
*I *2272:A0 I *D sky130_fd_sc_hd__mux2_1
*I *2472:Q O *D sky130_fd_sc_hd__dfstp_1
*CAP
1 *2444:A1 6.27505e-05
2 *2271:A1 0
3 *2272:A0 0
4 *2472:Q 0
5 *167:27 0.000197567
6 *167:19 0.000406794
7 *167:12 0.000272643
8 *167:4 0.00041912
9 *2444:A1 *744:28 7.40718e-05
10 *167:12 *2272:A1 8.51329e-05
11 *167:12 *702:71 1.01436e-05
12 *167:12 *702:79 0.000169674
13 *167:19 *744:28 0.000128359
14 *167:27 *741:98 0.000100069
15 *167:27 *744:60 0
16 *2271:A0 *167:27 5.79559e-05
*RES
1 *2472:Q *167:4 23 
2 *167:4 *167:12 35.4996 
3 *167:12 *2272:A0 23 
4 *167:4 *167:19 3.24179 
5 *167:19 *167:27 33.7079 
6 *167:27 *2271:A1 23 
7 *167:19 *2444:A1 24.5743 
*END

*D_NET *168 0.00331052
*CONN
*I *2445:A1 I *D sky130_fd_sc_hd__mux2_1
*I *2273:A0 I *D sky130_fd_sc_hd__mux2_1
*I *2272:A1 I *D sky130_fd_sc_hd__mux2_1
*I *2473:Q O *D sky130_fd_sc_hd__dfstp_1
*CAP
1 *2445:A1 0.000288083
2 *2273:A0 0.000441659
3 *2272:A1 0.000326004
4 *2473:Q 0
5 *168:8 0.00081108
6 *168:4 0.0003315
7 *2272:A1 *702:69 2.76611e-06
8 *2272:A1 *702:71 0.000139203
9 *2272:A1 *702:79 5.67058e-05
10 *2272:A1 *741:44 0
11 *2272:A1 *741:46 0
12 *2272:A1 *741:50 0
13 *2272:A1 *741:56 0.000326983
14 *2273:A0 *2273:A1 0
15 *2273:A0 *2273:S 1.94693e-05
16 *2273:A0 *309:10 8.94487e-05
17 *2273:A0 *702:65 7.59794e-05
18 *2273:A0 *702:69 7.13673e-05
19 *2273:A0 *741:44 0
20 *2445:A1 *2546:CLK 0.000140935
21 *2445:A1 *308:14 3.53115e-05
22 *2445:A1 *741:124 4.05794e-05
23 *168:8 *741:124 2.83091e-05
24 *167:12 *2272:A1 8.51329e-05
*RES
1 *2473:Q *168:4 23 
2 *168:4 *168:8 15.8596 
3 *168:8 *2272:A1 46.5136 
4 *168:8 *2273:A0 45.6229 
5 *168:4 *2445:A1 28.6239 
*END

*D_NET *169 0.00245962
*CONN
*I *2274:A0 I *D sky130_fd_sc_hd__mux2_1
*I *2446:A1 I *D sky130_fd_sc_hd__mux2_1
*I *2273:A1 I *D sky130_fd_sc_hd__mux2_1
*I *2474:Q O *D sky130_fd_sc_hd__dfstp_1
*CAP
1 *2274:A0 5.72535e-05
2 *2446:A1 0.000247848
3 *2273:A1 0.000151764
4 *2474:Q 0.000425004
5 *169:12 0.000553612
6 *169:10 0.000636258
7 *2273:A1 *309:10 0
8 *2274:A0 *2274:A1 6.17437e-06
9 *2274:A0 *261:10 1.57571e-05
10 *2446:A1 *309:10 5.47808e-05
11 *169:10 *2474:SET_B 0.000201854
12 *169:10 *261:10 8.62876e-05
13 *2273:A0 *2273:A1 0
14 *153:14 *2446:A1 2.30292e-05
*RES
1 *2474:Q *169:10 44.4525 
2 *169:10 *169:12 2.61 
3 *169:12 *2273:A1 40.61 
4 *169:12 *2446:A1 42.9093 
5 *169:10 *2274:A0 39.1186 
*END

*D_NET *170 0.00381162
*CONN
*I *2447:A1 I *D sky130_fd_sc_hd__mux2_1
*I *2275:A0 I *D sky130_fd_sc_hd__mux2_1
*I *2274:A1 I *D sky130_fd_sc_hd__mux2_1
*I *2475:Q O *D sky130_fd_sc_hd__dfstp_1
*CAP
1 *2447:A1 0
2 *2275:A0 0
3 *2274:A1 0.000147644
4 *2475:Q 0.000453279
5 *170:16 0.000822444
6 *170:10 0.00112808
7 *2274:A1 *2274:S 0.000156058
8 *2274:A1 *261:10 0.000185434
9 *2274:A1 *741:144 4.00259e-06
10 *170:10 *2475:SET_B 2.27011e-05
11 *170:10 *2550:D 7.63261e-05
12 *170:10 *310:10 8.4047e-05
13 *170:10 *699:35 0.000130424
14 *170:10 *699:41 1.14452e-05
15 *170:10 *702:42 0
16 *170:10 *702:150 6.65058e-05
17 *170:16 *783:DIODE 0.00010018
18 *170:16 *2274:S 4.56951e-05
19 *170:16 *2500:CLK 0.000103415
20 *170:16 *2500:D 5.37348e-06
21 *170:16 *699:41 0.000166513
22 *170:16 *702:42 0
23 *170:16 *741:158 9.5877e-05
24 *2274:A0 *2274:A1 6.17437e-06
*RES
1 *2475:Q *170:10 45.0532 
2 *170:10 *170:16 25.5021 
3 *170:16 *2274:A1 27.4536 
4 *170:16 *2275:A0 23 
5 *170:10 *2447:A1 38 
*END

*D_NET *171 0.00396299
*CONN
*I *2448:A1 I *D sky130_fd_sc_hd__mux2_1
*I *2276:A0 I *D sky130_fd_sc_hd__mux2_1
*I *2275:A1 I *D sky130_fd_sc_hd__mux2_1
*I *2476:Q O *D sky130_fd_sc_hd__dfstp_1
*CAP
1 *2448:A1 0.000373143
2 *2276:A0 0.000271795
3 *2275:A1 0.000393259
4 *2476:Q 0
5 *171:8 0.000823901
6 *171:4 0.000531991
7 *2275:A1 *2476:SET_B 0.000141879
8 *2275:A1 *2477:SET_B 3.2457e-05
9 *2275:A1 *261:10 0
10 *2275:A1 *741:42 0.00026104
11 *2275:A1 *741:44 6.07611e-06
12 *2276:A0 *2276:A1 0.00016046
13 *2276:A0 *2277:A0 0.000222113
14 *2276:A0 *2477:SET_B 6.96368e-05
15 *2276:A0 *262:8 0
16 *2276:A0 *702:204 0.000404986
17 *2276:A0 *741:42 0.000170817
18 *2448:A1 *311:16 3.22051e-05
19 *171:8 *2476:SET_B 1.05235e-05
20 *2448:A0 *2448:A1 5.67058e-05
*RES
1 *2476:Q *171:4 23 
2 *171:4 *171:8 16.8125 
3 *171:8 *2275:A1 46.9486 
4 *171:8 *2276:A0 47.6529 
5 *171:4 *2448:A1 30.0946 
*END

*D_NET *172 0.00209107
*CONN
*I *2449:A1 I *D sky130_fd_sc_hd__mux2_1
*I *2276:A1 I *D sky130_fd_sc_hd__mux2_1
*I *2277:A0 I *D sky130_fd_sc_hd__mux2_1
*I *2477:Q O *D sky130_fd_sc_hd__dfstp_1
*CAP
1 *2449:A1 0.000168249
2 *2276:A1 4.62291e-05
3 *2277:A0 0.00022487
4 *2477:Q 0
5 *172:8 0.000302827
6 *172:4 0.000199977
7 *2276:A1 *741:40 0.000169683
8 *2277:A0 *2277:S 9.41704e-05
9 *2277:A0 *173:16 5.3304e-05
10 *2277:A0 *741:40 0.000130433
11 *2277:A0 *741:42 8.94487e-05
12 *2449:A1 *312:10 2.93845e-05
13 *2449:A1 *699:20 0.000142585
14 *2276:A0 *2276:A1 0.00016046
15 *2276:A0 *2277:A0 0.000222113
16 *2449:A0 *2449:A1 5.73309e-05
*RES
1 *2477:Q *172:4 23 
2 *172:4 *172:8 15.3832 
3 *172:8 *2277:A0 43.4893 
4 *172:8 *2276:A1 40.2579 
5 *172:4 *2449:A1 26.7182 
*END

*D_NET *173 0.00496875
*CONN
*I *2384:A1_N I *D sky130_fd_sc_hd__a2bb2o_1
*I *2278:A0 I *D sky130_fd_sc_hd__mux2_1
*I *2277:A1 I *D sky130_fd_sc_hd__mux2_1
*I *2478:Q O *D sky130_fd_sc_hd__dfstp_1
*CAP
1 *2384:A1_N 0
2 *2278:A0 3.9534e-05
3 *2277:A1 0
4 *2478:Q 0
5 *173:40 0.000524431
6 *173:16 0.00101033
7 *173:10 0.00134602
8 *173:4 0.00082058
9 *2278:A0 *762:14 2.93747e-05
10 *2278:A0 *762:25 6.17437e-06
11 *173:10 *177:12 5.31444e-05
12 *173:10 *749:50 5.20202e-05
13 *173:16 *2540:RESET_B 0.000157883
14 *173:16 *177:12 3.0647e-05
15 *173:16 *262:8 0.000354788
16 *173:16 *303:10 0
17 *173:16 *304:10 0
18 *173:16 *741:40 0
19 *173:16 *749:50 0.000224669
20 *173:16 *762:33 9.20311e-06
21 *173:40 *174:10 1.70074e-05
22 *173:40 *177:12 0
23 *173:40 *294:10 2.11101e-05
24 *173:40 *505:16 0.000123924
25 *173:40 *699:10 0
26 *173:40 *762:33 9.46108e-05
27 *2277:A0 *173:16 5.3304e-05
28 *108:28 *173:16 0
29 *109:27 *173:16 0
*RES
1 *2478:Q *173:4 23 
2 *173:4 *173:10 19.3189 
3 *173:10 *173:16 36.315 
4 *173:16 *2277:A1 23 
5 *173:10 *2278:A0 38.6214 
6 *173:4 *173:40 40.3468 
7 *173:40 *2384:A1_N 23 
*END

*D_NET *174 0.00213567
*CONN
*I *2190:C I *D sky130_fd_sc_hd__or4b_1
*I *2598:A I *D sky130_fd_sc_hd__dlygate4sd3_1
*I *2542:Q O *D sky130_fd_sc_hd__dfstp_1
*CAP
1 *2190:C 0.000132556
2 *2598:A 0
3 *2542:Q 0.000392143
4 *174:10 0.000524699
5 *2190:C *2192:A 4.21594e-06
6 *2190:C *750:36 2.3529e-05
7 *2190:C *750:55 8.51432e-05
8 *174:10 *2192:A 2.04774e-05
9 *174:10 *2508:RESET_B 0
10 *174:10 *2529:RESET_B 0.000140661
11 *174:10 *177:12 1.02387e-05
12 *174:10 *294:10 0.000215465
13 *174:10 *504:28 1.37246e-05
14 *174:10 *505:16 0.00011624
15 *174:10 *749:35 0
16 *174:10 *750:36 8.16253e-05
17 *158:8 *174:10 0.000357939
18 *163:30 *2190:C 0
19 *173:40 *174:10 1.70074e-05
*RES
1 *2542:Q *174:10 49.5689 
2 *174:10 *2598:A 38 
3 *174:10 *2190:C 40.9621 
*END

*D_NET *175 0.00109126
*CONN
*I *2190:D_N I *D sky130_fd_sc_hd__or4b_1
*I *2543:Q O *D sky130_fd_sc_hd__dfstp_1
*CAP
1 *2190:D_N 0
2 *2543:Q 0.000229263
3 *175:10 0.000229263
4 *175:10 *2508:RESET_B 0.000195157
5 *175:10 *2543:SET_B 5.50049e-05
6 *175:10 *750:36 0.000194318
7 *175:10 *750:55 0.000188256
*RES
1 *2543:Q *175:10 44.4111 
2 *175:10 *2190:D_N 38 
*END

*D_NET *176 0.00116112
*CONN
*I *2591:A I *D sky130_fd_sc_hd__dlygate4sd3_1
*I *2544:Q O *D sky130_fd_sc_hd__dfstp_1
*CAP
1 *2591:A 0
2 *2544:Q 0.000308528
3 *176:10 0.000308528
4 *176:10 *704:25 1.59094e-05
5 *176:10 *704:27 9.03784e-05
6 *176:10 *704:62 0.000139647
7 *176:10 *704:73 0.000225275
8 *176:10 *712:10 7.28526e-05
9 *176:10 *749:39 0
10 *176:10 *749:48 0
*RES
1 *2544:Q *176:10 45.5918 
2 *176:10 *2591:A 38 
*END

*D_NET *177 0.010922
*CONN
*I *2575:A I *D sky130_fd_sc_hd__clkbuf_4
*I *1995:A2 I *D sky130_fd_sc_hd__o21a_1
*I *1993:B1 I *D sky130_fd_sc_hd__o311a_1
*I *2278:S I *D sky130_fd_sc_hd__mux2_1
*I *2527:Q O *D sky130_fd_sc_hd__dfrtp_1
*CAP
1 *2575:A 5.80979e-05
2 *1995:A2 0.000384663
3 *1993:B1 0
4 *2278:S 0
5 *2527:Q 0.000317888
6 *177:45 0.000590434
7 *177:37 0.000563593
8 *177:33 0.00167808
9 *177:12 0.00149373
10 *177:6 0.00318997
11 *1995:A2 *1993:A1 2.31591e-05
12 *1995:A2 *1993:A2 0.000100061
13 *1995:A2 *2007:A1 0.000153155
14 *1995:A2 *2007:B1 8.39049e-06
15 *1995:A2 *178:21 5.58975e-06
16 *1995:A2 *179:14 0
17 *1995:A2 *179:20 1.64905e-05
18 *1995:A2 *340:10 1.74874e-06
19 *2575:A *1987:A 0.000144501
20 *2575:A *741:6 5.72975e-05
21 *177:12 *294:10 4.08537e-05
22 *177:12 *699:8 0.000209492
23 *177:12 *699:10 0
24 *177:12 *749:33 7.60287e-05
25 *177:12 *749:35 0.000102365
26 *177:12 *749:39 0
27 *177:12 *749:48 0
28 *177:12 *749:50 0
29 *177:12 *762:33 0.000438156
30 *177:33 *2120:A3 0
31 *177:33 *447:10 0.000356554
32 *177:33 *447:33 0
33 *177:33 *704:219 0
34 *177:33 *741:26 0.000267335
35 *177:37 *1988:B 0
36 *177:37 *178:21 1.13013e-05
37 *177:37 *313:12 0
38 *177:37 *356:10 0.000108681
39 *177:45 *1987:A 1.41129e-05
40 *177:45 *1987:B 0
41 *177:45 *1988:B 6.28499e-05
42 *177:45 *2007:B1 0.000138607
43 *177:45 *178:21 2.72882e-05
44 *2187:B *177:33 1.3334e-05
45 *2438:B *177:12 1.08287e-05
46 *2438:C *177:12 7.64495e-05
47 *160:10 *177:33 8.68575e-05
48 *161:23 *177:33 0
49 *161:36 *177:37 0
50 *163:10 *177:33 0
51 *173:10 *177:12 5.31444e-05
52 *173:16 *177:12 3.0647e-05
53 *173:40 *177:12 0
54 *174:10 *177:12 1.02387e-05
*RES
1 *2527:Q *177:6 26.9564 
2 *177:6 *177:12 39.6707 
3 *177:12 *2278:S 38 
4 *177:6 *177:33 48.7925 
5 *177:33 *177:37 19.8989 
6 *177:37 *177:45 18.3971 
7 *177:45 *1993:B1 38 
8 *177:45 *1995:A2 44.1107 
9 *177:37 *2575:A 24.5743 
*END

*D_NET *178 0.00174064
*CONN
*I *1988:A I *D sky130_fd_sc_hd__and3_1
*I *1987:A I *D sky130_fd_sc_hd__nand2_1
*I *1993:C1 I *D sky130_fd_sc_hd__o311a_1
*I *2597:A I *D sky130_fd_sc_hd__dlygate4sd3_1
*I *2508:Q O *D sky130_fd_sc_hd__dfrtp_1
*CAP
1 *1988:A 0
2 *1987:A 7.4162e-05
3 *1993:C1 0
4 *2597:A 0
5 *2508:Q 0.000184435
6 *178:21 0.000172978
7 *178:15 0.000197111
8 *178:6 0.00028273
9 *1987:A *1993:A1 0.000317988
10 *1987:A *2007:B1 5.3304e-05
11 *1987:A *741:6 4.72245e-05
12 *178:6 *1988:B 2.86398e-05
13 *178:6 *728:10 2.30292e-05
14 *178:15 *1988:B 1.97105e-05
15 *178:21 *1988:B 2.71929e-05
16 *178:21 *356:10 0.000109343
17 *1995:A2 *178:21 5.58975e-06
18 *2575:A *1987:A 0.000144501
19 *177:37 *178:21 1.13013e-05
20 *177:45 *1987:A 1.41129e-05
21 *177:45 *178:21 2.72882e-05
*RES
1 *2508:Q *178:6 26.48 
2 *178:6 *2597:A 23 
3 *178:6 *178:15 1.94714 
4 *178:15 *178:21 32.2579 
5 *178:21 *1993:C1 23 
6 *178:21 *1987:A 26.48 
7 *178:15 *1988:A 23 
*END

*D_NET *179 0.00416547
*CONN
*I *1991:A2 I *D sky130_fd_sc_hd__o31a_1
*I *2007:A1 I *D sky130_fd_sc_hd__o21a_1
*I *1993:A3 I *D sky130_fd_sc_hd__o311a_1
*I *1988:B I *D sky130_fd_sc_hd__and3_1
*I *2509:Q O *D sky130_fd_sc_hd__dfrtp_1
*CAP
1 *1991:A2 0.000110922
2 *2007:A1 0.000183118
3 *1993:A3 0
4 *1988:B 0.000417093
5 *2509:Q 0.000275067
6 *179:20 0.000590687
7 *179:14 0.000753723
8 *179:6 0.000783
9 *1988:B *356:10 5.26733e-06
10 *1988:B *728:10 0
11 *1988:B *750:67 0
12 *1991:A2 *1991:A1 2.93335e-05
13 *1991:A2 *342:18 4.49877e-05
14 *1991:A2 *357:8 9.78729e-06
15 *2007:A1 *1993:A1 1.03729e-05
16 *2007:A1 *2007:B1 0.000309586
17 *2007:A1 *182:12 3.22879e-05
18 *179:6 *2509:RESET_B 3.71251e-05
19 *179:6 *2511:RESET_B 8.10976e-05
20 *179:6 *184:10 7.43025e-06
21 *179:6 *342:18 6.17437e-06
22 *179:6 *357:8 2.94066e-05
23 *179:14 *2511:RESET_B 0.000104617
24 *179:14 *185:19 2.68708e-05
25 *179:14 *340:10 0
26 *179:14 *342:18 9.4798e-06
27 *179:14 *750:67 0
28 *179:14 *750:71 0
29 *179:20 *728:10 0
30 *179:20 *750:67 0
31 *1995:A2 *2007:A1 0.000153155
32 *1995:A2 *179:14 0
33 *1995:A2 *179:20 1.64905e-05
34 *177:37 *1988:B 0
35 *177:45 *1988:B 6.28499e-05
36 *178:6 *1988:B 2.86398e-05
37 *178:15 *1988:B 1.97105e-05
38 *178:21 *1988:B 2.71929e-05
*RES
1 *2509:Q *179:6 27.9093 
2 *179:6 *179:14 22.1982 
3 *179:14 *179:20 2.3925 
4 *179:20 *1988:B 44.1936 
5 *179:20 *1993:A3 38 
6 *179:14 *2007:A1 43.8829 
7 *179:6 *1991:A2 25.0507 
*END

*D_NET *180 0.00321709
*CONN
*I *1989:A I *D sky130_fd_sc_hd__and2_1
*I *2008:A1 I *D sky130_fd_sc_hd__o21ai_1
*I *1991:A1 I *D sky130_fd_sc_hd__o31a_1
*I *1993:A2 I *D sky130_fd_sc_hd__o311a_1
*I *2510:Q O *D sky130_fd_sc_hd__dfrtp_1
*CAP
1 *1989:A 0.000207429
2 *2008:A1 5.55134e-05
3 *1991:A1 0.000149971
4 *1993:A2 0.000195473
5 *2510:Q 9.24908e-05
6 *180:21 0.000435614
7 *180:8 0.000425602
8 *180:6 0.000299919
9 *1989:A *1992:A1 8.76309e-05
10 *1989:A *1992:A2 2.46906e-05
11 *1989:A *1992:C1 5.3304e-05
12 *1989:A *342:8 1.10658e-05
13 *1989:A *342:18 1.24376e-05
14 *1989:A *343:8 4.34464e-05
15 *1991:A1 *2008:B1 0
16 *1991:A1 *340:10 2.39061e-05
17 *1991:A1 *342:18 4.2812e-06
18 *1991:A1 *357:8 5.79559e-05
19 *1993:A2 *1993:A1 0.000272652
20 *1993:A2 *340:10 0.000139052
21 *2008:A1 *1991:B1 5.56356e-05
22 *2008:A1 *357:8 5.79559e-05
23 *180:6 *342:18 2.65702e-05
24 *180:21 *1992:C1 0
25 *180:21 *314:10 0
26 *180:21 *340:10 0.000244189
27 *180:21 *344:10 0.000110913
28 *1991:A2 *1991:A1 2.93335e-05
29 *1995:A2 *1993:A2 0.000100061
*RES
1 *2510:Q *180:6 24.0979 
2 *180:6 *180:8 15 
3 *180:8 *1993:A2 42.5571 
4 *180:8 *180:21 3.49036 
5 *180:21 *1991:A1 41.0346 
6 *180:21 *2008:A1 39.5639 
7 *180:6 *1989:A 27.3293 
*END

*D_NET *181 0.00238824
*CONN
*I *1961:A I *D sky130_fd_sc_hd__inv_2
*I *1991:B1 I *D sky130_fd_sc_hd__o31a_1
*I *1990:A I *D sky130_fd_sc_hd__nand2_1
*I *2511:Q O *D sky130_fd_sc_hd__dfrtp_1
*CAP
1 *1961:A 0
2 *1991:B1 0.000186626
3 *1990:A 0.000203425
4 *2511:Q 0.000264546
5 *181:25 0.000186626
6 *181:10 0.000467971
7 *1990:A *1990:B 5.90675e-06
8 *1990:A *2008:A2 0.000179702
9 *1990:A *2008:B1 0.00021356
10 *1990:A *341:23 3.70187e-05
11 *1990:A *343:8 9.91798e-05
12 *1991:B1 *2008:A2 8.19402e-05
13 *1991:B1 *2008:B1 0.000100061
14 *1991:B1 *314:10 2.64616e-05
15 *1991:B1 *357:8 0.000141393
16 *181:10 *2008:A2 3.47781e-05
17 *181:10 *2008:B1 2.46345e-05
18 *181:10 *704:188 7.87782e-05
19 *181:10 *704:196 0
20 *2008:A1 *1991:B1 5.56356e-05
*RES
1 *2511:Q *181:10 41.8321 
2 *181:10 *1990:A 43.51 
3 *181:10 *181:25 15 
4 *181:25 *1991:B1 28.0957 
5 *181:25 *1961:A 23 
*END

*D_NET *182 0.00147714
*CONN
*I *2092:D I *D sky130_fd_sc_hd__and4bb_1
*I *2508:D I *D sky130_fd_sc_hd__dfrtp_1
*I *1995:X O *D sky130_fd_sc_hd__o21a_1
*CAP
1 *2092:D 0.000157069
2 *2508:D 0.000153511
3 *1995:X 0.000317041
4 *182:12 0.000627621
5 *2092:D *2092:C 1.94693e-05
6 *2092:D *183:8 3.56537e-05
7 *2092:D *183:20 9.84794e-05
8 *2092:D *704:143 0
9 *2508:D *2508:RESET_B 0
10 *2508:D *345:14 0
11 *2508:D *704:143 0
12 *182:12 *2007:B1 3.60059e-05
13 *2007:A1 *182:12 3.22879e-05
*RES
1 *1995:X *182:12 43.075 
2 *182:12 *2508:D 40.9621 
3 *182:12 *2092:D 41.3557 
*END

*D_NET *183 0.00133785
*CONN
*I *2092:A_N I *D sky130_fd_sc_hd__and4bb_1
*I *2509:D I *D sky130_fd_sc_hd__dfrtp_1
*I *2007:X O *D sky130_fd_sc_hd__o21a_1
*CAP
1 *2092:A_N 3.15966e-05
2 *2509:D 0
3 *2007:X 7.97676e-05
4 *183:20 0.000339022
5 *183:10 0.000370619
6 *183:8 7.97676e-05
7 *2092:A_N *2092:B_N 5.37348e-06
8 *2092:A_N *2092:C 9.8971e-06
9 *183:8 *750:67 0
10 *183:20 *2092:C 3.46673e-05
11 *183:20 *186:10 5.3304e-05
12 *183:20 *704:143 0.000199701
13 *2092:D *183:8 3.56537e-05
14 *2092:D *183:20 9.84794e-05
*RES
1 *2007:X *183:8 39.5536 
2 *183:8 *183:10 15 
3 *183:10 *183:20 37.0636 
4 *183:20 *2509:D 23 
5 *183:10 *2092:A_N 23.6214 
*END

*D_NET *184 0.00180882
*CONN
*I *2510:D I *D sky130_fd_sc_hd__dfrtp_1
*I *2092:B_N I *D sky130_fd_sc_hd__and4bb_1
*I *2009:Y O *D sky130_fd_sc_hd__nor2_1
*CAP
1 *2510:D 0
2 *2092:B_N 7.13639e-05
3 *2009:Y 0.000351323
4 *184:14 0.000118458
5 *184:10 0.000398417
6 *2092:B_N *2092:C 0.000228001
7 *2092:B_N *2510:CLK 5.50106e-05
8 *184:10 *2509:RESET_B 5.3304e-05
9 *184:10 *2510:CLK 0
10 *184:10 *2511:RESET_B 0.000213869
11 *184:10 *357:8 5.56356e-05
12 *184:10 *750:67 1.01436e-05
13 *184:10 *750:71 9.85378e-05
14 *184:14 *2092:C 0.000141954
15 *2092:A_N *2092:B_N 5.37348e-06
16 *179:6 *184:10 7.43025e-06
*RES
1 *2009:Y *184:10 43.51 
2 *184:10 *184:14 16.5743 
3 *184:14 *2092:B_N 25.5271 
4 *184:14 *2510:D 23 
*END

*D_NET *185 0.0030608
*CONN
*I *2511:D I *D sky130_fd_sc_hd__dfrtp_1
*I *2092:C I *D sky130_fd_sc_hd__and4bb_1
*I *1992:X O *D sky130_fd_sc_hd__o211a_1
*CAP
1 *2511:D 0
2 *2092:C 0.00057458
3 *1992:X 0.00039722
4 *185:19 0.000257344
5 *185:6 0.00122914
6 *185:6 *342:18 7.58527e-05
7 *185:19 *2511:RESET_B 3.61611e-05
8 *185:19 *750:71 2.96369e-05
9 *2092:A_N *2092:C 9.8971e-06
10 *2092:B_N *2092:C 0.000228001
11 *2092:D *2092:C 1.94693e-05
12 *179:14 *185:19 2.68708e-05
13 *183:20 *2092:C 3.46673e-05
14 *184:14 *2092:C 0.000141954
*RES
1 *1992:X *185:6 27.9093 
2 *185:6 *2092:C 31.2443 
3 *185:6 *185:19 34.7229 
4 *185:19 *2511:D 23 
*END

*D_NET *186 0.00138335
*CONN
*I *2512:D I *D sky130_fd_sc_hd__dfrtp_1
*I *2092:X O *D sky130_fd_sc_hd__and4bb_1
*CAP
1 *2512:D 0
2 *2092:X 0.000351816
3 *186:10 0.000351816
4 *186:10 *704:119 6.48049e-05
5 *186:10 *704:130 0.000215131
6 *186:10 *704:143 0.000346476
7 *56:10 *186:10 0
8 *183:20 *186:10 5.3304e-05
*RES
1 *2092:X *186:10 46.8657 
2 *186:10 *2512:D 38 
*END

*D_NET *187 0.0123373
*CONN
*I *1981:A I *D sky130_fd_sc_hd__inv_2
*I *2107:A2 I *D sky130_fd_sc_hd__o2111a_1
*I *2119:A1 I *D sky130_fd_sc_hd__o211a_1
*I *2117:A I *D sky130_fd_sc_hd__nand2_1
*I *2116:C I *D sky130_fd_sc_hd__and4bb_1
*I *2513:Q O *D sky130_fd_sc_hd__dfrtp_2
*CAP
1 *1981:A 0
2 *2107:A2 0
3 *2119:A1 7.1135e-05
4 *2117:A 2.95011e-05
5 *2116:C 0
6 *2513:Q 0
7 *187:64 0.00111902
8 *187:53 0.000335431
9 *187:41 0.00273771
10 *187:19 0.000249729
11 *187:10 0.000479445
12 *187:4 0.00161361
13 *2117:A *2583:A 5.50106e-05
14 *2119:A1 *2119:A2 0.000138727
15 *2119:A1 *447:52 5.33597e-05
16 *2119:A1 *448:8 1.80023e-05
17 *2119:A1 *449:8 0.000140958
18 *187:10 *752:47 0
19 *187:19 *2120:A3 0.000249918
20 *187:19 *447:52 1.14452e-05
21 *187:19 *448:8 5.26101e-05
22 *187:19 *752:47 0
23 *187:41 *2513:CLK 1.94693e-05
24 *187:41 *2514:RESET_B 0.000128401
25 *187:41 *2525:D 0.000327155
26 *187:53 *2097:A_N 0.000239496
27 *187:53 *2107:A1 4.0771e-05
28 *187:53 *2107:C1 5.50106e-05
29 *187:53 *2107:D1 8.5346e-05
30 *187:53 *190:10 1.44813e-05
31 *187:53 *426:10 8.58484e-05
32 *187:64 *2525:D 0.000819318
33 *187:64 *200:47 6.7177e-06
34 *187:64 *204:23 0.000299111
35 *187:64 *320:66 0.000732369
36 *187:64 *438:16 2.06822e-05
37 *187:64 *451:74 0.000306338
38 *187:64 *451:82 0.000844017
39 *187:64 *500:16 9.16459e-05
40 *187:64 *716:18 0.00086549
41 *163:10 *187:10 0
*RES
1 *2513:Q *187:4 23 
2 *187:4 *187:10 20.0129 
3 *187:10 *2116:C 38 
4 *187:10 *187:19 4.01857 
5 *187:19 *2117:A 38.6214 
6 *187:19 *2119:A1 40.61 
7 *187:4 *187:41 18.27 
8 *187:41 *187:53 36.3593 
9 *187:53 *2107:A2 23 
10 *187:41 *187:64 45.8436 
11 *187:64 *1981:A 38 
*END

*D_NET *188 0.00476788
*CONN
*I *2098:B I *D sky130_fd_sc_hd__xnor2_1
*I *2156:B I *D sky130_fd_sc_hd__and4_1
*I *2152:B I *D sky130_fd_sc_hd__and3_1
*I *2151:B1 I *D sky130_fd_sc_hd__a21oi_1
*I *2523:Q O *D sky130_fd_sc_hd__dfrtp_1
*CAP
1 *2098:B 0.000333076
2 *2156:B 0
3 *2152:B 0.000306991
4 *2151:B1 2.54511e-05
5 *2523:Q 0
6 *188:23 0.000422898
7 *188:12 0.000598783
8 *188:6 0.0007905
9 *2098:B *2104:C1 0.000136738
10 *2098:B *196:25 3.55303e-05
11 *2098:B *324:20 3.55303e-05
12 *2098:B *330:8 5.12254e-05
13 *2098:B *330:16 0.000113423
14 *2098:B *332:16 0.000435849
15 *2098:B *438:8 1.05441e-05
16 *2098:B *708:96 5.72519e-05
17 *2098:B *763:20 3.53997e-05
18 *2151:B1 *2153:B 4.04598e-06
19 *2151:B1 *330:16 5.50049e-05
20 *2152:B *2152:A 2.4754e-05
21 *2152:B *214:8 0.000181919
22 *2152:B *470:52 1.74872e-05
23 *2152:B *472:10 8.4047e-05
24 *2152:B *716:18 4.55358e-05
25 *2152:B *738:145 8.49404e-06
26 *188:12 *2151:A2 9.67842e-05
27 *188:12 *330:16 0.000359086
28 *188:12 *438:8 0.000311412
29 *188:12 *470:27 0
30 *188:12 *708:29 1.12487e-05
31 *188:23 *200:30 0
32 *188:23 *200:38 0.000133316
33 *188:23 *716:18 4.13418e-05
34 *188:23 *738:145 4.21594e-06
*RES
1 *2523:Q *188:6 38 
2 *188:6 *188:12 25.295 
3 *188:12 *2151:B1 23.6214 
4 *188:12 *188:23 17.2579 
5 *188:23 *2152:B 42.785 
6 *188:23 *2156:B 38 
7 *188:6 *2098:B 46.9279 
*END

*D_NET *189 0.00788147
*CONN
*I *2096:A_N I *D sky130_fd_sc_hd__nand2b_1
*I *2093:B I *D sky130_fd_sc_hd__nand2b_1
*I *2156:C I *D sky130_fd_sc_hd__and4_1
*I *2155:A I *D sky130_fd_sc_hd__nor2_1
*I *2524:Q O *D sky130_fd_sc_hd__dfrtp_1
*CAP
1 *2096:A_N 1.04971e-05
2 *2093:B 5.77869e-05
3 *2156:C 0
4 *2155:A 0
5 *2524:Q 0.000577837
6 *189:50 0.00115448
7 *189:35 0.000464296
8 *189:14 0.000481933
9 *189:10 0.00168167
10 *2093:B *772:DIODE 3.8458e-05
11 *2093:B *2093:A_N 1.14154e-05
12 *2093:B *759:70 3.22879e-05
13 *2096:A_N *2093:A_N 1.14154e-05
14 *2096:A_N *759:66 0
15 *2096:A_N *759:70 6.77529e-06
16 *189:10 *2522:D 0
17 *189:10 *476:10 0.000292662
18 *189:10 *477:24 0.000145634
19 *189:10 *478:16 0
20 *189:10 *502:10 0.000109377
21 *189:10 *752:23 9.98891e-05
22 *189:10 *752:73 0.000136352
23 *189:14 *759:52 5.50106e-05
24 *189:14 *761:102 2.18506e-05
25 *189:35 *2153:A 9.62666e-05
26 *189:35 *2155:B 5.8147e-05
27 *189:35 *708:35 0.000185755
28 *189:35 *759:52 3.22364e-05
29 *189:35 *761:102 0.000620644
30 *189:50 *439:10 2.93747e-05
31 *189:50 *477:24 5.11569e-05
32 *189:50 *494:12 0
33 *189:50 *752:73 3.98286e-05
34 *189:50 *759:66 0.00101975
35 *189:50 *759:70 3.39023e-05
36 *189:50 *761:102 0.000141954
37 *189:50 *761:114 0.000182832
*RES
1 *2524:Q *189:10 49.9314 
2 *189:10 *189:14 15.6214 
3 *189:14 *2155:A 23 
4 *189:14 *189:35 40.2329 
5 *189:35 *2156:C 23 
6 *189:10 *189:50 33.5393 
7 *189:50 *2093:B 24.7452 
8 *189:50 *2096:A_N 23.4971 
*END

*D_NET *190 0.00412038
*CONN
*I *2110:B1 I *D sky130_fd_sc_hd__a221oi_1
*I *2100:A_N I *D sky130_fd_sc_hd__nand2b_1
*I *2159:A I *D sky130_fd_sc_hd__nor2_1
*I *2160:A I *D sky130_fd_sc_hd__and2_1
*I *2525:Q O *D sky130_fd_sc_hd__dfrtp_1
*CAP
1 *2110:B1 0.000232569
2 *2100:A_N 0
3 *2159:A 0.000354948
4 *2160:A 9.55236e-05
5 *2525:Q 4.99221e-05
6 *190:40 0.000451914
7 *190:10 0.000700992
8 *190:8 0.000519787
9 *2110:B1 *2110:B2 1.83444e-05
10 *2110:B1 *2179:A 1.14452e-05
11 *2110:B1 *195:18 4.04598e-06
12 *2110:B1 *322:30 1.14154e-05
13 *2110:B1 *731:22 0
14 *2110:B1 *738:133 0
15 *2159:A *2101:B 0.000187904
16 *2159:A *2107:A1 8.72173e-05
17 *2159:A *2159:B 1.97956e-05
18 *2159:A *451:27 0
19 *2159:A *479:10 4.16446e-05
20 *2159:A *759:66 0.000181919
21 *2160:A *2097:A_N 0
22 *2160:A *2101:B 1.92797e-05
23 *2160:A *191:10 0
24 *190:8 *2525:RESET_B 5.3304e-05
25 *190:10 *2097:A_N 0
26 *190:10 *2107:A1 0.000336732
27 *190:10 *426:10 0.000286524
28 *190:40 *2107:A1 7.17297e-05
29 *190:40 *2179:A 0.000295039
30 *190:40 *426:10 7.39034e-05
31 *190:40 *738:133 0
32 *187:53 *190:10 1.44813e-05
*RES
1 *2525:Q *190:8 38.6214 
2 *190:8 *190:10 5.60321 
3 *190:10 *2160:A 39.6468 
4 *190:10 *2159:A 44.8254 
5 *190:8 *190:40 5.075 
6 *190:40 *2100:A_N 38 
7 *190:40 *2110:B1 41.5007 
*END

*D_NET *191 0.00474981
*CONN
*I *2101:B I *D sky130_fd_sc_hd__nand2b_1
*I *2164:A1 I *D sky130_fd_sc_hd__o21a_1
*I *2097:A_N I *D sky130_fd_sc_hd__nand2b_1
*I *2163:A1 I *D sky130_fd_sc_hd__a21oi_1
*I *2526:Q O *D sky130_fd_sc_hd__dfrtp_1
*CAP
1 *2101:B 0.000255151
2 *2164:A1 0
3 *2097:A_N 0.000372459
4 *2163:A1 0
5 *2526:Q 0.000441339
6 *191:36 0.000506697
7 *191:10 0.000569758
8 *191:6 0.000890183
9 *2097:A_N *2525:D 0.000139346
10 *2097:A_N *2525:RESET_B 0.000139346
11 *2097:A_N *426:10 1.69668e-05
12 *2097:A_N *738:133 0.000197558
13 *2101:B *451:27 4.19124e-05
14 *2101:B *479:10 6.02707e-05
15 *2101:B *480:30 0.000242563
16 *191:6 *701:22 0.000137613
17 *191:6 *705:156 2.35238e-05
18 *191:10 *701:22 0
19 *191:10 *705:156 0
20 *191:10 *738:133 6.07611e-06
21 *191:10 *738:145 2.36993e-05
22 *191:10 *751:55 0
23 *191:36 *2526:D 0.000185428
24 *191:36 *480:30 3.92407e-05
25 *191:36 *705:156 1.40004e-05
26 *2159:A *2101:B 0.000187904
27 *2160:A *2097:A_N 0
28 *2160:A *2101:B 1.92797e-05
29 *2160:A *191:10 0
30 *187:53 *2097:A_N 0.000239496
31 *190:10 *2097:A_N 0
*RES
1 *2526:Q *191:6 29.3386 
2 *191:6 *191:10 19.0186 
3 *191:10 *2163:A1 38 
4 *191:10 *2097:A_N 45.975 
5 *191:6 *191:36 19.6814 
6 *191:36 *2164:A1 38 
7 *191:36 *2101:B 44.9704 
*END

*D_NET *192 0.00823009
*CONN
*I *2105:A2 I *D sky130_fd_sc_hd__o2111a_1
*I *2122:A I *D sky130_fd_sc_hd__nor2_1
*I *2128:A I *D sky130_fd_sc_hd__and4_1
*I *2124:A I *D sky130_fd_sc_hd__and3_1
*I *1982:A I *D sky130_fd_sc_hd__inv_2
*I *2514:Q O *D sky130_fd_sc_hd__dfrtp_1
*CAP
1 *2105:A2 0.00108044
2 *2122:A 0
3 *2128:A 0
4 *2124:A 6.75784e-05
5 *1982:A 0.00018154
6 *2514:Q 0.000340802
7 *192:53 0.000117846
8 *192:47 0.00155202
9 *192:31 0.000416387
10 *192:10 0.000640619
11 *192:6 0.000804813
12 *1982:A *2118:A2 5.3304e-05
13 *1982:A *2122:B 8.77152e-06
14 *1982:A *2123:A 2.02872e-05
15 *1982:A *2123:C 5.99831e-05
16 *1982:A *201:18 5.02029e-05
17 *1982:A *751:96 4.95262e-06
18 *2105:A2 *2514:CLK 0.000141954
19 *2105:A2 *201:35 0.000399168
20 *2105:A2 *432:8 6.85921e-05
21 *2105:A2 *446:8 2.13733e-05
22 *2105:A2 *760:34 0.000487137
23 *2124:A *2124:C 8.61932e-05
24 *2124:A *2128:D 5.50106e-05
25 *2124:A *452:14 0.000230604
26 *192:6 *2583:A 4.9662e-05
27 *192:10 *2118:A2 0.000133316
28 *192:10 *2123:A 6.7177e-06
29 *192:10 *438:39 4.08641e-05
30 *192:10 *451:12 0
31 *192:31 *2123:A 7.76364e-06
32 *192:31 *2128:C 0.000141052
33 *192:31 *2128:D 0.000169595
34 *192:31 *206:12 0.00012323
35 *192:31 *451:12 0
36 *192:31 *452:14 5.50049e-05
37 *192:31 *452:27 6.11521e-05
38 *192:31 *455:8 4.04303e-05
39 *192:31 *738:14 9.03979e-05
40 *192:31 *738:42 2.26489e-05
41 *192:47 *446:8 2.75503e-05
42 *192:47 *751:96 9.22663e-05
43 *192:53 *201:18 0.000108681
44 *192:53 *206:18 0.000159609
45 *192:53 *335:22 1.05658e-05
46 *192:53 *705:115 0
*RES
1 *2514:Q *192:6 26.9564 
2 *192:6 *192:10 17.2579 
3 *192:10 *1982:A 41.5525 
4 *192:10 *192:31 23.2236 
5 *192:31 *2124:A 25.5271 
6 *192:31 *2128:A 23 
7 *192:6 *192:47 4.93 
8 *192:47 *192:53 32.2579 
9 *192:53 *2122:A 23 
10 *192:47 *2105:A2 42.7614 
*END

*D_NET *193 0.00329315
*CONN
*I *2099:B I *D sky130_fd_sc_hd__xor2_1
*I *2124:B I *D sky130_fd_sc_hd__and3_1
*I *2125:A I *D sky130_fd_sc_hd__nor2_1
*I *2128:B I *D sky130_fd_sc_hd__and4_1
*I *2515:Q O *D sky130_fd_sc_hd__dfrtp_1
*CAP
1 *2099:B 0.000139303
2 *2124:B 2.00578e-05
3 *2125:A 0.00014873
4 *2128:B 4.27888e-05
5 *2515:Q 0
6 *193:23 0.000230954
7 *193:10 0.000808538
8 *193:4 0.000842886
9 *2099:B *2099:A 0
10 *2099:B *2112:B 7.05498e-05
11 *2099:B *444:10 6.17437e-06
12 *2125:A *455:8 0.000187129
13 *2128:B *452:14 1.01436e-05
14 *2128:B *457:12 1.01436e-05
15 *2128:B *738:14 2.49733e-05
16 *193:10 *2112:B 2.42954e-05
17 *193:10 *2516:RESET_B 9.40954e-05
18 *193:10 *194:10 0
19 *193:10 *194:32 0
20 *193:10 *207:10 0
21 *193:10 *208:14 0.000112169
22 *193:10 *457:12 0.000135557
23 *193:10 *738:14 2.70366e-05
24 *193:23 *454:6 0.000141954
25 *193:23 *455:8 0.000215671
*RES
1 *2515:Q *193:4 23 
2 *193:4 *193:10 27.0971 
3 *193:10 *2128:B 38.8493 
4 *193:10 *193:23 17.5271 
5 *193:23 *2125:A 26.3764 
6 *193:23 *2124:B 23.4971 
7 *193:4 *2099:B 25.9 
*END

*D_NET *194 0.00334583
*CONN
*I *2111:B I *D sky130_fd_sc_hd__nand2_1
*I *2112:B I *D sky130_fd_sc_hd__or2_1
*I *2129:A I *D sky130_fd_sc_hd__nor2_1
*I *2128:C I *D sky130_fd_sc_hd__and4_1
*I *2516:Q O *D sky130_fd_sc_hd__dfrtp_1
*CAP
1 *2111:B 0.000232044
2 *2112:B 0.000471535
3 *2129:A 0
4 *2128:C 0.000238875
5 *2516:Q 5.45426e-05
6 *194:32 0.000903107
7 *194:10 0.000354516
8 *194:8 0.000369712
9 *2111:B *443:10 0
10 *2112:B *444:10 2.03764e-06
11 *2112:B *716:52 4.05309e-05
12 *2128:C *454:12 0.000163361
13 *2128:C *455:8 0.000139352
14 *2128:C *738:14 3.3746e-05
15 *2128:C *738:42 2.76611e-06
16 *194:10 *716:58 0
17 *194:32 *2516:RESET_B 0.000103804
18 *194:32 *431:8 0
19 *194:32 *443:10 0
20 *194:32 *716:58 0
21 *2099:B *2112:B 7.05498e-05
22 *192:31 *2128:C 0.000141052
23 *193:10 *2112:B 2.42954e-05
24 *193:10 *194:10 0
25 *193:10 *194:32 0
*RES
1 *2516:Q *194:8 38.6214 
2 *194:8 *194:10 1.90571 
3 *194:10 *2128:C 43.51 
4 *194:10 *2129:A 38 
5 *194:8 *194:32 4.72286 
6 *194:32 *2112:B 44.8357 
7 *194:32 *2111:B 41.9564 
*END

*D_NET *195 0.00459171
*CONN
*I *2137:A I *D sky130_fd_sc_hd__and3_1
*I *2140:A I *D sky130_fd_sc_hd__and4_1
*I *2131:A I *D sky130_fd_sc_hd__nand2_1
*I *2133:A I *D sky130_fd_sc_hd__or2_1
*I *2110:A2 I *D sky130_fd_sc_hd__a221oi_1
*I *2108:B1 I *D sky130_fd_sc_hd__o221a_1
*I *2517:Q O *D sky130_fd_sc_hd__dfrtp_1
*CAP
1 *2137:A 0
2 *2140:A 2.34823e-05
3 *2131:A 0.000191575
4 *2133:A 0
5 *2110:A2 3.76283e-05
6 *2108:B1 0.000173215
7 *2517:Q 0
8 *195:77 0.000490574
9 *195:56 0.000599402
10 *195:18 0.000512763
11 *195:12 0.000351179
12 *195:8 0.000381132
13 *195:4 0.000225643
14 *2108:B1 *322:30 2.32683e-05
15 *2108:B1 *335:22 3.75733e-05
16 *2108:B1 *442:10 0.000223704
17 *2108:B1 *751:96 0.000350612
18 *2110:A2 *322:30 1.14154e-05
19 *2110:A2 *335:22 0
20 *2110:A2 *441:16 0
21 *2131:A *2136:B 5.50106e-05
22 *2131:A *729:24 5.67058e-05
23 *2131:A *731:20 1.02561e-05
24 *195:8 *2517:RESET_B 0
25 *195:8 *459:25 3.56433e-05
26 *195:8 *461:27 4.28882e-05
27 *195:8 *731:20 0
28 *195:12 *461:27 1.23172e-05
29 *195:12 *731:20 0
30 *195:18 *2517:RESET_B 4.48731e-05
31 *195:18 *322:30 1.76557e-05
32 *195:18 *461:27 0.000166504
33 *195:18 *731:20 0
34 *195:56 *705:126 1.04196e-05
35 *195:77 *196:48 0.000264559
36 *195:77 *197:12 4.99625e-05
37 *195:77 *210:23 0
38 *195:77 *457:53 2.70504e-05
39 *195:77 *463:10 4.08537e-05
40 *195:77 *489:16 5.67058e-05
41 *195:77 *705:126 8.08139e-06
42 *195:77 *729:24 5.50106e-05
43 *2110:B1 *195:18 4.04598e-06
*RES
1 *2517:Q *195:4 23 
2 *195:4 *195:8 17.4339 
3 *195:8 *195:12 0.9425 
4 *195:12 *195:18 20.8207 
5 *195:18 *2108:B1 28.2821 
6 *195:18 *2110:A2 23.8493 
7 *195:12 *2133:A 38 
8 *195:8 *2131:A 40.5168 
9 *195:4 *195:56 1.09786 
10 *195:56 *2140:A 23.4971 
11 *195:56 *195:77 37.9543 
12 *195:77 *2137:A 23 
*END

*D_NET *196 0.00546259
*CONN
*I *2137:B I *D sky130_fd_sc_hd__and3_1
*I *2140:B I *D sky130_fd_sc_hd__and4_1
*I *2104:A2 I *D sky130_fd_sc_hd__o221a_1
*I *1983:A I *D sky130_fd_sc_hd__inv_2
*I *2518:Q O *D sky130_fd_sc_hd__dfrtp_1
*CAP
1 *2137:B 0
2 *2140:B 0
3 *2104:A2 0
4 *1983:A 0
5 *2518:Q 6.00862e-05
6 *196:54 1.25761e-05
7 *196:48 0.000352754
8 *196:36 0.000777916
9 *196:25 0.000437327
10 *196:12 0.0004898
11 *196:8 0.000550297
12 *196:8 *716:18 3.5664e-05
13 *196:8 *759:27 3.28979e-05
14 *196:12 *716:18 1.62015e-05
15 *196:12 *759:27 1.62015e-05
16 *196:25 *2136:A 5.50106e-05
17 *196:25 *324:20 2.07642e-05
18 *196:25 *330:16 1.14452e-05
19 *196:25 *336:21 0.00048
20 *196:25 *451:82 0
21 *196:25 *729:24 0.000394988
22 *196:25 *730:45 2.47015e-05
23 *196:25 *763:14 5.52508e-05
24 *196:25 *763:20 0
25 *196:36 *2136:A 0.000819312
26 *196:36 *464:10 0.000141052
27 *196:48 *2140:C 2.43944e-05
28 *196:48 *197:61 0.000117742
29 *196:48 *210:10 5.50049e-05
30 *196:48 *210:23 0
31 *196:48 *463:10 3.83778e-05
32 *196:48 *705:126 1.08821e-05
33 *196:54 *459:25 6.70363e-05
34 *196:54 *731:20 6.48142e-05
35 *2098:B *196:25 3.55303e-05
36 *195:77 *196:48 0.000264559
*RES
1 *2518:Q *196:8 39.5536 
2 *196:8 *196:12 15.8493 
3 *196:12 *1983:A 23 
4 *196:12 *196:25 40.2121 
5 *196:25 *2104:A2 23 
6 *196:8 *196:36 24.6943 
7 *196:36 *196:48 36.7529 
8 *196:48 *196:54 30.8493 
9 *196:54 *2140:B 23 
10 *196:36 *2137:B 23 
*END

*D_NET *197 0.00609103
*CONN
*I *2139:A I *D sky130_fd_sc_hd__nor2_1
*I *2140:C I *D sky130_fd_sc_hd__and4_1
*I *2094:A_N I *D sky130_fd_sc_hd__nand2b_1
*I *2095:B I *D sky130_fd_sc_hd__nand2b_1
*I *2519:Q O *D sky130_fd_sc_hd__dfrtp_1
*CAP
1 *2139:A 0
2 *2140:C 4.38122e-05
3 *2094:A_N 0.000290886
4 *2095:B 1.05344e-05
5 *2519:Q 0.000509121
6 *197:61 0.000583293
7 *197:36 0.000627105
8 *197:12 0.000759063
9 *197:10 0.000966764
10 *2094:A_N *319:34 0.000100533
11 *2094:A_N *319:40 3.87577e-05
12 *2094:A_N *320:46 2.93747e-05
13 *2094:A_N *429:10 0
14 *2094:A_N *438:24 5.67058e-05
15 *2094:A_N *451:27 3.97296e-05
16 *2094:A_N *497:8 8.62876e-05
17 *2094:A_N *731:22 7.70761e-05
18 *2095:B *2110:B2 2.74078e-05
19 *2095:B *441:16 7.68955e-06
20 *2140:C *705:126 9.67842e-05
21 *197:10 *2138:A 2.54324e-05
22 *197:10 *459:25 0.000143059
23 *197:10 *731:20 3.99845e-05
24 *197:10 *738:80 1.39396e-05
25 *197:12 *2138:A 1.86869e-05
26 *197:12 *319:34 4.02843e-05
27 *197:12 *457:64 0.000163352
28 *197:12 *731:20 0.000246728
29 *197:12 *731:22 6.07611e-06
30 *197:61 *2138:A 6.7177e-06
31 *197:61 *2138:C 0
32 *197:61 *2141:A 1.50071e-05
33 *197:61 *2141:B 0.00010018
34 *197:61 *2148:A 0
35 *197:61 *2518:CLK 6.16439e-05
36 *197:61 *2519:CLK 0.000124399
37 *197:61 *211:21 0.000139223
38 *197:61 *466:10 0.000182249
39 *197:61 *466:16 0.00011056
40 *197:61 *466:20 7.00542e-05
41 *197:61 *705:126 4.04303e-05
42 *195:77 *197:12 4.99625e-05
43 *196:48 *2140:C 2.43944e-05
44 *196:48 *197:61 0.000117742
*RES
1 *2519:Q *197:10 45.4157 
2 *197:10 *197:12 9.30071 
3 *197:12 *2095:B 38.3004 
4 *197:12 *2094:A_N 45.0221 
5 *197:10 *197:36 15 
6 *197:36 *2140:C 24.0979 
7 *197:36 *197:61 42.615 
8 *197:61 *2139:A 23 
*END

*D_NET *198 0.00379867
*CONN
*I *2109:B I *D sky130_fd_sc_hd__xor2_1
*I *2143:A I *D sky130_fd_sc_hd__and2_1
*I *2142:A I *D sky130_fd_sc_hd__nor2_1
*I *2146:A I *D sky130_fd_sc_hd__and3_1
*I *2520:Q O *D sky130_fd_sc_hd__dfrtp_1
*CAP
1 *2109:B 9.48934e-05
2 *2143:A 0
3 *2142:A 9.00354e-05
4 *2146:A 0
5 *2520:Q 0
6 *198:26 0.000361423
7 *198:18 0.000895115
8 *198:4 0.00071862
9 *2109:B *2075:A 0.000185434
10 *2109:B *441:8 2.32101e-05
11 *2142:A *2142:B 0
12 *2142:A *2520:CLK 0.000221084
13 *2142:A *467:20 0.000226259
14 *198:18 *2144:C 2.93845e-05
15 *198:18 *2521:RESET_B 3.9527e-05
16 *198:18 *441:8 0.000140259
17 *198:18 *729:8 8.51329e-05
18 *198:18 *738:114 3.27248e-05
19 *198:18 *756:207 9.88574e-06
20 *198:18 *758:8 0
21 *198:26 *2144:C 4.6595e-05
22 *198:26 *2145:A 8.28736e-05
23 *198:26 *199:8 7.6144e-05
24 *198:26 *466:41 0.000182832
25 *198:26 *468:12 1.7992e-05
26 *198:26 *761:18 0
27 *198:26 *763:14 0.000239243
*RES
1 *2520:Q *198:4 23 
2 *198:4 *198:18 41.2893 
3 *198:18 *198:26 36.3179 
4 *198:26 *2146:A 23 
5 *198:26 *2142:A 26.0243 
6 *198:18 *2143:A 23 
7 *198:4 *2109:B 26.045 
*END

*D_NET *199 0.00174599
*CONN
*I *2146:B I *D sky130_fd_sc_hd__and3_1
*I *2102:B I *D sky130_fd_sc_hd__xnor2_1
*I *2145:A I *D sky130_fd_sc_hd__nor2_1
*I *2521:Q O *D sky130_fd_sc_hd__dfrtp_1
*CAP
1 *2146:B 0
2 *2102:B 0
3 *2145:A 5.01601e-05
4 *2521:Q 4.2262e-05
5 *199:29 0.000346012
6 *199:21 0.000480005
7 *199:8 0.000226416
8 *2145:A *468:12 3.82352e-05
9 *199:8 *468:12 4.08641e-05
10 *199:21 *2520:CLK 6.08617e-05
11 *199:29 *2520:CLK 9.62764e-05
12 *199:29 *466:41 0
13 *199:29 *470:8 0.000112644
14 *199:29 *716:18 9.32422e-05
15 *199:29 *763:14 0
16 *198:26 *2145:A 8.28736e-05
17 *198:26 *199:8 7.6144e-05
*RES
1 *2521:Q *199:8 39.2014 
2 *199:8 *2145:A 39.2014 
3 *199:8 *199:21 16.5743 
4 *199:21 *199:29 36.0693 
5 *199:29 *2102:B 23 
6 *199:21 *2146:B 23 
*END

*D_NET *200 0.00505972
*CONN
*I *2149:A1 I *D sky130_fd_sc_hd__a21oi_1
*I *2156:A I *D sky130_fd_sc_hd__and4_1
*I *2104:B1 I *D sky130_fd_sc_hd__o221a_1
*I *1984:A I *D sky130_fd_sc_hd__inv_2
*I *2151:A1 I *D sky130_fd_sc_hd__a21oi_1
*I *2150:A1 I *D sky130_fd_sc_hd__o21a_1
*I *2152:A I *D sky130_fd_sc_hd__and3_1
*I *2522:Q O *D sky130_fd_sc_hd__dfrtp_2
*CAP
1 *2149:A1 1.42646e-05
2 *2156:A 0
3 *2104:B1 0.000193952
4 *1984:A 8.32623e-05
5 *2151:A1 0
6 *2150:A1 0
7 *2152:A 0.000171976
8 *2522:Q 0.000272747
9 *200:47 0.000514562
10 *200:38 0.000365238
11 *200:32 0.000162646
12 *200:30 0.000243317
13 *200:12 0.000171976
14 *200:10 0.000467043
15 *1984:A *499:22 0.000137651
16 *2104:B1 *330:16 0.000420003
17 *2104:B1 *451:82 0.000193411
18 *2149:A1 *470:39 2.32101e-05
19 *2149:A1 *761:102 5.50106e-05
20 *2152:A *2150:A2 2.93845e-05
21 *2152:A *2152:C 1.76557e-05
22 *2152:A *214:8 9.84851e-05
23 *2152:A *716:20 0.000145784
24 *200:10 *2152:C 4.18957e-05
25 *200:10 *2522:RESET_B 7.80291e-05
26 *200:10 *701:10 3.24466e-05
27 *200:10 *701:64 3.44502e-05
28 *200:10 *716:28 0
29 *200:30 *2152:C 2.60152e-05
30 *200:30 *470:52 4.82922e-05
31 *200:30 *701:64 0
32 *200:30 *738:145 4.68153e-05
33 *200:30 *761:18 0
34 *200:30 *761:30 0
35 *200:32 *470:39 4.05745e-05
36 *200:32 *761:102 9.84794e-05
37 *200:38 *2156:D 2.93747e-05
38 *200:38 *330:16 6.16531e-05
39 *200:38 *470:39 6.17437e-06
40 *200:38 *716:18 0
41 *200:38 *761:102 5.50106e-05
42 *200:47 *330:16 0.000418787
43 *200:47 *451:82 9.5359e-05
44 *200:47 *716:18 0
45 *2152:B *2152:A 2.4754e-05
46 *187:64 *200:47 6.7177e-06
47 *188:23 *200:30 0
48 *188:23 *200:38 0.000133316
*RES
1 *2522:Q *200:10 43.8414 
2 *200:10 *200:12 15 
3 *200:12 *2152:A 27.3293 
4 *200:12 *2150:A1 23 
5 *200:10 *200:30 18.3143 
6 *200:30 *200:32 1.09786 
7 *200:32 *200:38 17.8793 
8 *200:38 *2151:A1 38 
9 *200:38 *200:47 5.77929 
10 *200:47 *1984:A 39.5743 
11 *200:47 *2104:B1 43.7793 
12 *200:32 *2156:A 23 
13 *200:30 *2149:A1 23.6214 
*END

*D_NET *201 0.00453876
*CONN
*I *2179:B I *D sky130_fd_sc_hd__xnor2_1
*I *2513:D I *D sky130_fd_sc_hd__dfrtp_2
*I *2119:X O *D sky130_fd_sc_hd__o211a_1
*CAP
1 *2179:B 0
2 *2513:D 0.000283235
3 *2119:X 0.000756987
4 *201:35 0.000448397
5 *201:18 0.00148862
6 *2513:D *2514:RESET_B 0
7 *2513:D *705:102 0
8 *201:18 *2118:A2 2.88979e-05
9 *201:18 *2118:B1 4.21281e-05
10 *201:18 *2119:B1 5.50106e-05
11 *201:18 *2122:B 3.5642e-05
12 *201:18 *2123:A 9.5877e-05
13 *201:18 *2123:C 3.31306e-05
14 *201:18 *2514:RESET_B 0
15 *201:18 *705:102 0
16 *201:18 *705:115 0
17 *201:18 *751:96 1.45403e-05
18 *201:35 *2179:A 5.50106e-05
19 *201:35 *2514:CLK 9.67842e-05
20 *201:35 *432:8 0.000268868
21 *201:35 *446:8 0.000216949
22 *201:35 *705:102 1.09783e-05
23 *201:35 *760:34 4.96577e-05
24 *1982:A *201:18 5.02029e-05
25 *2105:A2 *201:35 0.000399168
26 *192:53 *201:18 0.000108681
*RES
1 *2119:X *201:18 49.9625 
2 *201:18 *2513:D 42.8989 
3 *201:18 *201:35 27.9982 
4 *201:35 *2179:B 23 
*END

*D_NET *202 0.0016357
*CONN
*I *2173:B1 I *D sky130_fd_sc_hd__a221o_1
*I *2523:D I *D sky130_fd_sc_hd__dfrtp_1
*I *2154:Y O *D sky130_fd_sc_hd__inv_2
*CAP
1 *2173:B1 0
2 *2523:D 0
3 *2154:Y 0.000121989
4 *202:19 0.000232796
5 *202:6 0.000354785
6 *202:6 *2154:A 5.3304e-05
7 *202:6 *2523:CLK 6.94128e-05
8 *202:6 *437:16 0.000134453
9 *202:19 *2523:CLK 7.18634e-06
10 *202:19 *437:16 2.32101e-05
11 *202:19 *708:96 1.30878e-05
12 *202:19 *708:109 0.00039404
13 *202:19 *752:101 2.19476e-05
14 *202:19 *759:27 0.000209483
*RES
1 *2154:Y *202:6 25.5271 
2 *202:6 *2523:D 23 
3 *202:6 *202:19 36.7529 
4 *202:19 *2173:B1 23 
*END

*D_NET *203 0.000550998
*CONN
*I *2524:D I *D sky130_fd_sc_hd__dfrtp_1
*I *2158:Y O *D sky130_fd_sc_hd__inv_2
*CAP
1 *2524:D 0
2 *2158:Y 0.000248586
3 *203:10 0.000248586
4 *203:10 *752:37 5.38249e-05
*RES
1 *2158:Y *203:10 41.9564 
2 *203:10 *2524:D 38 
*END

*D_NET *204 0.00554407
*CONN
*I *2176:A2 I *D sky130_fd_sc_hd__a211o_1
*I *2525:D I *D sky130_fd_sc_hd__dfrtp_1
*I *2162:Y O *D sky130_fd_sc_hd__inv_2
*CAP
1 *2176:A2 0
2 *2525:D 0.000496416
3 *2162:Y 0
4 *204:23 0.000583583
5 *204:4 0.00108
6 *2525:D *2097:B 0.000150914
7 *2525:D *2162:A 9.84851e-05
8 *2525:D *2525:RESET_B 4.66549e-05
9 *2525:D *429:10 1.03955e-05
10 *2525:D *438:16 0.000146971
11 *2525:D *761:139 8.43466e-05
12 *204:23 *2110:B2 5.86079e-05
13 *204:23 *2176:A1 1.14154e-05
14 *204:23 *320:66 0
15 *204:23 *332:16 1.61361e-05
16 *204:23 *438:16 2.4754e-05
17 *204:23 *475:20 7.29306e-05
18 *204:23 *481:35 0.000117021
19 *204:23 *492:16 0.000336767
20 *204:23 *493:10 0.000284337
21 *204:23 *500:16 0.000267167
22 *204:23 *752:101 7.22364e-05
23 *2097:A_N *2525:D 0.000139346
24 *187:41 *2525:D 0.000327155
25 *187:64 *2525:D 0.000819318
26 *187:64 *204:23 0.000299111
*RES
1 *2162:Y *204:4 23 
2 *204:4 *2525:D 38.8671 
3 *204:4 *204:23 43.7957 
4 *204:23 *2176:A2 23 
*END

*D_NET *205 0.00280891
*CONN
*I *2165:A I *D sky130_fd_sc_hd__inv_2
*I *2185:A2 I *D sky130_fd_sc_hd__a211o_1
*I *2526:D I *D sky130_fd_sc_hd__dfrtp_1
*I *2164:X O *D sky130_fd_sc_hd__o21a_1
*CAP
1 *2165:A 0
2 *2185:A2 0
3 *2526:D 0.000179643
4 *2164:X 0
5 *205:38 0.000179597
6 *205:21 0.000595519
7 *205:4 0.000595565
8 *2526:D *451:44 2.30292e-05
9 *2526:D *705:156 5.88758e-05
10 *205:21 *2186:C1 9.84851e-05
11 *205:21 *451:44 0.000107748
12 *205:21 *478:16 3.3123e-05
13 *205:21 *481:10 7.98809e-05
14 *205:21 *482:10 0
15 *205:21 *494:12 4.21281e-05
16 *205:21 *759:102 5.6916e-05
17 *205:38 *2185:A1 6.26126e-05
18 *205:38 *2185:B1 9.6339e-05
19 *205:38 *477:24 0.000256441
20 *205:38 *494:12 6.07929e-05
21 *205:38 *759:52 9.67842e-05
22 *191:36 *2526:D 0.000185428
*RES
1 *2164:X *205:4 23 
2 *205:4 *2526:D 27.4329 
3 *205:4 *205:21 38.7207 
4 *205:21 *2185:A2 23 
5 *205:21 *205:38 34.9507 
6 *205:38 *2165:A 23 
*END

*D_NET *206 0.0033497
*CONN
*I *2178:B I *D sky130_fd_sc_hd__nor2_1
*I *2170:A2 I *D sky130_fd_sc_hd__a221o_1
*I *2514:D I *D sky130_fd_sc_hd__dfrtp_1
*I *2123:Y O *D sky130_fd_sc_hd__nor3_1
*CAP
1 *2178:B 0.000363682
2 *2170:A2 3.69188e-05
3 *2514:D 0
4 *2123:Y 0.000310327
5 *206:25 0.000649676
6 *206:18 0.000254105
7 *206:12 0.000813508
8 *2170:A2 *2170:B1 3.32734e-05
9 *2170:A2 *320:46 2.19236e-05
10 *2170:A2 *705:115 5.05059e-05
11 *2178:B *2167:A 8.63491e-06
12 *2178:B *445:20 2.94741e-05
13 *2178:B *716:78 4.6318e-06
14 *206:12 *335:22 1.05155e-05
15 *206:12 *452:27 0.000121278
16 *206:12 *453:12 5.31565e-05
17 *206:18 *2121:A 3.12499e-05
18 *206:18 *448:16 0.000108681
19 *206:18 *453:12 4.73716e-05
20 *206:18 *705:115 0
21 *206:18 *751:96 8.4459e-05
22 *206:25 *335:22 3.34862e-05
23 *192:31 *206:12 0.00012323
24 *192:53 *206:18 0.000159609
*RES
1 *2123:Y *206:12 48.3867 
2 *206:12 *206:18 27.8989 
3 *206:18 *2514:D 23 
4 *206:12 *206:25 0.657067 
5 *206:25 *2170:A2 47.0564 
6 *206:25 *2178:B 47.3303 
*END

*D_NET *207 0.000650281
*CONN
*I *2515:D I *D sky130_fd_sc_hd__dfrtp_1
*I *2127:Y O *D sky130_fd_sc_hd__inv_2
*CAP
1 *2515:D 0
2 *2127:Y 0.00029417
3 *207:10 0.00029417
4 *207:10 *2127:A 1.56662e-06
5 *207:10 *2516:RESET_B 0
6 *207:10 *208:14 0
7 *207:10 *704:196 6.03737e-05
8 *193:10 *207:10 0
*RES
1 *2127:Y *207:10 43.3443 
2 *207:10 *2515:D 38 
*END

*D_NET *208 0.00212812
*CONN
*I *2168:B1 I *D sky130_fd_sc_hd__o22ai_1
*I *2169:B I *D sky130_fd_sc_hd__nand2_1
*I *2516:D I *D sky130_fd_sc_hd__dfrtp_1
*I *2130:Y O *D sky130_fd_sc_hd__nor3_1
*CAP
1 *2168:B1 6.49602e-05
2 *2169:B 2.23384e-05
3 *2516:D 0
4 *2130:Y 0
5 *208:23 0.000271858
6 *208:14 0.000597658
7 *208:4 0.000782217
8 *2168:B1 *2168:A2 2.9938e-05
9 *2168:B1 *2169:A 5.67058e-05
10 *2169:B *2168:B2 0
11 *2169:B *320:18 0
12 *208:14 *2127:A 7.1851e-06
13 *208:14 *704:196 3.28726e-05
14 *208:14 *738:14 5.25848e-05
15 *208:23 *2127:A 4.55057e-05
16 *208:23 *2130:C 4.67488e-05
17 *208:23 *2168:A2 5.37348e-06
18 *193:10 *208:14 0.000112169
19 *207:10 *208:14 0
*RES
1 *2130:Y *208:4 23 
2 *208:4 *208:14 39.0366 
3 *208:14 *2516:D 23 
4 *208:4 *208:23 3.50071 
5 *208:23 *2169:B 23.4971 
6 *208:23 *2168:B1 24.5743 
*END

*D_NET *209 0.00146796
*CONN
*I *2517:D I *D sky130_fd_sc_hd__dfrtp_1
*I *2167:B I *D sky130_fd_sc_hd__and2_1
*I *2135:X O *D sky130_fd_sc_hd__and3b_1
*CAP
1 *2517:D 0
2 *2167:B 0
3 *2135:X 0.000151903
4 *209:22 0.0003155
5 *209:12 0.0003155
6 *209:10 0.000151903
7 *209:10 *320:8 7.39704e-05
8 *209:10 *320:46 0.000102696
9 *209:10 *445:12 9.84851e-05
10 *209:10 *716:78 5.01247e-05
11 *209:22 *2168:A2 0
12 *209:22 *2168:B2 5.90675e-06
13 *209:22 *2170:B1 0
14 *209:22 *320:18 5.70419e-05
15 *209:22 *486:8 4.08641e-05
16 *209:22 *705:115 5.82922e-05
17 *209:22 *705:126 4.57742e-05
*RES
1 *2135:X *209:10 41.3557 
2 *209:10 *209:12 15 
3 *209:12 *209:22 36.1107 
4 *209:22 *2167:B 23 
5 *209:12 *2517:D 23 
*END

*D_NET *210 0.00116065
*CONN
*I *2180:B I *D sky130_fd_sc_hd__xnor2_1
*I *2518:D I *D sky130_fd_sc_hd__dfrtp_1
*I *2138:Y O *D sky130_fd_sc_hd__nor3_1
*CAP
1 *2180:B 0
2 *2518:D 0
3 *2138:Y 0.00011884
4 *210:23 0.000331735
5 *210:10 0.000450576
6 *210:10 *2138:C 6.53943e-05
7 *210:23 *2138:C 1.58102e-05
8 *210:23 *324:20 3.92407e-05
9 *210:23 *464:10 8.4047e-05
10 *210:23 *492:16 0
11 *210:23 *752:103 0
12 *195:77 *210:23 0
13 *196:48 *210:10 5.50049e-05
14 *196:48 *210:23 0
*RES
1 *2138:Y *210:10 25.6255 
2 *210:10 *2518:D 23 
3 *210:10 *210:23 35.7637 
4 *210:23 *2180:B 23 
*END

*D_NET *211 0.00128838
*CONN
*I *2172:B I *D sky130_fd_sc_hd__xnor2_1
*I *2519:D I *D sky130_fd_sc_hd__dfrtp_1
*I *2141:Y O *D sky130_fd_sc_hd__nor3_1
*CAP
1 *2172:B 0
2 *2519:D 7.78014e-05
3 *2141:Y 0.000210022
4 *211:21 0.000168877
5 *211:6 0.000456701
6 *2519:D *466:16 1.59094e-05
7 *2519:D *466:20 0
8 *211:6 *466:16 9.14693e-05
9 *211:6 *466:20 1.32314e-05
10 *211:21 *2138:A 5.79413e-06
11 *211:21 *466:10 8.74263e-05
12 *211:21 *731:20 0
13 *211:21 *738:80 2.19236e-05
14 *197:61 *211:21 0.000139223
*RES
1 *2141:Y *211:6 26.0036 
2 *211:6 *2519:D 24.1186 
3 *211:6 *211:21 33.6664 
4 *211:21 *2172:B 23 
*END

*D_NET *212 0.00106629
*CONN
*I *2520:D I *D sky130_fd_sc_hd__dfrtp_1
*I *2181:B I *D sky130_fd_sc_hd__xnor2_1
*I *2144:Y O *D sky130_fd_sc_hd__nor3_1
*CAP
1 *2520:D 0
2 *2181:B 0.000115155
3 *2144:Y 5.76416e-05
4 *212:8 0.000172797
5 *2181:B *2144:B 3.70187e-05
6 *2181:B *729:8 5.08795e-05
7 *2181:B *736:31 5.70419e-05
8 *2181:B *761:18 0.00019654
9 *212:8 *2144:B 0.000195331
10 *212:8 *761:18 0.000183885
*RES
1 *2144:Y *212:8 40.61 
2 *212:8 *2181:B 41.7079 
3 *212:8 *2520:D 38 
*END

*D_NET *213 0.000444733
*CONN
*I *2521:D I *D sky130_fd_sc_hd__dfrtp_1
*I *2148:Y O *D sky130_fd_sc_hd__inv_2
*CAP
1 *2521:D 0
2 *2148:Y 0.000123539
3 *213:10 0.000123539
4 *213:10 *2520:CLK 5.67058e-05
5 *213:10 *716:10 0
6 *213:10 *759:27 0.000140949
*RES
1 *2148:Y *213:10 40.5271 
2 *213:10 *2521:D 38 
*END

*D_NET *214 0.00262954
*CONN
*I *2183:A2 I *D sky130_fd_sc_hd__a211o_1
*I *2177:B I *D sky130_fd_sc_hd__nor2_1
*I *2522:D I *D sky130_fd_sc_hd__dfrtp_2
*I *2150:X O *D sky130_fd_sc_hd__o21a_1
*CAP
1 *2183:A2 0.000107766
2 *2177:B 0
3 *2522:D 0.000183115
4 *2150:X 8.99889e-05
5 *214:31 0.000272599
6 *214:21 0.000433516
7 *214:8 0.000326256
8 *2183:A2 *474:8 8.18131e-05
9 *2183:A2 *477:10 2.64616e-05
10 *2183:A2 *501:12 9.28078e-06
11 *2183:A2 *708:35 3.22939e-05
12 *2183:A2 *761:102 1.24376e-05
13 *2522:D *2522:CLK 2.93747e-05
14 *2522:D *477:10 3.3123e-05
15 *2522:D *708:35 0.00010403
16 *2522:D *708:41 3.0647e-05
17 *2522:D *752:73 0
18 *214:8 *2152:C 2.36853e-05
19 *214:21 *474:8 7.14436e-05
20 *214:21 *477:10 8.68016e-06
21 *214:21 *708:35 4.39814e-05
22 *214:31 *776:DIODE 3.32935e-05
23 *214:31 *500:16 1.05441e-05
24 *214:31 *738:145 0.000291176
25 *214:31 *752:73 9.363e-05
26 *2152:A *214:8 9.84851e-05
27 *2152:B *214:8 0.000181919
28 *189:10 *2522:D 0
*RES
1 *2150:X *214:8 40.5271 
2 *214:8 *2522:D 42.2879 
3 *214:8 *214:21 1.3775 
4 *214:21 *214:31 32.9487 
5 *214:31 *2177:B 23 
6 *214:21 *2183:A2 39.9989 
*END

*D_NET *215 0.00339582
*CONN
*I *2527:D I *D sky130_fd_sc_hd__dfrtp_1
*I *2186:Y O *D sky130_fd_sc_hd__a211oi_1
*CAP
1 *2527:D 0
2 *2186:Y 0.00107023
3 *215:12 0.00107023
4 *215:12 *2161:A 2.64616e-05
5 *215:12 *2161:C 0
6 *215:12 *2163:A2 0.000228001
7 *215:12 *2186:A1 2.93845e-05
8 *215:12 *2527:CLK 0.000198196
9 *215:12 *477:45 5.06321e-05
10 *215:12 *480:15 5.50049e-05
11 *215:12 *480:30 5.3304e-05
12 *215:12 *482:10 3.46673e-05
13 *215:12 *705:6 0.000118143
14 *215:12 *751:55 0.000461567
*RES
1 *2186:Y *215:12 44.5221 
2 *215:12 *2527:D 23 
*END

*D_NET *216 0.0128461
*CONN
*I *2035:A I *D sky130_fd_sc_hd__or2_1
*I *1965:A I *D sky130_fd_sc_hd__inv_2
*I *2016:B I *D sky130_fd_sc_hd__nand2b_1
*I *2026:A2 I *D sky130_fd_sc_hd__o22a_1
*I *2038:A I *D sky130_fd_sc_hd__and3_1
*I *2041:A I *D sky130_fd_sc_hd__and4_1
*I *2036:A I *D sky130_fd_sc_hd__nand2_1
*I *2039:A1 I *D sky130_fd_sc_hd__a21o_1
*I *2456:Q O *D sky130_fd_sc_hd__dfrtp_4
*CAP
1 *2035:A 0
2 *1965:A 0.000662197
3 *2016:B 0
4 *2026:A2 1.94915e-05
5 *2038:A 7.38563e-05
6 *2041:A 0.000208459
7 *2036:A 0.000378965
8 *2039:A1 0.000434201
9 *2456:Q 6.20421e-05
10 *216:87 0.000761689
11 *216:68 0.000826702
12 *216:64 0.00122824
13 *216:49 0.000662671
14 *216:16 0.00106718
15 *216:14 0.000549232
16 *216:12 0.00036777
17 *216:6 0.000274755
18 *1965:A *2045:B 0.000117381
19 *1965:A *2053:A 8.03063e-05
20 *1965:A *2087:C 1.94812e-05
21 *1965:A *318:10 6.17437e-06
22 *1965:A *379:8 5.14746e-06
23 *1965:A *389:10 4.79612e-05
24 *2026:A2 *2045:B 5.50106e-05
25 *2026:A2 *379:8 1.41077e-05
26 *2026:A2 *389:10 7.53384e-06
27 *2036:A *2043:B 2.64616e-05
28 *2036:A *737:28 0.000371474
29 *2038:A *378:10 7.53384e-06
30 *2038:A *761:36 2.62931e-05
31 *2039:A1 *2039:A2 5.67058e-05
32 *2039:A1 *2039:B1 0
33 *2039:A1 *2215:B 9.03784e-05
34 *2039:A1 *387:10 6.25829e-05
35 *2039:A1 *528:8 0.000102375
36 *2041:A *221:25 0.00030894
37 *2041:A *221:29 4.05745e-05
38 *2041:A *386:12 5.50106e-05
39 *2041:A *386:23 9.84794e-05
40 *216:6 *221:21 6.9805e-05
41 *216:6 *382:10 5.67058e-05
42 *216:12 *2042:A 1.24376e-05
43 *216:12 *2042:B 2.02517e-05
44 *216:12 *221:21 5.70419e-05
45 *216:12 *221:25 0.000171734
46 *216:14 *237:21 0
47 *216:14 *386:23 0.00010394
48 *216:16 *2039:B1 0
49 *216:16 *237:21 0
50 *216:16 *386:12 0
51 *216:16 *386:23 3.47781e-05
52 *216:16 *387:10 0.000376261
53 *216:49 *237:21 0
54 *216:49 *386:23 0.000102638
55 *216:64 *2045:B 0.000139346
56 *216:64 *2076:A 0
57 *216:64 *374:14 5.50106e-05
58 *216:64 *379:8 3.58084e-06
59 *216:64 *386:23 0.000588168
60 *216:64 *731:36 8.08673e-05
61 *216:64 *737:18 0
62 *216:68 *2026:B2 2.26497e-05
63 *216:68 *2076:A 2.50707e-05
64 *216:68 *325:10 4.36547e-05
65 *216:87 *2026:B2 2.71583e-05
66 *216:87 *2046:B 0.000181125
67 *216:87 *2050:B 3.01196e-05
68 *216:87 *2050:D 2.02872e-05
69 *216:87 *2076:A 1.83667e-05
70 *216:87 *224:14 9.4713e-05
71 *216:87 *224:21 0.000144221
72 *216:87 *224:25 2.06822e-05
73 *216:87 *224:37 0.000224605
74 *216:87 *226:24 5.4048e-05
75 *216:87 *238:12 0.000314823
76 *216:87 *317:44 8.68016e-06
77 *216:87 *321:10 0.000204618
78 *216:87 *388:19 0.000211266
79 *216:87 *389:10 0.000137521
80 *216:87 *737:12 1.25428e-05
*RES
1 *2456:Q *216:6 24.5743 
2 *216:6 *216:12 19.93 
3 *216:12 *216:14 1.55357 
4 *216:14 *216:16 5.42714 
5 *216:16 *2039:A1 45.6229 
6 *216:16 *2036:A 47.2179 
7 *216:14 *2041:A 42.4329 
8 *216:12 *216:49 1.55357 
9 *216:49 *2038:A 39.0979 
10 *216:49 *216:64 25.7714 
11 *216:64 *216:68 15.8493 
12 *216:68 *2026:A2 38.6214 
13 *216:68 *216:87 32.8246 
14 *216:87 *2016:B 23 
15 *216:64 *1965:A 33.2121 
16 *216:6 *2035:A 23 
*END

*D_NET *217 0.00937753
*CONN
*I *2063:A1 I *D sky130_fd_sc_hd__a21oi_1
*I *2019:B1 I *D sky130_fd_sc_hd__o22a_1
*I *2024:A1_N I *D sky130_fd_sc_hd__o2bb2a_1
*I *2062:A1 I *D sky130_fd_sc_hd__o21ai_1
*I *2064:A1 I *D sky130_fd_sc_hd__a21oi_1
*I *2065:A I *D sky130_fd_sc_hd__and3_1
*I *2466:Q O *D sky130_fd_sc_hd__dfrtp_1
*CAP
1 *2063:A1 0
2 *2019:B1 2.55196e-05
3 *2024:A1_N 0.000170353
4 *2062:A1 3.67982e-05
5 *2064:A1 0
6 *2065:A 0
7 *2466:Q 0.000369951
8 *217:63 0.00053975
9 *217:57 0.00100886
10 *217:49 0.00087557
11 *217:31 0.000300677
12 *217:18 0.000502999
13 *217:12 0.000366597
14 *217:10 0.000708017
15 *2019:B1 *2019:A1 0
16 *2024:A1_N *2019:A1 4.9662e-05
17 *2024:A1_N *2024:B1 9.41704e-05
18 *2024:A1_N *2024:B2 0.000186846
19 *2024:A1_N *323:6 4.96717e-05
20 *2024:A1_N *331:27 5.94921e-06
21 *2024:A1_N *331:40 6.33627e-05
22 *2024:A1_N *730:23 7.27182e-05
23 *2024:A1_N *730:33 6.53382e-05
24 *217:10 *2466:RESET_B 0.000111852
25 *217:10 *233:10 1.01436e-05
26 *217:10 *233:23 0.000181934
27 *217:10 *709:134 4.99753e-06
28 *217:12 *233:10 0.00019747
29 *217:12 *709:117 5.86328e-05
30 *217:12 *709:134 1.97329e-05
31 *217:12 *737:98 1.37349e-05
32 *217:18 *2061:A_N 5.67058e-05
33 *217:18 *2065:C 0.000228909
34 *217:18 *402:38 0
35 *217:18 *737:98 7.81176e-05
36 *217:31 *2065:B 0.000156061
37 *217:31 *2065:C 5.50049e-05
38 *217:31 *218:19 6.07611e-06
39 *217:31 *404:40 0
40 *217:31 *737:89 0
41 *217:31 *737:98 0
42 *217:49 *2077:B 3.17516e-05
43 *217:49 *2466:RESET_B 5.50049e-05
44 *217:49 *2468:CLK 2.93845e-05
45 *217:49 *231:21 1.59094e-05
46 *217:49 *755:59 0.00018282
47 *217:57 *2057:A 1.34354e-05
48 *217:57 *2077:A 0.000270682
49 *217:57 *2077:B 0.000112612
50 *217:57 *2085:A 0
51 *217:57 *380:17 0.000108681
52 *217:57 *396:10 3.98859e-05
53 *217:57 *397:8 0
54 *217:57 *411:8 0
55 *217:57 *737:72 0
56 *217:57 *755:59 0.000570587
57 *217:57 *758:63 0.000197479
58 *217:63 *2079:A 0.000373753
59 *217:63 *323:6 8.71791e-05
60 *217:63 *381:8 0.000471965
61 *217:63 *730:23 0.000144221
*RES
1 *2466:Q *217:10 45.5193 
2 *217:10 *217:12 3.66643 
3 *217:12 *217:18 19.785 
4 *217:18 *2065:A 23 
5 *217:18 *217:31 36.4007 
6 *217:31 *2064:A1 23 
7 *217:12 *2062:A1 38.6214 
8 *217:10 *217:49 19.4329 
9 *217:49 *217:57 45.8879 
10 *217:57 *217:63 10.3157 
11 *217:63 *2024:A1_N 28.422 
12 *217:63 *2019:B1 23.4971 
13 *217:49 *2063:A1 23 
*END

*D_NET *218 0.00288426
*CONN
*I *2065:B I *D sky130_fd_sc_hd__and3_1
*I *2064:B1 I *D sky130_fd_sc_hd__a21oi_1
*I *2023:A I *D sky130_fd_sc_hd__xnor2_1
*I *2467:Q O *D sky130_fd_sc_hd__dfrtp_1
*CAP
1 *2065:B 0.000177876
2 *2064:B1 0
3 *2023:A 8.13223e-05
4 *2467:Q 0.000496729
5 *218:19 0.000344624
6 *218:8 0.000744798
7 *2023:A *403:20 0
8 *2023:A *404:10 0.000141869
9 *2065:B *2065:C 2.46183e-06
10 *2065:B *404:10 0.000323803
11 *218:8 *2467:D 3.16784e-05
12 *218:8 *756:34 4.99718e-05
13 *218:19 *403:20 0
14 *218:19 *404:10 0.000326992
15 *218:19 *737:89 0
16 *217:31 *2065:B 0.000156061
17 *217:31 *218:19 6.07611e-06
*RES
1 *2467:Q *218:8 44.3386 
2 *218:8 *2023:A 39.9057 
3 *218:8 *218:19 4.37071 
4 *218:19 *2064:B1 38 
5 *218:19 *2065:B 42.9921 
*END

*D_NET *219 0.00670575
*CONN
*I *2069:A1 I *D sky130_fd_sc_hd__o21ai_1
*I *2021:A2_N I *D sky130_fd_sc_hd__o2bb2a_1
*I *2025:B1 I *D sky130_fd_sc_hd__o221a_1
*I *2068:A I *D sky130_fd_sc_hd__and2_1
*I *2468:Q O *D sky130_fd_sc_hd__dfrtp_1
*CAP
1 *2069:A1 1.74641e-05
2 *2021:A2_N 0
3 *2025:B1 0
4 *2068:A 6.97411e-05
5 *2468:Q 0.0003
6 *219:39 0.000185287
7 *219:31 0.0017308
8 *219:25 0.00183594
9 *219:10 0.000642707
10 *2068:A *402:16 1.01436e-05
11 *2068:A *404:40 6.32688e-05
12 *2068:A *755:23 4.5882e-05
13 *2069:A1 *2070:B 1.37232e-05
14 *219:10 *404:40 2.60152e-05
15 *219:10 *755:23 8.47327e-05
16 *219:25 *2070:B 3.62905e-05
17 *219:25 *402:38 2.93747e-05
18 *219:25 *404:40 2.93845e-05
19 *219:25 *737:109 1.66896e-05
20 *219:25 *737:122 2.44795e-05
21 *219:31 *1974:A 0.000216939
22 *219:31 *2021:B1 7.91871e-05
23 *219:31 *2056:C 4.13439e-05
24 *219:31 *2062:A2 0.000436767
25 *219:31 *2085:A 2.30292e-05
26 *219:31 *396:10 9.84794e-05
27 *219:31 *419:8 0.000183733
28 *219:31 *737:109 0.000104048
29 *219:31 *758:63 0.000184958
30 *219:39 *2021:B1 2.35199e-05
31 *219:39 *331:27 0
32 *219:39 *332:54 0.000149057
33 *219:39 *372:8 2.76611e-06
34 *219:39 *441:12 0
*RES
1 *2468:Q *219:10 43.0129 
2 *219:10 *2068:A 39.9057 
3 *219:10 *219:25 18.9771 
4 *219:25 *219:31 27.9436 
5 *219:31 *219:39 33.0036 
6 *219:39 *2025:B1 23 
7 *219:31 *2021:A2_N 23 
8 *219:25 *2069:A1 23.4971 
*END

*D_NET *220 0.00864286
*CONN
*I *2071:A1 I *D sky130_fd_sc_hd__o21ai_1
*I *2028:B1 I *D sky130_fd_sc_hd__o221a_1
*I *2030:B1 I *D sky130_fd_sc_hd__a221oi_1
*I *2595:A I *D sky130_fd_sc_hd__dlygate4sd3_1
*I *2469:Q O *D sky130_fd_sc_hd__dfrtp_1
*CAP
1 *2071:A1 0
2 *2028:B1 0
3 *2030:B1 0.000263951
4 *2595:A 0.000137577
5 *2469:Q 0
6 *220:31 0.00164639
7 *220:21 0.00178526
8 *220:6 0.000540393
9 *2030:B1 *2028:B2 0.00020704
10 *2030:B1 *2030:B2 4.85022e-05
11 *2030:B1 *2569:A 6.502e-05
12 *2030:B1 *221:44 1.14452e-05
13 *2030:B1 *221:59 0.000150977
14 *2030:B1 *223:10 0
15 *2030:B1 *371:18 6.07611e-06
16 *2030:B1 *416:10 8.62876e-05
17 *2595:A *757:130 9.95713e-05
18 *220:21 *2071:A2 6.17437e-06
19 *220:21 *757:130 4.16764e-05
20 *220:31 *2071:A2 2.93747e-05
21 *220:31 *2089:C 9.84794e-05
22 *220:31 *2089:D 0.000276841
23 *220:31 *319:44 1.69668e-05
24 *220:31 *320:104 0.000610665
25 *220:31 *371:18 2.74884e-05
26 *220:31 *376:10 0.000308045
27 *220:31 *420:14 0.0017497
28 *220:31 *423:10 2.18409e-05
29 *220:31 *701:72 4.27353e-05
30 *220:31 *708:21 3.35885e-06
31 *220:31 *737:89 0.000361027
32 gpio_out[32] *2595:A 0
*RES
1 *2469:Q *220:6 38 
2 *220:6 *2595:A 41.6664 
3 *220:6 *220:21 22.2914 
4 *220:21 *220:31 49.3857 
5 *220:31 *2030:B1 44.5457 
6 *220:31 *2028:B1 38 
7 *220:21 *2071:A1 23 
*END

*D_NET *221 0.009427
*CONN
*I *2035:B I *D sky130_fd_sc_hd__or2_1
*I *2041:B I *D sky130_fd_sc_hd__and4_1
*I *2017:A1 I *D sky130_fd_sc_hd__o221a_1
*I *2038:B I *D sky130_fd_sc_hd__and3_1
*I *2030:A1 I *D sky130_fd_sc_hd__a221oi_1
*I *2039:A2 I *D sky130_fd_sc_hd__a21o_1
*I *2036:B I *D sky130_fd_sc_hd__nand2_1
*I *2457:Q O *D sky130_fd_sc_hd__dfrtp_2
*CAP
1 *2035:B 2.34823e-05
2 *2041:B 0
3 *2017:A1 0
4 *2038:B 9.46793e-05
5 *2030:A1 0
6 *2039:A2 0.000436229
7 *2036:B 9.18839e-05
8 *2457:Q 0
9 *221:78 0.000703485
10 *221:59 0.00110664
11 *221:44 0.000439637
12 *221:29 0.000613973
13 *221:25 0.000274359
14 *221:21 0.000516043
15 *221:6 0.000356664
16 *2036:B *383:8 0.000224336
17 *2036:B *737:28 0.000249909
18 *2038:B *223:10 2.29192e-05
19 *2038:B *378:10 8.4047e-05
20 *2038:B *761:36 5.67058e-05
21 *2039:A2 *2039:B1 0.000567097
22 *2039:A2 *222:19 0.000155077
23 *2039:A2 *359:85 0
24 *2039:A2 *385:8 2.54046e-05
25 *2039:A2 *528:8 2.4754e-05
26 *2039:A2 *756:68 0
27 *2039:A2 *756:77 0
28 *221:21 *382:10 5.6146e-05
29 *221:21 *383:8 0.000141879
30 *221:21 *737:28 0.000130433
31 *221:25 *2041:C 2.02872e-05
32 *221:25 *2042:A 0.000232202
33 *221:25 *2042:B 1.03955e-05
34 *221:25 *387:10 2.93845e-05
35 *221:29 *2022:A 5.3304e-05
36 *221:29 *2041:C 4.08664e-05
37 *221:44 *2038:C 0.000103949
38 *221:44 *222:19 3.47781e-05
39 *221:44 *223:10 2.04774e-05
40 *221:44 *756:66 0
41 *221:44 *756:68 0
42 *221:59 *223:10 4.90891e-05
43 *221:59 *319:69 0.000145784
44 *221:78 *2017:B1 0
45 *221:78 *2018:A1 0.000189532
46 *221:78 *2018:A2 2.1362e-05
47 *221:78 *223:10 9.65422e-05
48 *221:78 *330:61 0
49 *221:78 *365:14 9.84794e-05
50 *221:78 *376:10 0.000101536
51 *221:78 *377:10 3.14237e-05
52 *221:78 *378:10 0.00048696
53 *221:78 *386:27 1.41227e-05
54 *221:78 *389:22 7.57281e-06
55 *221:78 *708:137 0.000375948
56 *2030:B1 *221:44 1.14452e-05
57 *2030:B1 *221:59 0.000150977
58 *2039:A1 *2039:A2 5.67058e-05
59 *2041:A *221:25 0.00030894
60 *2041:A *221:29 4.05745e-05
61 *216:6 *221:21 6.9805e-05
62 *216:12 *221:21 5.70419e-05
63 *216:12 *221:25 0.000171734
*RES
1 *2457:Q *221:6 38 
2 *221:6 *2036:B 41.6664 
3 *221:6 *221:21 21.3386 
4 *221:21 *221:25 7.31214 
5 *221:25 *221:29 16.0979 
6 *221:29 *2039:A2 48.8957 
7 *221:29 *221:44 2.61 
8 *221:44 *2030:A1 38 
9 *221:44 *221:59 35.2614 
10 *221:59 *2038:B 39.8229 
11 *221:59 *221:78 30.37 
12 *221:78 *2017:A1 23 
13 *221:25 *2041:B 23 
14 *221:21 *2035:B 23.4971 
*END

*D_NET *222 0.00410649
*CONN
*I *2038:C I *D sky130_fd_sc_hd__and3_1
*I *2041:C I *D sky130_fd_sc_hd__and4_1
*I *2022:A I *D sky130_fd_sc_hd__xor2_1
*I *2039:B1 I *D sky130_fd_sc_hd__a21o_1
*I *2458:Q O *D sky130_fd_sc_hd__dfrtp_1
*CAP
1 *2038:C 0.000160303
2 *2041:C 5.53653e-05
3 *2022:A 0.000386591
4 *2039:B1 0.000253659
5 *2458:Q 0
6 *222:21 0.000441956
7 *222:19 0.000235692
8 *222:6 0.000329048
9 *2022:A *2522:RESET_B 0
10 *2022:A *756:150 0.000398503
11 *2038:C *2030:A2 7.53384e-06
12 *2038:C *2040:A_N 3.70187e-05
13 *2038:C *378:10 6.87288e-05
14 *2038:C *384:10 0.000130378
15 *2038:C *761:30 9.24795e-06
16 *2039:B1 *2040:A_N 0.000276775
17 *2039:B1 *528:8 9.58714e-05
18 *2041:C *2042:B 5.3304e-05
19 *222:19 *2040:A_N 0.000191157
20 *2039:A1 *2039:B1 0
21 *2039:A2 *2039:B1 0.000567097
22 *2039:A2 *222:19 0.000155077
23 *216:16 *2039:B1 0
24 *221:25 *2041:C 2.02872e-05
25 *221:29 *2022:A 5.3304e-05
26 *221:29 *2041:C 4.08664e-05
27 *221:44 *2038:C 0.000103949
28 *221:44 *222:19 3.47781e-05
*RES
1 *2458:Q *222:6 38 
2 *222:6 *2039:B1 45.9336 
3 *222:6 *222:19 2.61 
4 *222:19 *222:21 15 
5 *222:21 *2022:A 31.265 
6 *222:21 *2041:C 24.0979 
7 *222:19 *2038:C 41.9357 
*END

*D_NET *223 0.00433782
*CONN
*I *2041:D I *D sky130_fd_sc_hd__and4_1
*I *2042:A I *D sky130_fd_sc_hd__or2_1
*I *2018:A1 I *D sky130_fd_sc_hd__o22a_1
*I *2029:A1 I *D sky130_fd_sc_hd__a22oi_1
*I *2459:Q O *D sky130_fd_sc_hd__dfrtp_1
*CAP
1 *2041:D 0
2 *2042:A 9.77632e-05
3 *2018:A1 0.000362157
4 *2029:A1 7.55162e-05
5 *2459:Q 0.000115876
6 *223:34 0.000144834
7 *223:10 0.0010151
8 *223:8 0.000740377
9 *2018:A1 *2017:A2 2.26049e-05
10 *2018:A1 *2018:A2 3.71369e-05
11 *2018:A1 *330:61 0
12 *2018:A1 *377:10 9.28078e-06
13 *2018:A1 *389:22 2.24608e-05
14 *2018:A1 *708:21 8.30566e-06
15 *2029:A1 *374:14 4.67488e-05
16 *2029:A1 *708:25 9.84794e-05
17 *2029:A1 *708:137 8.43466e-05
18 *2042:A *2042:B 8.42098e-05
19 *223:8 *2040:A_N 0.000187986
20 *223:8 *386:12 4.334e-05
21 *223:8 *386:23 0
22 *223:10 *2040:A_N 2.46345e-05
23 *223:10 *2569:A 2.24973e-05
24 *223:10 *325:20 4.51887e-05
25 *223:10 *376:10 3.32226e-05
26 *223:10 *377:10 7.98243e-05
27 *223:10 *378:10 0
28 *223:10 *384:10 8.4047e-05
29 *223:10 *386:23 0
30 *223:10 *420:10 0.000162803
31 *223:10 *708:21 6.58768e-05
32 *2030:B1 *223:10 0
33 *2038:B *223:10 2.29192e-05
34 *216:12 *2042:A 1.24376e-05
35 *221:25 *2042:A 0.000232202
36 *221:44 *223:10 2.04774e-05
37 *221:59 *223:10 4.90891e-05
38 *221:78 *2018:A1 0.000189532
39 *221:78 *223:10 9.65422e-05
*RES
1 *2459:Q *223:8 40.61 
2 *223:8 *223:10 11.4136 
3 *223:10 *2029:A1 40.0507 
4 *223:10 *2018:A1 44.525 
5 *223:8 *223:34 15.6214 
6 *223:34 *2042:A 26.0243 
7 *223:34 *2041:D 23 
*END

*D_NET *224 0.00415528
*CONN
*I *2044:A I *D sky130_fd_sc_hd__nand2_1
*I *2050:A I *D sky130_fd_sc_hd__and4_1
*I *2018:B1 I *D sky130_fd_sc_hd__o22a_1
*I *2045:A I *D sky130_fd_sc_hd__or2_1
*I *1968:A I *D sky130_fd_sc_hd__inv_2
*I *2460:Q O *D sky130_fd_sc_hd__dfrtp_1
*CAP
1 *2044:A 0
2 *2050:A 0
3 *2018:B1 0.000122393
4 *2045:A 0
5 *1968:A 0
6 *2460:Q 0.000181864
7 *224:37 0.000276826
8 *224:29 0.000448323
9 *224:25 0.000134318
10 *224:21 0.00018705
11 *224:14 0.000168786
12 *224:10 0.000248813
13 *2018:B1 *2050:B 7.57281e-06
14 *2018:B1 *322:71 1.14452e-05
15 *2018:B1 *323:29 6.07611e-06
16 *2018:B1 *388:19 3.56537e-05
17 *2018:B1 *708:137 9.4064e-05
18 *224:10 *2018:A2 4.64562e-05
19 *224:10 *2460:RESET_B 6.17437e-06
20 *224:10 *319:44 0.000205185
21 *224:10 *320:66 4.96717e-05
22 *224:10 *320:85 1.83667e-05
23 *224:10 *708:25 2.43944e-05
24 *224:10 *756:58 5.79489e-05
25 *224:14 *238:12 0.000180218
26 *224:21 *2046:A 2.32004e-05
27 *224:21 *238:12 4.34745e-05
28 *224:21 *389:22 6.04112e-05
29 *224:25 *2046:A 0.000147734
30 *224:25 *2050:D 5.3304e-05
31 *224:29 *2050:B 2.00313e-05
32 *224:29 *386:27 3.18198e-05
33 *224:29 *708:137 1.15883e-05
34 *224:37 *2032:D 1.2597e-05
35 *224:37 *2050:D 0.000182832
36 *224:37 *226:18 5.02657e-05
37 *224:37 *226:20 0.00013223
38 *224:37 *390:12 3.55303e-05
39 *224:37 *392:6 0.000180212
40 *224:37 *394:10 0
41 *224:37 *394:14 0
42 *224:37 *737:12 1.89075e-05
43 *224:37 *737:18 0.000131381
44 *224:37 *747:61 2.39378e-05
45 *216:87 *224:14 9.4713e-05
46 *216:87 *224:21 0.000144221
47 *216:87 *224:25 2.06822e-05
48 *216:87 *224:37 0.000224605
*RES
1 *2460:Q *224:10 42.06 
2 *224:10 *224:14 17.0507 
3 *224:14 *1968:A 23 
4 *224:14 *224:21 3.00357 
5 *224:21 *224:25 2.07143 
6 *224:25 *224:29 15.8493 
7 *224:29 *224:37 37.8714 
8 *224:37 *2045:A 38 
9 *224:29 *2018:B1 40.9621 
10 *224:25 *2050:A 23 
11 *224:21 *2044:A 23 
*END

*D_NET *225 0.0044982
*CONN
*I *1970:A I *D sky130_fd_sc_hd__inv_2
*I *2024:B1 I *D sky130_fd_sc_hd__o2bb2a_1
*I *2050:B I *D sky130_fd_sc_hd__and4_1
*I *2461:Q O *D sky130_fd_sc_hd__dfrtp_1
*CAP
1 *1970:A 0.000116324
2 *2024:B1 0.000511723
3 *2050:B 0.000455652
4 *2461:Q 0.000499153
5 *225:39 0.000694174
6 *225:14 0.00102093
7 *1970:A *2079:A 1.05441e-05
8 *1970:A *2571:A 5.79413e-06
9 *1970:A *367:8 2.75733e-06
10 *1970:A *756:58 0
11 *2024:B1 *2017:B1 0
12 *2024:B1 *331:40 4.9662e-05
13 *2024:B1 *708:137 2.11066e-05
14 *2024:B1 *756:58 0
15 *2050:B *2045:B 0
16 *2050:B *226:24 1.05441e-05
17 *2050:B *323:29 0
18 *2050:B *323:40 6.16439e-05
19 *2050:B *366:12 4.6318e-06
20 *2050:B *388:19 4.95041e-05
21 *2050:B *390:12 1.7992e-05
22 *2050:B *737:12 3.59619e-05
23 *2050:B *747:61 0
24 *225:14 *239:6 0.000143655
25 *225:14 *391:18 0.000406944
26 *225:14 *756:48 6.59908e-05
27 *225:39 *323:40 0.000110373
28 *225:39 *366:12 5.12394e-05
29 *2018:B1 *2050:B 7.57281e-06
30 *2024:A1_N *2024:B1 9.41704e-05
31 *216:87 *2050:B 3.01196e-05
32 *224:29 *2050:B 2.00313e-05
*RES
1 *2461:Q *225:14 46.7829 
2 *225:14 *2050:B 45.6229 
3 *225:14 *225:39 9.72964 
4 *225:39 *2024:B1 48.3336 
5 *225:39 *1970:A 46.5488 
*END

*D_NET *226 0.00713155
*CONN
*I *2051:A I *D sky130_fd_sc_hd__or2_1
*I *2050:C I *D sky130_fd_sc_hd__and4_1
*I *2029:B1 I *D sky130_fd_sc_hd__a22oi_1
*I *2026:B1 I *D sky130_fd_sc_hd__o22a_1
*I *2462:Q O *D sky130_fd_sc_hd__dfrtp_1
*CAP
1 *2051:A 0
2 *2050:C 0
3 *2029:B1 0
4 *2026:B1 0
5 *2462:Q 0.000194094
6 *226:43 0.000243332
7 *226:24 0.000391986
8 *226:20 0.00031503
9 *226:18 0.000914751
10 *226:8 0.000942469
11 *226:8 *419:14 0.000485889
12 *226:8 *709:76 0.000371872
13 *226:8 *709:87 0.000121009
14 *226:18 *2032:D 1.65916e-05
15 *226:18 *747:61 1.01436e-05
16 *226:18 *756:58 1.47185e-05
17 *226:18 *759:115 0.00140942
18 *226:20 *2046:A 0.00026025
19 *226:20 *2050:D 5.50106e-05
20 *226:20 *392:6 1.21972e-05
21 *226:24 *2026:B2 1.05441e-05
22 *226:43 *2018:A2 1.09886e-05
23 *226:43 *320:85 4.89843e-05
24 *226:43 *325:20 0.000471237
25 *226:43 *708:21 2.26406e-05
26 *226:43 *759:115 0.000561303
27 *2050:B *226:24 1.05441e-05
28 *216:87 *226:24 5.4048e-05
29 *224:37 *226:18 5.02657e-05
30 *224:37 *226:20 0.00013223
*RES
1 *2462:Q *226:8 44.6596 
2 *226:8 *226:18 34.3052 
3 *226:18 *226:20 3.95643 
4 *226:20 *226:24 17.2579 
5 *226:24 *2026:B1 38 
6 *226:24 *226:43 32.4075 
7 *226:43 *2029:B1 23 
8 *226:20 *2050:C 23 
9 *226:18 *2051:A 23 
*END

*D_NET *227 0.0035501
*CONN
*I *2027:A1 I *D sky130_fd_sc_hd__o221a_1
*I *2015:A I *D sky130_fd_sc_hd__nand2_1
*I *2054:A I *D sky130_fd_sc_hd__nand2_1
*I *2055:A1 I *D sky130_fd_sc_hd__o211a_1
*I *2056:A I *D sky130_fd_sc_hd__and3_1
*I *2463:Q O *D sky130_fd_sc_hd__dfrtp_1
*CAP
1 *2027:A1 2.57807e-05
2 *2015:A 0.00027518
3 *2054:A 5.275e-05
4 *2055:A1 0
5 *2056:A 0.000126575
6 *2463:Q 5.42061e-05
7 *227:37 0.000724844
8 *227:21 5.275e-05
9 *227:10 0.000166804
10 *227:8 0.000518319
11 *2015:A *2015:B 1.37232e-05
12 *2015:A *2027:B1 3.46673e-05
13 *2015:A *328:12 0.000147694
14 *2027:A1 *2058:B1 0
15 *2027:A1 *328:12 1.37232e-05
16 *2054:A *2054:B 4.79641e-05
17 *2054:A *2058:B1 9.41704e-05
18 *2054:A *395:6 0.000182826
19 *2056:A *1974:A 8.62876e-05
20 *2056:A *2055:A2 6.16531e-05
21 *2056:A *228:10 7.39034e-05
22 *2056:A *228:12 7.48331e-05
23 *2056:A *392:10 6.16439e-05
24 *2056:A *392:25 0.000161121
25 *2056:A *397:8 1.37246e-05
26 *227:8 *228:10 8.62876e-05
27 *227:8 *730:8 0
28 *227:10 *228:10 5.94125e-05
29 *227:10 *730:8 0
30 *227:37 *2027:B1 5.67566e-05
31 *227:37 *2058:A2 0.00014196
32 *227:37 *2058:B1 4.2062e-05
33 *227:37 *395:6 9.84794e-05
*RES
1 *2463:Q *227:8 39.2014 
2 *227:8 *227:10 0.849286 
3 *227:10 *2056:A 41.6664 
4 *227:10 *227:21 15 
5 *227:21 *2055:A1 23 
6 *227:21 *2054:A 25.0507 
7 *227:8 *227:37 21.3386 
8 *227:37 *2015:A 27.3293 
9 *227:37 *2027:A1 23.8493 
*END

*D_NET *228 0.00427287
*CONN
*I *2027:B1 I *D sky130_fd_sc_hd__o221a_1
*I *2056:B I *D sky130_fd_sc_hd__and3_1
*I *1974:A I *D sky130_fd_sc_hd__inv_2
*I *2464:Q O *D sky130_fd_sc_hd__dfrtp_1
*CAP
1 *2027:B1 0.000568647
2 *2056:B 4.99221e-05
3 *1974:A 0.000170885
4 *2464:Q 0.000290565
5 *228:12 0.000262413
6 *228:10 0.000900817
7 *1974:A *2056:C 9.41704e-05
8 *1974:A *397:8 8.4047e-05
9 *1974:A *758:63 0.000162801
10 *2027:B1 *2054:B 9.41704e-05
11 *2027:B1 *2058:B1 0.000158334
12 *2027:B1 *328:12 7.00352e-05
13 *2027:B1 *363:10 0.000181125
14 *2056:B *758:63 5.3304e-05
15 *228:10 *2464:RESET_B 0.000222095
16 *228:10 *241:10 2.36844e-05
17 *228:10 *397:8 5.94125e-05
18 *228:10 *730:8 0
19 *228:10 *760:81 5.3304e-05
20 *228:12 *397:8 8.4047e-05
21 *2015:A *2027:B1 3.46673e-05
22 *2056:A *1974:A 8.62876e-05
23 *2056:A *228:10 7.39034e-05
24 *2056:A *228:12 7.48331e-05
25 *219:31 *1974:A 0.000216939
26 *227:8 *228:10 8.62876e-05
27 *227:10 *228:10 5.94125e-05
28 *227:37 *2027:B1 5.67566e-05
*RES
1 *2464:Q *228:10 44.4007 
2 *228:10 *228:12 1.20143 
3 *228:12 *1974:A 43.6343 
4 *228:12 *2056:B 38.6214 
5 *228:10 *2027:B1 48.2121 
*END

*D_NET *229 0.00605492
*CONN
*I *2059:A I *D sky130_fd_sc_hd__or2_1
*I *2060:A I *D sky130_fd_sc_hd__and2_1
*I *1976:A I *D sky130_fd_sc_hd__inv_2
*I *2017:B1 I *D sky130_fd_sc_hd__o221a_1
*I *2465:Q O *D sky130_fd_sc_hd__dfrtp_1
*CAP
1 *2059:A 3.98795e-05
2 *2060:A 0
3 *1976:A 4.08497e-05
4 *2017:B1 0.00023334
5 *2465:Q 0.000153349
6 *229:24 0.00142875
7 *229:14 0.00126331
8 *229:12 0.000148625
9 *229:10 0.000153349
10 *1976:A *331:27 7.70737e-05
11 *1976:A *372:8 4.08641e-05
12 *2017:B1 *330:61 8.43081e-05
13 *2017:B1 *331:27 0.000218971
14 *2017:B1 *372:8 4.08537e-05
15 *2017:B1 *708:137 0
16 *2017:B1 *730:33 2.47304e-05
17 *2059:A *243:10 6.17437e-06
18 *2059:A *737:72 6.8523e-05
19 *229:10 *2465:D 6.17437e-06
20 *229:10 *243:10 8.62876e-05
21 *229:10 *419:14 0
22 *229:14 *2059:B 0.000130423
23 *229:14 *396:19 0.00010018
24 *229:14 *737:72 2.18409e-05
25 *229:24 *2032:A 5.67058e-05
26 *229:24 *2057:A 0.000313249
27 *229:24 *365:24 9.84851e-05
28 *229:24 *380:6 0.000272383
29 *229:24 *380:17 0.00018282
30 *229:24 *396:19 0.000114692
31 *229:24 *737:72 8.47306e-05
32 *229:24 *747:18 9.0102e-05
33 *229:24 *747:26 0.000313255
34 *229:24 *747:61 0.00016064
35 *2024:B1 *2017:B1 0
36 *221:78 *2017:B1 0
*RES
1 *2465:Q *229:10 40.5271 
2 *229:10 *229:12 15 
3 *229:12 *229:14 3.00357 
4 *229:14 *229:24 36.2943 
5 *229:24 *2017:B1 43.4893 
6 *229:24 *1976:A 39.2014 
7 *229:14 *2060:A 23 
8 *229:12 *2059:A 24.1186 
*END

*D_NET *230 0.00302997
*CONN
*I *2076:B I *D sky130_fd_sc_hd__xnor2_1
*I *2456:D I *D sky130_fd_sc_hd__dfrtp_4
*I *2033:X O *D sky130_fd_sc_hd__o21ba_1
*CAP
1 *2076:B 0.000358096
2 *2456:D 0.000130341
3 *2033:X 0.000240028
4 *230:8 0.000728464
5 *2076:B *2037:C 5.83345e-06
6 *2076:B *235:6 1.94693e-05
7 *2076:B *235:48 0.000316586
8 *2076:B *701:97 9.84794e-05
9 *2076:B *737:18 0.000141308
10 *2076:B *761:36 0.000681764
11 *2456:D *235:48 0.000114074
12 *2456:D *362:10 6.7177e-06
13 *2456:D *709:10 0
14 *2456:D *709:65 0
15 *230:8 *362:10 0.000102524
16 *230:8 *412:10 8.62876e-05
17 *230:8 *709:65 0
18 *230:8 *709:76 0
*RES
1 *2033:X *230:8 43.4271 
2 *230:8 *2456:D 40.5271 
3 *230:8 *2076:B 49.1443 
*END

*D_NET *231 0.0013136
*CONN
*I *2466:D I *D sky130_fd_sc_hd__dfrtp_1
*I *2077:B I *D sky130_fd_sc_hd__xnor2_1
*I *2063:Y O *D sky130_fd_sc_hd__a21oi_1
*CAP
1 *2466:D 0
2 *2077:B 0.000281688
3 *2063:Y 0
4 *231:21 0.000154673
5 *231:4 0.000436361
6 *231:21 *2085:D 0
7 *231:21 *2465:RESET_B 0.000115013
8 *231:21 *400:10 6.48142e-05
9 *231:21 *755:44 0.000100778
10 *217:49 *2077:B 3.17516e-05
11 *217:49 *231:21 1.59094e-05
12 *217:57 *2077:B 0.000112612
*RES
1 *2063:Y *231:4 23 
2 *231:4 *2077:B 27.93 
3 *231:4 *231:21 33.5836 
4 *231:21 *2466:D 23 
*END

*D_NET *232 0.000683029
*CONN
*I *2467:D I *D sky130_fd_sc_hd__dfrtp_1
*I *2067:Y O *D sky130_fd_sc_hd__inv_2
*CAP
1 *2467:D 0.000108052
2 *2067:Y 8.85311e-05
3 *232:8 0.000196583
4 *2467:D *756:34 0.000119457
5 *232:8 *404:10 0.000138727
6 *232:8 *755:23 0
7 *218:8 *2467:D 3.16784e-05
*RES
1 *2067:Y *232:8 39.9057 
2 *232:8 *2467:D 40.5271 
*END

*D_NET *233 0.00291655
*CONN
*I *2080:B I *D sky130_fd_sc_hd__xnor2_1
*I *2468:D I *D sky130_fd_sc_hd__dfrtp_1
*I *2070:Y O *D sky130_fd_sc_hd__nor2_1
*CAP
1 *2080:B 0
2 *2468:D 0
3 *2070:Y 0.000355599
4 *233:23 0.000644034
5 *233:10 0.000999632
6 *233:10 *737:109 0.000361027
7 *233:10 *737:122 2.4754e-05
8 *233:23 *415:8 0.000141954
9 *217:10 *233:10 1.01436e-05
10 *217:10 *233:23 0.000181934
11 *217:12 *233:10 0.00019747
*RES
1 *2070:Y *233:10 45.0429 
2 *233:10 *2468:D 38 
3 *233:10 *233:23 27.8429 
4 *233:23 *2080:B 23 
*END

*D_NET *234 0.000622607
*CONN
*I *2469:D I *D sky130_fd_sc_hd__dfrtp_1
*I *2090:B I *D sky130_fd_sc_hd__xnor2_1
*I *2072:Y O *D sky130_fd_sc_hd__a21oi_1
*CAP
1 *2469:D 0
2 *2090:B 6.97847e-05
3 *2072:Y 3.88336e-05
4 *234:23 5.98162e-05
5 *234:6 0.000168434
6 *2090:B *771:DIODE 4.64974e-05
7 *234:6 *771:DIODE 2.4754e-05
8 *234:23 *406:8 7.03766e-05
9 *234:23 *754:130 0.00014411
*RES
1 *2072:Y *234:6 23.6214 
2 *234:6 *2090:B 24.6157 
3 *234:6 *234:23 31.9057 
4 *234:23 *2469:D 23 
*END

*D_NET *235 0.00369159
*CONN
*I *2457:D I *D sky130_fd_sc_hd__dfrtp_2
*I *2078:A2 I *D sky130_fd_sc_hd__a221o_1
*I *2084:B1 I *D sky130_fd_sc_hd__o2bb2a_1
*I *2037:X O *D sky130_fd_sc_hd__and3_1
*CAP
1 *2457:D 0
2 *2078:A2 0
3 *2084:B1 0
4 *2037:X 4.40166e-05
5 *235:48 0.000519417
6 *235:28 0.00016926
7 *235:14 0.000421721
8 *235:6 0.000815894
9 *235:14 *237:38 4.18957e-05
10 *235:14 *382:10 0
11 *235:14 *383:8 2.76611e-06
12 *235:14 *412:10 6.17437e-06
13 *235:14 *701:89 0.000161121
14 *235:14 *701:97 0
15 *235:14 *708:67 6.12996e-05
16 *235:14 *754:88 0
17 *235:28 *2562:A 0
18 *235:28 *240:8 6.7177e-06
19 *235:28 *319:77 0.000217586
20 *235:28 *420:14 5.02025e-05
21 *235:28 *701:89 0.000276385
22 *235:28 *708:67 3.45717e-05
23 *235:48 *2459:RESET_B 0.000141954
24 *235:48 *362:10 0.000207416
25 *235:48 *709:25 0
26 *235:48 *709:31 2.83927e-05
27 *235:48 *754:72 3.46673e-05
28 *2076:B *235:6 1.94693e-05
29 *2076:B *235:48 0.000316586
30 *2456:D *235:48 0.000114074
*RES
1 *2037:X *235:6 23.6214 
2 *235:6 *235:14 34.8782 
3 *235:14 *235:28 34.8834 
4 *235:28 *2084:B1 23 
5 *235:14 *2078:A2 23 
6 *235:6 *235:48 41.4343 
7 *235:48 *2457:D 23 
*END

*D_NET *236 0.00222361
*CONN
*I *2082:B I *D sky130_fd_sc_hd__xnor2_1
*I *2458:D I *D sky130_fd_sc_hd__dfrtp_1
*I *2040:X O *D sky130_fd_sc_hd__and3b_1
*CAP
1 *2082:B 0.000416184
2 *2458:D 0
3 *2040:X 0.000423707
4 *236:10 0.000839892
5 *2082:B *2082:A 2.93845e-05
6 *2082:B *370:8 0
7 *2082:B *701:64 0
8 *2082:B *716:28 0
9 *2082:B *756:66 0
10 *2082:B *756:68 0
11 *2082:B *756:77 0
12 *2082:B *761:30 5.50106e-05
13 *236:10 *790:DIODE 1.5769e-05
14 *236:10 *359:85 0.000443667
15 *236:10 *756:77 0
*RES
1 *2040:X *236:10 44.9393 
2 *236:10 *2458:D 38 
3 *236:10 *2082:B 45.105 
*END

*D_NET *237 0.00453939
*CONN
*I *2084:A2_N I *D sky130_fd_sc_hd__o2bb2a_1
*I *2083:A2 I *D sky130_fd_sc_hd__o22a_1
*I *2459:D I *D sky130_fd_sc_hd__dfrtp_1
*I *2043:X O *D sky130_fd_sc_hd__and3b_1
*CAP
1 *2084:A2_N 0
2 *2083:A2 0.000145942
3 *2459:D 0
4 *2043:X 0.00034157
5 *237:38 0.000639118
6 *237:21 0.00123498
7 *237:10 0.000791495
8 *2083:A2 *319:69 0.000180218
9 *237:10 *387:10 0
10 *237:10 *737:28 0.000361027
11 *237:21 *387:10 0
12 *237:21 *410:8 8.62783e-05
13 *237:21 *708:67 0
14 *237:21 *737:18 0.000188926
15 *237:21 *737:28 0
16 *237:38 *2084:A1_N 8.34104e-06
17 *237:38 *240:8 0.000108681
18 *237:38 *319:69 0.00023598
19 *237:38 *420:14 2.57173e-05
20 *237:38 *701:89 4.99753e-06
21 *237:38 *708:67 0.000144221
22 *237:38 *754:88 0
23 *216:14 *237:21 0
24 *216:16 *237:21 0
25 *216:49 *237:21 0
26 *235:14 *237:38 4.18957e-05
*RES
1 *2043:X *237:10 43.51 
2 *237:10 *2459:D 38 
3 *237:10 *237:21 23.2443 
4 *237:21 *2083:A2 25.0507 
5 *237:21 *237:38 39.9221 
6 *237:38 *2084:A2_N 23 
*END

*D_NET *238 0.00270632
*CONN
*I *2074:B I *D sky130_fd_sc_hd__xnor2_1
*I *2460:D I *D sky130_fd_sc_hd__dfrtp_1
*I *2046:X O *D sky130_fd_sc_hd__and3_1
*CAP
1 *2074:B 0.000126574
2 *2460:D 0.000156095
3 *2046:X 0.00046781
4 *238:12 0.000750478
5 *2074:B *729:43 9.27314e-05
6 *2074:B *761:18 0
7 *2460:D *320:66 0.000201109
8 *2460:D *708:25 0.000141173
9 *238:12 *2046:A 0
10 *238:12 *729:43 8.43591e-05
11 *238:12 *756:58 5.3304e-05
12 *238:12 *756:62 9.41704e-05
13 *238:12 *761:18 0
14 *216:87 *238:12 0.000314823
15 *224:14 *238:12 0.000180218
16 *224:21 *238:12 4.34745e-05
*RES
1 *2046:X *238:12 47.4457 
2 *238:12 *2460:D 43.0543 
3 *238:12 *2074:B 40.61 
*END

*D_NET *239 0.00191934
*CONN
*I *2461:D I *D sky130_fd_sc_hd__dfrtp_1
*I *2079:B I *D sky130_fd_sc_hd__xnor2_1
*I *2049:X O *D sky130_fd_sc_hd__and3b_1
*CAP
1 *2461:D 0.000640658
2 *2079:B 0
3 *2049:X 9.21973e-05
4 *239:12 0.000110382
5 *239:6 0.000843237
6 *2461:D *756:48 3.30827e-05
7 *239:12 *380:17 1.02387e-05
8 *239:12 *380:19 4.58924e-05
9 *239:12 *737:72 0
10 *225:14 *239:6 0.000143655
*RES
1 *2049:X *239:6 24.5743 
2 *239:6 *239:12 32.2579 
3 *239:12 *2079:B 23 
4 *239:6 *2461:D 31.265 
*END

*D_NET *240 0.00111817
*CONN
*I *2462:D I *D sky130_fd_sc_hd__dfrtp_1
*I *2053:Y O *D sky130_fd_sc_hd__inv_2
*CAP
1 *2462:D 6.65472e-05
2 *2053:Y 0.000201042
3 *240:8 0.000267589
4 *2462:D *412:10 0.000182826
5 *2462:D *708:67 2.93747e-05
6 *240:8 *2461:RESET_B 0
7 *240:8 *318:10 3.13866e-05
8 *240:8 *320:104 7.98809e-05
9 *240:8 *418:8 8.85189e-05
10 *240:8 *701:89 5.561e-05
11 *235:28 *240:8 6.7177e-06
12 *237:38 *240:8 0.000108681
*RES
1 *2053:Y *240:8 42.3707 
2 *240:8 *2462:D 40.0507 
*END

*D_NET *241 0.00164535
*CONN
*I *2081:B I *D sky130_fd_sc_hd__xnor2_1
*I *2463:D I *D sky130_fd_sc_hd__dfrtp_1
*I *2055:X O *D sky130_fd_sc_hd__o211a_1
*CAP
1 *2081:B 0.000116025
2 *2463:D 0.00018804
3 *2055:X 0.000189061
4 *241:10 0.000493127
5 *2081:B *2464:RESET_B 7.10099e-05
6 *2463:D *2464:RESET_B 0.000146297
7 *2463:D *409:8 0.000298766
8 *241:10 *2464:RESET_B 6.26356e-05
9 *241:10 *395:6 5.67058e-05
10 *241:10 *755:59 0
11 *228:10 *241:10 2.36844e-05
*RES
1 *2055:X *241:10 41.2314 
2 *241:10 *2463:D 44.3593 
3 *241:10 *2081:B 40.2579 
*END

*D_NET *242 0.00139148
*CONN
*I *2075:B I *D sky130_fd_sc_hd__xnor2_1
*I *2464:D I *D sky130_fd_sc_hd__dfrtp_1
*I *2058:Y O *D sky130_fd_sc_hd__a21oi_1
*CAP
1 *2075:B 0
2 *2464:D 0
3 *2058:Y 0.000214753
4 *242:20 0.000164335
5 *242:12 0.000220493
6 *242:8 0.000270911
7 *242:8 *327:19 3.20914e-05
8 *242:8 *730:8 6.88715e-05
9 *242:8 *747:12 0
10 *242:12 *2075:A 2.4754e-05
11 *242:20 *2075:A 0.000102093
12 *242:20 *732:12 9.88575e-05
13 *242:20 *747:12 0.000194318
*RES
1 *2058:Y *242:8 41.6664 
2 *242:8 *242:12 16.0979 
3 *242:12 *242:20 34.6607 
4 *242:20 *2464:D 23 
5 *242:12 *2075:B 23 
*END

*D_NET *243 0.00340387
*CONN
*I *2465:D I *D sky130_fd_sc_hd__dfrtp_1
*I *2073:B I *D sky130_fd_sc_hd__xnor2_1
*I *2061:X O *D sky130_fd_sc_hd__and3b_1
*CAP
1 *2465:D 0.000419092
2 *2073:B 0.000479596
3 *2061:X 0.000229454
4 *243:10 0.00112814
5 *2073:B *2073:A 5.50106e-05
6 *2073:B *2087:B 0
7 *2073:B *407:10 5.47808e-05
8 *2073:B *419:14 2.82307e-05
9 *2073:B *709:100 0.000194318
10 *2073:B *709:113 8.15327e-05
11 *2073:B *756:34 0.00022295
12 *2465:D *2465:CLK 0.000167478
13 *2465:D *709:113 5.79715e-05
14 *243:10 *2087:B 0
15 *243:10 *419:14 3.98859e-05
16 *243:10 *737:72 0.000146787
17 *2059:A *243:10 6.17437e-06
18 *229:10 *2465:D 6.17437e-06
19 *229:10 *243:10 8.62876e-05
*RES
1 *2061:X *243:10 41.9564 
2 *243:10 *2073:B 49.6414 
3 *243:10 *2465:D 45.7679 
*END

*D_NET *244 0.000687411
*CONN
*I *2455:D I *D sky130_fd_sc_hd__dfrtp_1
*I *2091:X O *D sky130_fd_sc_hd__and3_1
*CAP
1 *2455:D 0
2 *2091:X 0.000270509
3 *244:10 0.000270509
4 *244:10 *2469:CLK 2.64616e-05
5 *244:10 *423:10 1.14452e-05
6 *244:10 *424:8 8.62783e-05
7 *244:10 *709:10 0
8 *244:10 *709:65 0
9 *244:10 *754:130 0
10 *244:10 *761:36 2.22079e-05
*RES
1 *2091:X *244:10 42.9921 
2 *244:10 *2455:D 38 
*END

*D_NET *245 0.00143374
*CONN
*I *2261:A_N I *D sky130_fd_sc_hd__and4bb_1
*I *2455:Q O *D sky130_fd_sc_hd__dfrtp_1
*CAP
1 *2261:A_N 2.86067e-05
2 *2455:Q 0.000516257
3 *245:10 0.000544864
4 *2261:A_N *754:36 5.67058e-05
5 *245:10 *2455:RESET_B 1.19087e-05
6 *245:10 *251:8 0.000141879
7 *245:10 *754:24 2.76611e-06
8 *245:10 *754:105 2.44497e-05
9 *245:10 *754:112 0.000106305
*RES
1 *2455:Q *245:10 47.715 
2 *245:10 *2261:A_N 38.6214 
*END

*D_NET *246 0.00489569
*CONN
*I *2593:A I *D sky130_fd_sc_hd__dlygate4sd3_1
*I *2013:A I *D sky130_fd_sc_hd__nor2_1
*I *2216:A I *D sky130_fd_sc_hd__and2_1
*I *2218:A I *D sky130_fd_sc_hd__or2_2
*I *2217:A I *D sky130_fd_sc_hd__nand2_2
*I *2261:B_N I *D sky130_fd_sc_hd__and4bb_1
*I *2450:Q O *D sky130_fd_sc_hd__dfrtp_1
*CAP
1 *2593:A 0
2 *2013:A 0.000258834
3 *2216:A 7.89764e-05
4 *2218:A 0
5 *2217:A 8.284e-05
6 *2261:B_N 0.000202311
7 *2450:Q 0.000110774
8 *246:33 0.000197671
9 *246:31 0.000371647
10 *246:27 0.000533529
11 *246:12 0.000499951
12 *246:10 0.000200786
13 *246:8 0.000110774
14 *2013:A *816:DIODE 9.41704e-05
15 *2013:A *247:30 9.84794e-05
16 *2013:A *247:40 3.76702e-05
17 *2013:A *571:36 0.000121021
18 *2013:A *572:10 0.000187129
19 *2013:A *754:8 5.3304e-05
20 *2216:A *2216:B 4.34745e-05
21 *2217:A *247:22 0.000199751
22 *2217:A *532:20 0.000182826
23 *2261:B_N *2263:A 6.17437e-06
24 *2261:B_N *574:33 9.84794e-05
25 *2261:B_N *754:36 3.90266e-05
26 *246:8 *757:130 0
27 *246:12 *2263:A 2.32101e-05
28 *246:27 *754:24 0.000178782
29 *246:27 *757:106 9.48381e-06
30 *246:27 *757:130 4.73689e-05
31 *246:31 *2451:RESET_B 0.000223043
32 *246:31 *247:10 0.000111852
33 *246:31 *574:47 3.81927e-05
34 *246:31 *754:24 3.47781e-05
35 *246:31 *757:106 0.000109361
36 *246:33 *2216:B 5.50106e-05
37 *246:33 *247:14 5.3304e-05
38 *246:33 *247:22 8.52481e-05
39 gpio_oeb[17] *246:31 8.02925e-05
40 *157:14 *2217:A 3.61695e-05
*RES
1 *2450:Q *246:8 39.9057 
2 *246:8 *246:10 15 
3 *246:10 *246:12 3.48 
4 *246:12 *2261:B_N 26.5214 
5 *246:12 *246:27 17.61 
6 *246:27 *246:31 20.7793 
7 *246:31 *246:33 2.05071 
8 *246:33 *2217:A 26.0243 
9 *246:33 *2218:A 23 
10 *246:31 *2216:A 24.595 
11 *246:27 *2013:A 44.3593 
12 *246:10 *2593:A 23 
*END

*D_NET *247 0.0041956
*CONN
*I *2216:B I *D sky130_fd_sc_hd__and2_1
*I *2218:B I *D sky130_fd_sc_hd__or2_2
*I *2217:B I *D sky130_fd_sc_hd__nand2_2
*I *2260:A1 I *D sky130_fd_sc_hd__o21ai_1
*I *2012:B I *D sky130_fd_sc_hd__or4_1
*I *2451:Q O *D sky130_fd_sc_hd__dfrtp_1
*CAP
1 *2216:B 3.35561e-05
2 *2218:B 0
3 *2217:B 0
4 *2260:A1 0
5 *2012:B 0
6 *2451:Q 0.000399606
7 *247:40 0.000197497
8 *247:30 0.00049494
9 *247:22 0.000361758
10 *247:14 8.48702e-05
11 *247:12 5.41114e-05
12 *247:10 0.000399606
13 *247:10 *2451:RESET_B 8.53353e-05
14 *247:10 *574:47 0.000138727
15 *247:30 *2451:CLK 4.38375e-05
16 *247:30 *249:96 0.000194327
17 *247:30 *532:8 1.62015e-05
18 *247:30 *571:23 0.000277714
19 *247:30 *574:14 0
20 *247:30 *574:47 0
21 *247:40 *250:23 3.46181e-05
22 *247:40 *360:10 0.000110913
23 *247:40 *361:6 9.5877e-05
24 *247:40 *574:14 0.000137651
25 *2013:A *247:30 9.84794e-05
26 *2013:A *247:40 3.76702e-05
27 *2216:A *2216:B 4.34745e-05
28 *2217:A *247:22 0.000199751
29 *157:14 *2216:B 4.08664e-05
30 *157:14 *247:14 4.08664e-05
31 *157:14 *247:22 0.000267931
32 *246:31 *247:10 0.000111852
33 *246:33 *2216:B 5.50106e-05
34 *246:33 *247:14 5.3304e-05
35 *246:33 *247:22 8.52481e-05
*RES
1 *2451:Q *247:10 44.3386 
2 *247:10 *247:12 15 
3 *247:12 *247:14 0.621429 
4 *247:14 *247:22 3.50071 
5 *247:22 *247:30 36.8771 
6 *247:30 *247:40 34.93 
7 *247:40 *2012:B 23 
8 *247:30 *2260:A1 23 
9 *247:22 *2217:B 23 
10 *247:14 *2218:B 23 
11 *247:12 *2216:B 24.0979 
*END

*D_NET *248 0.00755415
*CONN
*I *2234:A I *D sky130_fd_sc_hd__nand2_1
*I *2012:C I *D sky130_fd_sc_hd__or4_1
*I *2220:A I *D sky130_fd_sc_hd__or3b_2
*I *2240:A1 I *D sky130_fd_sc_hd__o211a_1
*I *2242:A1 I *D sky130_fd_sc_hd__o31a_1
*I *2227:B I *D sky130_fd_sc_hd__or3b_1
*I *2239:A I *D sky130_fd_sc_hd__nand2_1
*I *2222:B I *D sky130_fd_sc_hd__nand3b_2
*I *2267:A1 I *D sky130_fd_sc_hd__mux2_1
*I *2452:Q O *D sky130_fd_sc_hd__dfrtp_4
*CAP
1 *2234:A 0
2 *2012:C 0.000231736
3 *2220:A 2.95011e-05
4 *2240:A1 0.000274176
5 *2242:A1 0.000153791
6 *2227:B 0
7 *2239:A 0.000176051
8 *2222:B 5.92627e-05
9 *2267:A1 0
10 *2452:Q 0.000414556
11 *248:98 0.00039628
12 *248:48 0.000239247
13 *248:46 0.000253112
14 *248:44 0.000444296
15 *248:42 0.000269037
16 *248:31 0.00028009
17 *248:27 0.000463708
18 *248:14 0.000657438
19 *2012:C *249:81 8.33724e-05
20 *2012:C *249:96 0
21 *2012:C *250:23 6.07611e-06
22 *2012:C *250:25 6.27365e-05
23 *2012:C *532:20 2.3529e-05
24 *2222:B *2219:A 0
25 *2222:B *2222:A_N 2.93747e-05
26 *2239:A *2227:A 9.5877e-05
27 *2239:A *249:48 8.4626e-05
28 *2239:A *551:10 6.16531e-05
29 *2239:A *552:22 4.19743e-05
30 *2239:A *576:12 0.000222791
31 *2240:A1 *2238:B1 5.67058e-05
32 *2240:A1 *2451:CLK 4.09412e-06
33 *2240:A1 *254:6 5.50106e-05
34 *2240:A1 *530:29 0.000172656
35 *2240:A1 *551:10 0.000338964
36 *2242:A1 *2233:A 0.000182832
37 *2242:A1 *2242:A2 4.79544e-05
38 *2242:A1 *249:48 1.6873e-05
39 *2242:A1 *541:53 0.000268873
40 *248:14 *2267:A0 0.000141879
41 *248:14 *2452:RESET_B 0.000140454
42 *248:14 *249:10 2.35608e-05
43 *248:14 *574:47 1.14452e-05
44 *248:14 *576:12 6.17437e-06
45 *248:14 *757:106 0
46 *248:27 *2267:A0 2.77955e-05
47 *248:27 *530:10 9.3813e-05
48 *248:27 *531:31 3.71251e-05
49 *248:27 *548:10 2.18409e-05
50 *248:27 *574:47 0.000225265
51 *248:31 *2222:A_N 7.44354e-05
52 *248:31 *531:31 3.86893e-05
53 *248:31 *548:10 1.32314e-05
54 *248:44 *2451:CLK 0
55 *248:44 *249:48 1.34354e-05
56 *248:44 *249:57 5.31444e-05
57 *248:44 *250:35 0
58 *248:48 *249:48 5.16506e-05
59 *248:48 *551:10 8.62783e-05
60 *248:98 *2219:B 9.04083e-05
61 *248:98 *2220:B 2.47015e-05
62 *248:98 *249:57 1.83667e-05
63 *248:98 *249:66 6.17854e-05
64 *248:98 *249:81 2.70366e-05
65 *248:98 *250:35 0
66 *248:98 *532:20 1.83667e-05
67 *157:14 *2220:A 5.50106e-05
*RES
1 *2452:Q *248:14 46.7621 
2 *248:14 *2267:A1 38 
3 *248:14 *248:27 20.9657 
4 *248:27 *248:31 3.97714 
5 *248:31 *2222:B 24.1186 
6 *248:31 *248:42 15 
7 *248:42 *248:44 2.78607 
8 *248:44 *248:46 0.621429 
9 *248:46 *248:48 1.72964 
10 *248:48 *2239:A 42.495 
11 *248:48 *2227:B 38 
12 *248:46 *2242:A1 42.2982 
13 *248:44 *2240:A1 44.4939 
14 *248:42 *248:98 3.31429 
15 *248:98 *2220:A 38.6214 
16 *248:98 *2012:C 42.0807 
17 *248:27 *2234:A 23 
*END

*D_NET *249 0.00710992
*CONN
*I *2260:A2 I *D sky130_fd_sc_hd__o21ai_1
*I *2012:D I *D sky130_fd_sc_hd__or4_1
*I *2220:B I *D sky130_fd_sc_hd__or3b_2
*I *2222:C I *D sky130_fd_sc_hd__nand3b_2
*I *2227:C_N I *D sky130_fd_sc_hd__or3b_1
*I *2242:A2 I *D sky130_fd_sc_hd__o31a_1
*I *2233:B I *D sky130_fd_sc_hd__nor2_1
*I *2453:Q O *D sky130_fd_sc_hd__dfrtp_2
*CAP
1 *2260:A2 0
2 *2012:D 4.58257e-05
3 *2220:B 5.63952e-05
4 *2222:C 0
5 *2227:C_N 0
6 *2242:A2 0.000243284
7 *2233:B 0
8 *2453:Q 0.000500046
9 *249:96 0.000163667
10 *249:81 0.000346364
11 *249:66 0.000277029
12 *249:57 0.000161277
13 *249:48 0.000267558
14 *249:25 0.000672869
15 *249:23 0.000389679
16 *249:14 0.0002744
17 *249:10 0.000624309
18 *2012:D *2012:A 0.000141052
19 *2012:D *252:10 2.18409e-05
20 *2012:D *571:23 0.000182826
21 *2242:A2 *2233:A 0.000140259
22 *2242:A2 *541:53 1.41077e-05
23 *249:10 *2238:A1 0.000379403
24 *249:10 *2238:A2 2.60152e-05
25 *249:10 *2267:A0 6.32688e-05
26 *249:10 *2453:CLK 0
27 *249:10 *530:10 3.47781e-05
28 *249:10 *757:106 0
29 *249:14 *530:14 0.000221992
30 *249:23 *2233:A 6.37262e-05
31 *249:23 *530:14 2.25809e-05
32 *249:25 *2233:A 0.000213869
33 *249:48 *2227:A 2.68708e-05
34 *249:48 *250:35 9.48381e-06
35 *249:48 *551:10 6.7177e-06
36 *249:48 *552:22 0.000117976
37 *249:48 *555:10 7.56417e-05
38 *249:48 *576:12 7.05242e-05
39 *249:57 *2451:CLK 6.68793e-05
40 *249:66 *2451:CLK 7.32258e-05
41 *249:81 *2451:CLK 0.000125545
42 *249:96 *2451:CLK 1.83667e-05
43 *249:96 *250:23 0
44 *249:96 *252:10 9.62764e-05
45 *249:96 *571:23 0.000170394
46 *249:96 *574:14 2.76611e-06
47 *2012:C *249:81 8.33724e-05
48 *2012:C *249:96 0
49 *2239:A *249:48 8.4626e-05
50 *2242:A1 *2242:A2 4.79544e-05
51 *2242:A1 *249:48 1.6873e-05
52 *247:30 *249:96 0.000194327
53 *248:14 *249:10 2.35608e-05
54 *248:44 *249:48 1.34354e-05
55 *248:44 *249:57 5.31444e-05
56 *248:48 *249:48 5.16506e-05
57 *248:98 *2220:B 2.47015e-05
58 *248:98 *249:57 1.83667e-05
59 *248:98 *249:66 6.17854e-05
60 *248:98 *249:81 2.70366e-05
*RES
1 *2453:Q *249:10 47.4664 
2 *249:10 *249:14 17.5271 
3 *249:14 *2233:B 23 
4 *249:14 *249:23 2.42357 
5 *249:23 *249:25 2.52714 
6 *249:25 *2242:A2 26.8529 
7 *249:25 *249:48 36.7321 
8 *249:48 *2227:C_N 23 
9 *249:23 *249:57 16.9057 
10 *249:57 *2222:C 38 
11 *249:57 *249:66 2.08179 
12 *249:66 *2220:B 38.9425 
13 *249:66 *249:81 18.4904 
14 *249:81 *2012:D 25.0507 
15 *249:81 *249:96 34.6607 
16 *249:96 *2260:A2 23 
*END

*D_NET *250 0.00603608
*CONN
*I *2259:A I *D sky130_fd_sc_hd__and2_1
*I *2012:A I *D sky130_fd_sc_hd__or4_1
*I *2220:C_N I *D sky130_fd_sc_hd__or3b_2
*I *2222:A_N I *D sky130_fd_sc_hd__nand3b_2
*I *2233:A I *D sky130_fd_sc_hd__nor2_1
*I *2227:A I *D sky130_fd_sc_hd__or3b_1
*I *2269:A1 I *D sky130_fd_sc_hd__a21o_1
*I *2454:Q O *D sky130_fd_sc_hd__dfrtp_1
*CAP
1 *2259:A 0
2 *2012:A 8.42089e-05
3 *2220:C_N 0
4 *2222:A_N 0.000131009
5 *2233:A 0.000125988
6 *2227:A 0.000212448
7 *2269:A1 0.000156429
8 *2454:Q 3.89734e-05
9 *250:75 8.42089e-05
10 *250:35 0.000504893
11 *250:29 0.000438641
12 *250:25 0.000313724
13 *250:23 0.000413225
14 *250:10 0.000397106
15 *250:8 3.89734e-05
16 *2012:A *252:10 0.000124351
17 *2012:A *571:23 2.18506e-05
18 *2222:A_N *2219:B 4.17736e-05
19 *2222:A_N *531:31 0.000139774
20 *2227:A *2237:A2 2.8936e-05
21 *2227:A *2266:B 2.64506e-05
22 *2227:A *531:47 0
23 *2227:A *552:22 9.75779e-05
24 *2227:A *555:10 0.000161121
25 *2233:A *2237:A1 3.22879e-05
26 *2233:A *2237:A2 2.98648e-05
27 *2233:A *530:14 7.53384e-06
28 *2233:A *541:53 2.18409e-05
29 *2269:A1 *359:100 0.000185428
30 *2269:A1 *573:14 2.4754e-05
31 *250:8 *359:108 8.62876e-05
32 *250:8 *361:23 8.62876e-05
33 *250:23 *360:10 0
34 *250:23 *361:23 8.72173e-05
35 *250:23 *573:14 7.27752e-05
36 *250:23 *574:24 0.000126343
37 *250:23 *577:10 0
38 *250:25 *2223:A 0
39 *250:25 *532:20 6.38845e-05
40 *250:25 *534:10 6.4393e-05
41 *250:25 *574:24 1.01436e-05
42 *250:29 *2219:B 0.000164291
43 *250:29 *2223:A 0
44 *250:29 *532:20 2.68751e-05
45 *250:35 *2219:B 0.00010018
46 *250:35 *2237:A2 5.23561e-05
47 *250:35 *531:31 2.18409e-05
48 *250:35 *531:37 1.01436e-05
49 *250:35 *536:6 9.84851e-05
50 *2012:C *250:23 6.07611e-06
51 *2012:C *250:25 6.27365e-05
52 *2012:D *2012:A 0.000141052
53 *2222:B *2222:A_N 2.93747e-05
54 *2239:A *2227:A 9.5877e-05
55 *2242:A1 *2233:A 0.000182832
56 *2242:A2 *2233:A 0.000140259
57 *247:40 *250:23 3.46181e-05
58 *248:31 *2222:A_N 7.44354e-05
59 *248:44 *250:35 0
60 *248:98 *250:35 0
61 *249:23 *2233:A 6.37262e-05
62 *249:25 *2233:A 0.000213869
63 *249:48 *2227:A 2.68708e-05
64 *249:48 *250:35 9.48381e-06
65 *249:96 *250:23 0
*RES
1 *2454:Q *250:8 39.2014 
2 *250:8 *250:10 15 
3 *250:10 *2269:A1 25.5271 
4 *250:10 *250:23 19.7643 
5 *250:23 *250:25 3.31429 
6 *250:25 *250:29 17.61 
7 *250:29 *250:35 19.1843 
8 *250:35 *2227:A 42.7643 
9 *250:35 *2233:A 42.93 
10 *250:29 *2222:A_N 26.5007 
11 *250:25 *2220:C_N 38 
12 *250:23 *250:75 15 
13 *250:75 *2012:A 25.5479 
14 *250:75 *2259:A 23 
*END

*D_NET *251 0.000689685
*CONN
*I *2450:D I *D sky130_fd_sc_hd__dfrtp_1
*I *2263:Y O *D sky130_fd_sc_hd__nor3_1
*CAP
1 *2450:D 0.000184483
2 *2263:Y 5.4232e-05
3 *251:8 0.000238715
4 *251:8 *754:105 7.03766e-05
5 *245:10 *251:8 0.000141879
*RES
1 *2263:Y *251:8 39.9057 
2 *251:8 *2450:D 41.0036 
*END

*D_NET *252 0.00124223
*CONN
*I *2451:D I *D sky130_fd_sc_hd__dfrtp_1
*I *2264:Y O *D sky130_fd_sc_hd__nor2_1
*CAP
1 *2451:D 0
2 *2264:Y 0.000367882
3 *252:10 0.000367882
4 *252:10 *360:10 5.70419e-05
5 *252:10 *571:23 2.15261e-05
6 *252:10 *574:24 0.000185428
7 *2012:A *252:10 0.000124351
8 *2012:D *252:10 2.18409e-05
9 *249:96 *252:10 9.62764e-05
*RES
1 *2264:Y *252:10 30.9336 
2 *252:10 *2451:D 23 
*END

*D_NET *253 0.000874065
*CONN
*I *2452:D I *D sky130_fd_sc_hd__dfrtp_4
*I *2267:X O *D sky130_fd_sc_hd__mux2_1
*CAP
1 *2452:D 7.84941e-05
2 *2267:X 0.000133142
3 *253:10 0.000211636
4 *2452:D *2452:CLK 6.17437e-06
5 *2452:D *552:22 9.41704e-05
6 *2452:D *576:12 2.94414e-05
7 *253:10 *2234:B 6.07611e-06
8 *253:10 *2240:B1 9.63918e-05
9 *253:10 *530:14 2.64616e-05
10 *253:10 *548:10 0.000192077
*RES
1 *2267:X *253:10 41.2314 
2 *253:10 *2452:D 39.5743 
*END

*D_NET *254 0.00190028
*CONN
*I *2453:D I *D sky130_fd_sc_hd__dfrtp_2
*I *2243:A I *D sky130_fd_sc_hd__or3b_1
*I *2238:Y O *D sky130_fd_sc_hd__o21ai_1
*CAP
1 *2453:D 0
2 *2243:A 7.88293e-05
3 *2238:Y 0.000130345
4 *254:21 0.000214264
5 *254:6 0.000423438
6 *2243:A *548:27 0.0002263
7 *2243:A *707:106 9.00922e-05
8 *254:6 *2238:B1 0.000111779
9 *254:6 *2240:B1 5.3304e-05
10 *254:6 *548:27 0.000430644
11 *254:6 *707:106 4.5707e-05
12 *254:21 *2247:C_N 0
13 *254:21 *2266:B 0
14 *254:21 *551:10 2.22079e-05
15 *254:21 *553:10 0
16 *254:21 *555:10 1.83564e-05
17 *254:21 *707:119 0
18 *254:21 *757:78 0
19 *254:21 *757:93 0
20 *2240:A1 *254:6 5.50106e-05
*RES
1 *2238:Y *254:6 27.9093 
2 *254:6 *2243:A 26.0243 
3 *254:6 *254:21 34.0186 
4 *254:21 *2453:D 23 
*END

*D_NET *255 0.000970025
*CONN
*I *2454:D I *D sky130_fd_sc_hd__dfrtp_1
*I *2269:X O *D sky130_fd_sc_hd__a21o_1
*CAP
1 *2454:D 0
2 *2269:X 0.000293112
3 *255:10 0.000293112
4 *255:10 *359:93 0.000271476
5 *255:10 *359:100 5.67058e-05
6 *255:10 *362:10 5.56203e-05
*RES
1 *2269:X *255:10 43.0336 
2 *255:10 *2454:D 38 
*END

*D_NET *256 0.000373786
*CONN
*I *2470:D I *D sky130_fd_sc_hd__dfstp_1
*I *2270:X O *D sky130_fd_sc_hd__mux2_1
*CAP
1 *2470:D 0
2 *2270:X 0.000136112
3 *256:10 0.000136112
4 *2270:A0 *256:10 5.67058e-05
5 *166:27 *256:10 4.48568e-05
*RES
1 *2270:X *256:10 40.5271 
2 *256:10 *2470:D 38 
*END

*D_NET *257 0.00223379
*CONN
*I *2471:D I *D sky130_fd_sc_hd__dfstp_1
*I *2271:X O *D sky130_fd_sc_hd__mux2_1
*CAP
1 *2471:D 0.000112292
2 *2271:X 0.00072562
3 *257:10 0.000837912
4 *2471:D *2471:SET_B 7.61692e-05
5 *257:10 *2444:S 0.000139647
6 *257:10 *307:10 0
7 *257:10 *741:98 0.000273006
8 *257:10 *741:111 6.91397e-05
9 *151:10 *257:10 0
*RES
1 *2271:X *257:10 49.9729 
2 *257:10 *2471:D 40.5271 
*END

*D_NET *258 0.000605552
*CONN
*I *2472:D I *D sky130_fd_sc_hd__dfstp_1
*I *2272:X O *D sky130_fd_sc_hd__mux2_1
*CAP
1 *2472:D 0
2 *2272:X 0.000302776
3 *258:10 0.000302776
4 *258:10 *2472:SET_B 0
5 *258:10 *702:79 0
*RES
1 *2272:X *258:10 42.4329 
2 *258:10 *2472:D 38 
*END

*D_NET *259 0.000437474
*CONN
*I *2473:D I *D sky130_fd_sc_hd__dfstp_1
*I *2273:X O *D sky130_fd_sc_hd__mux2_1
*CAP
1 *2473:D 0
2 *2273:X 0.000218737
3 *259:10 0.000218737
4 *259:10 *741:124 0
5 *67:10 *259:10 0
*RES
1 *2273:X *259:10 41.3557 
2 *259:10 *2473:D 38 
*END

*D_NET *260 0.000391814
*CONN
*I *2474:D I *D sky130_fd_sc_hd__dfstp_1
*I *2274:X O *D sky130_fd_sc_hd__mux2_1
*CAP
1 *2474:D 0
2 *2274:X 0.000195907
3 *260:10 0.000195907
4 *260:10 *261:10 0
5 gpio_oeb[19] *260:10 0
*RES
1 *2274:X *260:10 41.0036 
2 *260:10 *2474:D 38 
*END

*D_NET *261 0.00108986
*CONN
*I *2475:D I *D sky130_fd_sc_hd__dfstp_1
*I *2275:X O *D sky130_fd_sc_hd__mux2_1
*CAP
1 *2475:D 0
2 *2275:X 0.000401193
3 *261:10 0.000401193
4 *261:10 *2474:CLK 0
5 *261:10 *2476:CLK 0
6 *2274:A0 *261:10 1.57571e-05
7 *2274:A1 *261:10 0.000185434
8 *2275:A1 *261:10 0
9 *169:10 *261:10 8.62876e-05
10 *260:10 *261:10 0
*RES
1 *2275:X *261:10 45.25 
2 *261:10 *2475:D 38 
*END

*D_NET *262 0.00214014
*CONN
*I *2476:D I *D sky130_fd_sc_hd__dfstp_1
*I *2276:X O *D sky130_fd_sc_hd__mux2_1
*CAP
1 *2476:D 0.000217331
2 *2276:X 0.000337494
3 *262:8 0.000554825
4 *262:8 *2477:SET_B 0.000675708
5 *2276:A0 *262:8 0
6 *108:28 *262:8 0
7 *173:16 *262:8 0.000354788
*RES
1 *2276:X *262:8 48.3571 
2 *262:8 *2476:D 41.9564 
*END

*D_NET *263 0.00089755
*CONN
*I *2477:D I *D sky130_fd_sc_hd__dfstp_1
*I *2277:X O *D sky130_fd_sc_hd__mux2_1
*CAP
1 *2477:D 2.95011e-05
2 *2277:X 0.000358551
3 *263:10 0.000388052
4 *2477:D *702:204 5.50106e-05
5 *263:10 *2623:A 2.30292e-05
6 *108:28 *263:10 4.3407e-05
*RES
1 *2277:X *263:10 43.3857 
2 *263:10 *2477:D 38.6214 
*END

*D_NET *264 0.00064076
*CONN
*I *2478:D I *D sky130_fd_sc_hd__dfstp_1
*I *2278:X O *D sky130_fd_sc_hd__mux2_1
*CAP
1 *2478:D 0
2 *2278:X 0.00024908
3 *264:10 0.00024908
4 *264:10 *704:33 5.24967e-05
5 *264:10 *749:48 0
6 *264:10 *749:50 0
7 *264:10 *762:14 9.01041e-05
*RES
1 *2278:X *264:10 42.4329 
2 *264:10 *2478:D 38 
*END

*D_NET *265 0.00181789
*CONN
*I *2479:D I *D sky130_fd_sc_hd__dfstp_1
*I *2282:X O *D sky130_fd_sc_hd__mux2_1
*CAP
1 *2479:D 0
2 *2282:X 0.000505121
3 *265:10 0.000505121
4 *265:10 *2295:A1 0
5 *265:10 *267:8 0
6 *265:10 *580:42 0.000173452
7 *2295:A0 *265:10 0
8 *135:23 *265:10 7.06124e-05
9 *139:25 *265:10 0.000563587
*RES
1 *2282:X *265:10 49.02 
2 *265:10 *2479:D 38 
*END

*D_NET *266 0.000406473
*CONN
*I *2480:D I *D sky130_fd_sc_hd__dfstp_1
*I *2287:X O *D sky130_fd_sc_hd__mux2_1
*CAP
1 *2480:D 0
2 *2287:X 0.00018792
3 *266:10 0.00018792
4 *266:10 *584:6 3.06338e-05
5 *266:10 *707:50 0
*RES
1 *2287:X *266:10 41.0036 
2 *266:10 *2480:D 38 
*END

*D_NET *267 0.000373664
*CONN
*I *2481:D I *D sky130_fd_sc_hd__dfstp_1
*I *2295:X O *D sky130_fd_sc_hd__mux2_1
*CAP
1 *2481:D 6.80678e-05
2 *2295:X 9.5818e-05
3 *267:8 0.000163886
4 *2295:A0 *267:8 4.58924e-05
5 *135:23 *267:8 0
6 *265:10 *267:8 0
*RES
1 *2295:X *267:8 39.9057 
2 *267:8 *2481:D 39.0979 
*END

*D_NET *268 0.000541538
*CONN
*I *2482:D I *D sky130_fd_sc_hd__dfstp_1
*I *2311:X O *D sky130_fd_sc_hd__o21a_1
*CAP
1 *2482:D 0
2 *2311:X 0.000270769
3 *268:10 0.000270769
4 *268:10 *2311:A2 0
5 *268:10 *590:8 0
*RES
1 *2311:X *268:10 41.9564 
2 *268:10 *2482:D 38 
*END

*D_NET *269 0.000562058
*CONN
*I *2483:D I *D sky130_fd_sc_hd__dfstp_1
*I *2322:X O *D sky130_fd_sc_hd__mux2_1
*CAP
1 *2483:D 0
2 *2322:X 0.000206164
3 *269:10 0.000206164
4 *269:10 *706:39 6.07611e-06
5 *269:10 *740:20 0.000143655
*RES
1 *2322:X *269:10 41.48 
2 *269:10 *2483:D 38 
*END

*D_NET *270 0.00222892
*CONN
*I *2484:D I *D sky130_fd_sc_hd__dfstp_1
*I *2331:X O *D sky130_fd_sc_hd__mux2_1
*CAP
1 *2484:D 0
2 *2331:X 0.000806632
3 *270:14 0.000806632
4 *270:14 *2331:S 0.000292157
5 *270:14 *2484:CLK 0.000323499
*RES
1 *2331:X *270:14 39.0743 
2 *270:14 *2484:D 23 
*END

*D_NET *271 0.00109283
*CONN
*I *2485:D I *D sky130_fd_sc_hd__dfstp_1
*I *2334:X O *D sky130_fd_sc_hd__a2bb2o_1
*CAP
1 *2485:D 0
2 *2334:X 0.000243493
3 *271:10 0.000243493
4 *271:10 *2335:A2 0.000111234
5 *271:10 *626:27 0.000352657
6 *271:10 *701:122 0.000141954
*RES
1 *2334:X *271:10 44.2971 
2 *271:10 *2485:D 38 
*END

*D_NET *272 0.000714137
*CONN
*I *2486:D I *D sky130_fd_sc_hd__dfstp_1
*I *2335:X O *D sky130_fd_sc_hd__o21ba_1
*CAP
1 *2486:D 0
2 *2335:X 0.000144842
3 *272:10 0.000144842
4 *272:10 *2539:SET_B 9.84851e-05
5 *272:10 *701:10 4.90787e-05
6 *272:10 *756:112 5.50049e-05
7 *2214:A *272:10 0.000140259
8 *148:12 *272:10 8.16253e-05
*RES
1 *2335:X *272:10 41.8321 
2 *272:10 *2486:D 38 
*END

*D_NET *273 0.000950281
*CONN
*I *2487:D I *D sky130_fd_sc_hd__dfstp_1
*I *2336:X O *D sky130_fd_sc_hd__mux2_1
*CAP
1 *2487:D 0.000119336
2 *2336:X 6.32676e-05
3 *273:8 0.000182604
4 *2487:D *350:56 0.00019975
5 *273:8 *350:56 8.62783e-05
6 *273:8 *746:51 0.000141879
7 *151:38 *273:8 0
8 *153:27 *2487:D 0.000157167
*RES
1 *2336:X *273:8 39.9057 
2 *273:8 *2487:D 42.4329 
*END

*D_NET *274 0.000705899
*CONN
*I *2488:D I *D sky130_fd_sc_hd__dfstp_1
*I *2337:X O *D sky130_fd_sc_hd__mux2_1
*CAP
1 *2488:D 0
2 *2337:X 0.000137377
3 *274:10 0.000137377
4 *274:10 *350:37 0.000168754
5 *274:10 *354:45 9.5877e-05
6 *150:29 *274:10 0.000166513
*RES
1 *2337:X *274:10 41.3557 
2 *274:10 *2488:D 38 
*END

*D_NET *275 0.000407771
*CONN
*I *2489:D I *D sky130_fd_sc_hd__dfstp_2
*I *2338:X O *D sky130_fd_sc_hd__mux2_1
*CAP
1 *2489:D 9.37445e-05
2 *2338:X 8.71949e-05
3 *275:8 0.000180939
4 *275:8 *350:37 0
5 *275:8 *748:35 4.58924e-05
*RES
1 *2338:X *275:8 39.9057 
2 *275:8 *2489:D 39.5743 
*END

*D_NET *276 0.00107918
*CONN
*I *2490:D I *D sky130_fd_sc_hd__dfstp_1
*I *2339:X O *D sky130_fd_sc_hd__mux2_1
*CAP
1 *2490:D 0.000174593
2 *2339:X 7.45692e-05
3 *276:8 0.000249162
4 *2490:D *2491:SET_B 3.08719e-06
5 *2490:D *354:45 0.000265098
6 *276:8 *2490:SET_B 0.000138718
7 *2337:A0 *2490:D 0.000134065
8 *126:10 *276:8 3.98859e-05
*RES
1 *2339:X *276:8 39.9057 
2 *276:8 *2490:D 43.3857 
*END

*D_NET *277 0.000349275
*CONN
*I *2491:D I *D sky130_fd_sc_hd__dfstp_1
*I *2340:X O *D sky130_fd_sc_hd__mux2_1
*CAP
1 *2491:D 0
2 *2340:X 0.000122067
3 *277:10 0.000122067
4 *277:10 *2340:S 3.22879e-05
5 *156:46 *277:10 7.28526e-05
*RES
1 *2340:X *277:10 40.5271 
2 *277:10 *2491:D 38 
*END

*D_NET *278 0.000872318
*CONN
*I *2492:D I *D sky130_fd_sc_hd__dfstp_1
*I *2341:X O *D sky130_fd_sc_hd__mux2_1
*CAP
1 *2492:D 1.80505e-05
2 *2341:X 0.000365305
3 *278:10 0.000383355
4 *2492:D *703:176 5.50049e-05
5 *2447:A0 *2492:D 2.93747e-05
6 *152:6 *278:10 7.28476e-06
7 *152:29 *278:10 1.39431e-05
8 *154:10 *278:10 0
9 *154:14 *278:10 0
*RES
1 *2341:X *278:10 43.8207 
2 *278:10 *2492:D 38.6214 
*END

*D_NET *279 0.000452372
*CONN
*I *2493:D I *D sky130_fd_sc_hd__dfstp_1
*I *2342:X O *D sky130_fd_sc_hd__mux2_1
*CAP
1 *2493:D 0
2 *2342:X 0.000176096
3 *279:10 0.000176096
4 *279:10 *2501:CLK 0
5 *279:10 *354:10 0
6 *2342:A1 *279:10 0.00010018
7 *155:12 *279:10 0
*RES
1 *2342:X *279:10 41.0036 
2 *279:10 *2493:D 38 
*END

*D_NET *280 0.000485239
*CONN
*I *2494:D I *D sky130_fd_sc_hd__dfstp_1
*I *2343:X O *D sky130_fd_sc_hd__mux2_1
*CAP
1 *2494:D 0
2 *2343:X 0.000141542
3 *280:10 0.000141542
4 *280:10 *701:144 0.000138708
5 *2343:A0 *280:10 5.3304e-05
6 *125:90 *280:10 0
7 *156:29 *280:10 1.01436e-05
8 *156:46 *280:10 0
*RES
1 *2343:X *280:10 40.5271 
2 *280:10 *2494:D 38 
*END

*D_NET *281 0.00292458
*CONN
*I *2495:D I *D sky130_fd_sc_hd__dfstp_1
*I *2344:X O *D sky130_fd_sc_hd__mux2_1
*CAP
1 *2495:D 0.000584933
2 *2344:X 0.000485095
3 *281:10 0.00107003
4 *2495:D *2495:CLK 0.000330716
5 *2495:D *2495:SET_B 2.52027e-05
6 *281:10 *2348:S 0.000163343
7 *281:10 *2495:CLK 0
8 *281:10 *285:10 7.03663e-05
9 *281:10 *703:31 0
10 *281:10 *748:18 5.93381e-05
11 *2344:A0 *281:10 0
12 *117:18 *281:10 0
13 *119:33 *281:10 7.44257e-05
14 *121:12 *281:10 6.11286e-05
*RES
1 *2344:X *281:10 48.1707 
2 *281:10 *2495:D 49.1443 
*END

*D_NET *282 0.00032643
*CONN
*I *2496:D I *D sky130_fd_sc_hd__dfstp_2
*I *2345:X O *D sky130_fd_sc_hd__mux2_1
*CAP
1 *2496:D 0
2 *2345:X 0.000160899
3 *282:10 0.000160899
4 *282:10 *2496:CLK 4.6318e-06
5 *150:42 *282:10 0
*RES
1 *2345:X *282:10 40.5271 
2 *282:10 *2496:D 38 
*END

*D_NET *283 0.000929912
*CONN
*I *2497:D I *D sky130_fd_sc_hd__dfstp_1
*I *2346:X O *D sky130_fd_sc_hd__mux2_1
*CAP
1 *2497:D 0.000253226
2 *2346:X 6.18252e-05
3 *283:8 0.000315051
4 *2497:D *2497:SET_B 3.76692e-06
5 *150:42 *283:8 7.03869e-05
6 *151:25 *2497:D 0.000155269
7 *151:25 *283:8 7.03869e-05
*RES
1 *2346:X *283:8 39.9057 
2 *283:8 *2497:D 43.3857 
*END

*D_NET *284 0.000677907
*CONN
*I *2498:D I *D sky130_fd_sc_hd__dfstp_1
*I *2347:X O *D sky130_fd_sc_hd__mux2_1
*CAP
1 *2498:D 3.80122e-05
2 *2347:X 0.000147035
3 *284:10 0.000185047
4 *2498:D *350:78 5.3304e-05
5 *284:10 *703:31 0.000161121
6 *284:10 *748:18 3.83778e-05
7 *149:27 *284:10 5.50106e-05
8 *152:42 *284:10 0
*RES
1 *2347:X *284:10 40.8793 
2 *284:10 *2498:D 38.6214 
*END

*D_NET *285 0.000382264
*CONN
*I *2499:D I *D sky130_fd_sc_hd__dfstp_1
*I *2348:X O *D sky130_fd_sc_hd__mux2_1
*CAP
1 *2499:D 0
2 *2348:X 0.000128443
3 *285:10 0.000128443
4 *285:10 *2495:CLK 0
5 *285:10 *703:31 0
6 *285:10 *748:18 5.50106e-05
7 *281:10 *285:10 7.03663e-05
*RES
1 *2348:X *285:10 40.5271 
2 *285:10 *2499:D 38 
*END

*D_NET *286 0.00173548
*CONN
*I *2500:D I *D sky130_fd_sc_hd__dfstp_2
*I *2349:X O *D sky130_fd_sc_hd__mux2_1
*CAP
1 *2500:D 0.000505991
2 *2349:X 0.000226077
3 *286:8 0.000732068
4 *286:8 *2341:S 6.03737e-05
5 *122:10 *2500:D 7.44257e-05
6 *122:10 *286:8 0
7 *152:18 *286:8 0
8 *154:14 *286:8 0.000131169
9 *170:16 *2500:D 5.37348e-06
*RES
1 *2349:X *286:8 42.7229 
2 *286:8 *2500:D 46.7207 
*END

*D_NET *287 0.000756434
*CONN
*I *2501:D I *D sky130_fd_sc_hd__dfstp_2
*I *2350:X O *D sky130_fd_sc_hd__mux2_1
*CAP
1 *2501:D 0
2 *2350:X 0.000195488
3 *287:10 0.000195488
4 *287:10 *2501:CLK 4.07627e-05
5 *287:10 *2552:SET_B 0.000182826
6 *2448:A0 *287:10 0.000141869
*RES
1 *2350:X *287:10 41.9564 
2 *287:10 *2501:D 38 
*END

*D_NET *288 0.000437672
*CONN
*I *2502:D I *D sky130_fd_sc_hd__dfstp_1
*I *2351:X O *D sky130_fd_sc_hd__mux2_1
*CAP
1 *2502:D 5.24289e-05
2 *2351:X 7.3915e-05
3 *288:8 0.000126344
4 *288:8 *2351:S 6.68793e-05
5 *122:20 *2502:D 5.12254e-05
6 *153:31 *288:8 6.68793e-05
*RES
1 *2351:X *288:8 39.9057 
2 *288:8 *2502:D 39.0979 
*END

*D_NET *289 0.000877666
*CONN
*I *2503:D I *D sky130_fd_sc_hd__dfrtp_4
*I *2368:Y O *D sky130_fd_sc_hd__xnor2_1
*CAP
1 *2503:D 0.000109259
2 *2368:Y 8.7764e-05
3 *289:8 0.000197023
4 *2503:D *347:79 9.99684e-05
5 *2503:D *359:79 0.000351519
6 *289:8 *642:8 0
7 *114:14 *289:8 3.21327e-05
*RES
1 *2368:Y *289:8 39.5536 
2 *289:8 *2503:D 41.9564 
*END

*D_NET *290 0.000600685
*CONN
*I *2504:D I *D sky130_fd_sc_hd__dfrtp_1
*I *2376:X O *D sky130_fd_sc_hd__mux2_1
*CAP
1 *2504:D 4.21575e-05
2 *2376:X 7.5386e-05
3 *290:8 0.000117544
4 *2504:D *2504:CLK 2.93747e-05
5 *2504:D *635:42 3.98818e-05
6 *290:8 *358:10 0.000110913
7 *290:8 *635:42 0
8 *113:12 *290:8 0
9 *113:19 *2504:D 0.000185428
*RES
1 *2376:X *290:8 39.5536 
2 *290:8 *2504:D 40.0507 
*END

*D_NET *291 0.00118754
*CONN
*I *2505:D I *D sky130_fd_sc_hd__dfrtp_1
*I *2379:X O *D sky130_fd_sc_hd__mux2_1
*CAP
1 *2505:D 0.000148254
2 *2379:X 0.000109431
3 *291:8 0.000257685
4 *2505:D *2505:CLK 0.000172924
5 *2505:D *752:37 0.000274255
6 *291:8 *705:27 0.000138718
7 *114:14 *291:8 8.62783e-05
*RES
1 *2379:X *291:8 39.9057 
2 *291:8 *2505:D 43.3857 
*END

*D_NET *292 0.00144467
*CONN
*I *2506:D I *D sky130_fd_sc_hd__dfrtp_1
*I *2380:X O *D sky130_fd_sc_hd__a221o_1
*CAP
1 *2506:D 0
2 *2380:X 0.00064901
3 *292:8 0.00064901
4 *292:8 *2380:A2 6.17437e-06
5 *292:8 *2380:B1 5.61255e-06
6 *292:8 *2506:RESET_B 4.70852e-05
7 *292:8 *347:89 2.42905e-05
8 *115:10 *292:8 6.34844e-05
*RES
1 *2380:X *292:8 31.7414 
2 *292:8 *2506:D 23 
*END

*D_NET *293 0.00111833
*CONN
*I *2507:D I *D sky130_fd_sc_hd__dfrtp_1
*I *2383:X O *D sky130_fd_sc_hd__a211o_1
*CAP
1 *2507:D 0
2 *2383:X 0.000380201
3 *293:10 0.000380201
4 *293:10 *699:10 0
5 *110:43 *293:10 0.00035793
*RES
1 *2383:X *293:10 45.25 
2 *293:10 *2507:D 38 
*END

*D_NET *294 0.00101621
*CONN
*I *2528:D I *D sky130_fd_sc_hd__dfrtp_1
*I *2384:X O *D sky130_fd_sc_hd__a2bb2o_1
*CAP
1 *2528:D 0
2 *2384:X 0.000298411
3 *294:10 0.000298411
4 *294:10 *505:16 0.00014196
5 *294:10 *749:35 0
6 *173:40 *294:10 2.11101e-05
7 *174:10 *294:10 0.000215465
8 *177:12 *294:10 4.08537e-05
*RES
1 *2384:X *294:10 43.3857 
2 *294:10 *2528:D 38 
*END

*D_NET *295 0.000369565
*CONN
*I *2532:D I *D sky130_fd_sc_hd__dfstp_1
*I *2386:X O *D sky130_fd_sc_hd__mux2_1
*CAP
1 *2532:D 1.39194e-05
2 *2386:X 9.31502e-05
3 *295:8 0.00010707
4 *2532:D *654:20 2.93747e-05
5 *2532:D *658:8 5.67058e-05
6 *295:8 *624:12 6.93449e-05
7 *295:8 *654:20 0
8 *295:8 *753:30 0
9 *295:8 *753:32 0
*RES
1 *2386:X *295:8 39.9057 
2 *295:8 *2532:D 38.6214 
*END

*D_NET *296 0.000744705
*CONN
*I *2533:D I *D sky130_fd_sc_hd__dfstp_1
*I *2391:X O *D sky130_fd_sc_hd__a21bo_1
*CAP
1 *2533:D 0
2 *2391:X 0.00020915
3 *296:10 0.00020915
4 *296:10 *2483:SET_B 0.000184527
5 *141:31 *296:10 0.000141879
*RES
1 *2391:X *296:10 41.9564 
2 *296:10 *2533:D 38 
*END

*D_NET *297 0.000415518
*CONN
*I *2534:D I *D sky130_fd_sc_hd__dfstp_1
*I *2400:Y O *D sky130_fd_sc_hd__o31ai_1
*CAP
1 *2534:D 0.000207759
2 *2400:Y 0.000207759
*RES
1 *2400:Y *2534:D 49.48 
*END

*D_NET *298 0.00046096
*CONN
*I *2535:D I *D sky130_fd_sc_hd__dfstp_1
*I *2413:X O *D sky130_fd_sc_hd__a22o_1
*CAP
1 *2535:D 0.000126086
2 *2413:X 0.000126086
3 *2535:D *2535:CLK 0.000187129
4 *2413:A1 *2535:D 2.16583e-05
*RES
1 *2413:X *2535:D 49.3764 
*END

*D_NET *299 0.000292149
*CONN
*I *2536:D I *D sky130_fd_sc_hd__dfstp_1
*I *2425:X O *D sky130_fd_sc_hd__mux2_1
*CAP
1 *2536:D 0
2 *2425:X 7.51353e-05
3 *299:8 7.51353e-05
4 *299:8 *689:10 0.000141879
5 *299:8 *706:29 0
*RES
1 *2425:X *299:8 39.9057 
2 *299:8 *2536:D 38 
*END

*D_NET *300 0.000977061
*CONN
*I *2537:D I *D sky130_fd_sc_hd__dfstp_1
*I *2432:X O *D sky130_fd_sc_hd__mux2_1
*CAP
1 *2537:D 8.30006e-05
2 *2432:X 0.000192315
3 *300:8 0.000275315
4 *2537:D *695:6 7.59964e-05
5 *300:8 *695:14 0.000350435
6 *145:16 *300:8 0
*RES
1 *2432:X *300:8 42.7229 
2 *300:8 *2537:D 40.0507 
*END

*D_NET *301 0.000337263
*CONN
*I *2538:D I *D sky130_fd_sc_hd__dfstp_1
*I *2436:X O *D sky130_fd_sc_hd__a32o_1
*CAP
1 *2538:D 0
2 *2436:X 0.000152487
3 *301:10 0.000152487
4 *301:10 *302:10 0
5 *301:10 *751:8 0
6 *301:10 *752:14 3.22879e-05
*RES
1 *2436:X *301:10 40.5271 
2 *301:10 *2538:D 38 
*END

*D_NET *302 0.00159112
*CONN
*I *2539:D I *D sky130_fd_sc_hd__dfstp_1
*I *2437:Y O *D sky130_fd_sc_hd__a22oi_1
*CAP
1 *2539:D 0
2 *2437:Y 0.000560128
3 *302:10 0.000560128
4 *302:10 *579:27 0
5 *302:10 *692:10 8.68248e-05
6 *302:10 *696:10 1.09548e-05
7 *302:10 *697:24 7.57281e-06
8 *302:10 *698:12 0
9 *302:10 *698:25 1.37246e-05
10 *302:10 *706:124 0
11 *302:10 *739:36 1.21972e-05
12 *302:10 *739:141 0.000132142
13 *302:10 *751:8 0
14 *302:10 *752:14 0.000207447
15 *2555:A *302:10 0
16 *301:10 *302:10 0
*RES
1 *2437:Y *302:10 48.3986 
2 *302:10 *2539:D 38 
*END

*D_NET *303 0.000706233
*CONN
*I *2540:D I *D sky130_fd_sc_hd__dfrtp_1
*I *2440:Y O *D sky130_fd_sc_hd__nor2_1
*CAP
1 *2540:D 0
2 *2440:Y 0.000237815
3 *303:10 0.000237815
4 *303:10 *2540:RESET_B 0
5 *303:10 *710:12 0.000230604
6 *1:11 *303:10 0
7 *173:16 *303:10 0
*RES
1 *2440:Y *303:10 42.0807 
2 *303:10 *2540:D 38 
*END

*D_NET *304 0.00214354
*CONN
*I *2541:D I *D sky130_fd_sc_hd__dfrtp_1
*I *2441:X O *D sky130_fd_sc_hd__a21o_1
*CAP
1 *2541:D 0.000589269
2 *2441:X 0.000349568
3 *304:10 0.000938838
4 *304:10 *699:14 0
5 *304:10 *718:6 9.84794e-05
6 *109:27 *304:10 0.000167387
7 *173:16 *304:10 0
*RES
1 *2441:X *304:10 44.3179 
2 *304:10 *2541:D 45.3587 
*END

*D_NET *305 0.000524719
*CONN
*I *2545:D I *D sky130_fd_sc_hd__dfstp_1
*I *2442:X O *D sky130_fd_sc_hd__mux2_1
*CAP
1 *2545:D 0.000135148
2 *2442:X 0.000135148
3 *2545:D *2545:CLK 0.000187129
4 *2442:A0 *2545:D 6.72929e-05
*RES
1 *2442:X *2545:D 49.5007 
*END

*D_NET *306 0.00087434
*CONN
*I *2546:D I *D sky130_fd_sc_hd__dfstp_1
*I *2443:X O *D sky130_fd_sc_hd__mux2_1
*CAP
1 *2546:D 0
2 *2443:X 0.000294141
3 *306:10 0.000294141
4 *152:18 *306:10 1.19796e-05
5 *166:27 *306:10 0.000274078
*RES
1 *2443:X *306:10 42.9093 
2 *306:10 *2546:D 38 
*END

*D_NET *307 0.000601116
*CONN
*I *2547:D I *D sky130_fd_sc_hd__dfstp_1
*I *2444:X O *D sky130_fd_sc_hd__mux2_1
*CAP
1 *2547:D 0
2 *2444:X 0.000189667
3 *307:10 0.000189667
4 *307:10 *2471:SET_B 0
5 *307:10 *2547:SET_B 8.62876e-05
6 *307:10 *702:92 3.70094e-05
7 *307:10 *741:56 0
8 *307:10 *741:58 0
9 *307:10 *744:28 9.84851e-05
10 *257:10 *307:10 0
*RES
1 *2444:X *307:10 41.3557 
2 *307:10 *2547:D 38 
*END

*D_NET *308 0.00122709
*CONN
*I *2548:D I *D sky130_fd_sc_hd__dfstp_1
*I *2445:X O *D sky130_fd_sc_hd__mux2_1
*CAP
1 *2548:D 0
2 *2445:X 0.000405944
3 *308:14 0.000405944
4 *308:14 *2546:CLK 0.000242564
5 *308:14 *702:46 0.000108672
6 *308:14 *744:82 0
7 *2445:A1 *308:14 3.53115e-05
8 *153:14 *308:14 2.8653e-05
*RES
1 *2445:X *308:14 46.8243 
2 *308:14 *2548:D 38 
*END

*D_NET *309 0.000632657
*CONN
*I *2549:D I *D sky130_fd_sc_hd__dfstp_1
*I *2446:X O *D sky130_fd_sc_hd__mux2_1
*CAP
1 *2549:D 0
2 *2446:X 0.000217908
3 *309:10 0.000217908
4 *309:10 *741:44 5.26101e-05
5 *2273:A0 *309:10 8.94487e-05
6 *2273:A1 *309:10 0
7 *2446:A1 *309:10 5.47808e-05
*RES
1 *2446:X *309:10 41.8321 
2 *309:10 *2549:D 38 
*END

*D_NET *310 0.000839474
*CONN
*I *2550:D I *D sky130_fd_sc_hd__dfstp_1
*I *2447:X O *D sky130_fd_sc_hd__mux2_1
*CAP
1 *2550:D 4.64411e-05
2 *2447:X 0.000254245
3 *310:10 0.000300686
4 *2550:D *2475:SET_B 5.01469e-05
5 *310:10 *699:35 2.60152e-05
6 *310:10 *702:42 0
7 *2447:A0 *310:10 1.56662e-06
8 *170:10 *2550:D 7.63261e-05
9 *170:10 *310:10 8.4047e-05
*RES
1 *2447:X *310:10 41.9564 
2 *310:10 *2550:D 39.5743 
*END

*D_NET *311 0.00082269
*CONN
*I *2551:D I *D sky130_fd_sc_hd__dfstp_1
*I *2448:X O *D sky130_fd_sc_hd__mux2_1
*CAP
1 *2551:D 0
2 *2448:X 0.000270322
3 *311:16 0.000270322
4 *311:16 *702:38 0.000114656
5 *311:16 *702:40 0.000135186
6 *2448:A1 *311:16 3.22051e-05
*RES
1 *2448:X *311:16 44.7321 
2 *311:16 *2551:D 38 
*END

*D_NET *312 0.000943445
*CONN
*I *2552:D I *D sky130_fd_sc_hd__dfstp_1
*I *2449:X O *D sky130_fd_sc_hd__mux2_1
*CAP
1 *2552:D 0
2 *2449:X 0.000260481
3 *312:10 0.000260481
4 *312:10 *702:38 0
5 *312:10 *702:40 0
6 *312:10 *741:40 8.85189e-05
7 *312:10 *741:42 0.00030458
8 *2449:A1 *312:10 2.93845e-05
*RES
1 *2449:X *312:10 43.6964 
2 *312:10 *2552:D 38 
*END

*D_NET *313 0.00414168
*CONN
*I *2119:C1 I *D sky130_fd_sc_hd__o211a_1
*I *2008:B1 I *D sky130_fd_sc_hd__o21ai_1
*I *1992:C1 I *D sky130_fd_sc_hd__o211a_1
*I *1960:Y O *D sky130_fd_sc_hd__inv_2
*CAP
1 *2119:C1 0.000133718
2 *2008:B1 0.000265752
3 *1992:C1 0.000233667
4 *1960:Y 0
5 *313:12 0.000756601
6 *313:4 0.0003909
7 *1992:C1 *314:10 0.000213463
8 *1992:C1 *343:8 5.3304e-05
9 *2008:B1 *2008:A2 0.000100061
10 *2008:B1 *314:10 0.000334993
11 *2008:B1 *341:23 0.000201688
12 *313:12 *341:23 1.38076e-05
13 *313:12 *741:10 0.000100176
14 *313:12 *741:12 0.000104111
15 *313:12 *741:26 0.000139713
16 *1989:A *1992:C1 5.3304e-05
17 *1990:A *2008:B1 0.00021356
18 *1991:A1 *2008:B1 0
19 *1991:B1 *2008:B1 0.000100061
20 *161:36 *313:12 0.000220948
21 *161:43 *313:12 5.56279e-05
22 *161:57 *2119:C1 0.000404502
23 *161:57 *313:12 2.70917e-05
24 *177:37 *313:12 0
25 *180:21 *1992:C1 0
26 *181:10 *2008:B1 2.46345e-05
*RES
1 *1960:Y *313:4 23 
2 *313:4 *313:12 21.8461 
3 *313:12 *1992:C1 42.7332 
4 *313:12 *2008:B1 46.0268 
5 *313:4 *2119:C1 27.4329 
*END

*D_NET *314 0.00231719
*CONN
*I *1993:A1 I *D sky130_fd_sc_hd__o311a_1
*I *1961:Y O *D sky130_fd_sc_hd__inv_2
*CAP
1 *1993:A1 0.000180207
2 *1961:Y 0.000245136
3 *314:10 0.000425344
4 *1993:A1 *2007:B1 0.000113125
5 *1993:A1 *340:10 0.000140891
6 *1993:A1 *741:6 1.33962e-05
7 *1987:A *1993:A1 0.000317988
8 *1991:B1 *314:10 2.64616e-05
9 *1992:C1 *314:10 0.000213463
10 *1993:A2 *1993:A1 0.000272652
11 *1995:A2 *1993:A1 2.31591e-05
12 *2007:A1 *1993:A1 1.03729e-05
13 *2008:B1 *314:10 0.000334993
14 *180:21 *314:10 0
*RES
1 *1961:Y *314:10 43.3443 
2 *314:10 *1993:A1 44.8357 
*END

*D_NET *315 0.00412433
*CONN
*I *2357:A I *D sky130_fd_sc_hd__nor4_1
*I *2356:A I *D sky130_fd_sc_hd__nor2_1
*I *2367:A1 I *D sky130_fd_sc_hd__a2111oi_1
*I *2280:B I *D sky130_fd_sc_hd__and3b_1
*I *1962:Y O *D sky130_fd_sc_hd__inv_2
*CAP
1 *2357:A 0
2 *2356:A 0
3 *2367:A1 6.13947e-05
4 *2280:B 0
5 *1962:Y 0.000301211
6 *315:50 0.000321064
7 *315:29 0.000527444
8 *315:21 0.000406985
9 *315:12 0.000181914
10 *315:6 0.000745124
11 *2367:A1 *640:8 6.15728e-05
12 *2367:A1 *641:25 1.14452e-05
13 *2367:A1 *742:90 0.000140404
14 *315:6 *742:6 1.89178e-05
15 *315:12 *2280:C 0
16 *315:12 *2506:RESET_B 0.000110922
17 *315:12 *347:89 3.14377e-05
18 *315:12 *637:10 0.000110913
19 *315:21 *2357:D 0.000135037
20 *315:21 *632:10 2.64616e-05
21 *315:21 *714:10 0.000136743
22 *315:21 *742:6 0.000128979
23 *315:21 *742:12 2.93747e-05
24 *315:29 *742:12 7.06229e-05
25 *315:29 *742:22 5.12055e-06
26 *315:50 *347:16 6.07611e-06
27 *315:50 *347:18 3.87577e-05
28 *315:50 *351:55 0.000246107
29 *315:50 *359:64 3.49583e-05
30 *315:50 *639:12 4.06166e-05
31 *2576:A *315:6 0.000103647
32 *112:27 *315:6 1.54424e-05
33 *115:10 *315:12 7.56417e-05
*RES
1 *1962:Y *315:6 27.4329 
2 *315:6 *315:12 34.0186 
3 *315:12 *2280:B 23 
4 *315:6 *315:21 5.75857 
5 *315:21 *315:29 18.045 
6 *315:29 *2367:A1 39.9057 
7 *315:29 *315:50 32.8542 
8 *315:50 *2356:A 23 
9 *315:21 *2357:A 23 
*END

*D_NET *316 0.00347581
*CONN
*I *2438:A I *D sky130_fd_sc_hd__and3_4
*I *2193:A I *D sky130_fd_sc_hd__or2_1
*I *1963:Y O *D sky130_fd_sc_hd__inv_2
*CAP
1 *2438:A 0
2 *2193:A 0
3 *1963:Y 0.000254398
4 *316:31 0.000329565
5 *316:18 0.000505048
6 *316:6 0.00108901
7 *316:6 *447:10 5.3304e-05
8 *316:18 *504:14 1.00084e-05
9 *316:18 *504:28 9.94357e-05
10 *316:18 *704:112 0.000142634
11 *316:31 *741:26 0.00020824
12 *2189:D_N *316:18 0.000232401
13 *2530:D *316:18 2.50575e-05
14 *110:27 *316:31 2.3612e-05
15 *159:8 *316:18 3.76761e-05
16 *163:12 *316:6 5.70419e-05
17 *163:16 *316:6 3.4875e-05
18 *164:36 *316:6 4.08664e-05
19 *164:36 *316:18 0.000271906
20 *164:40 *316:31 6.07306e-05
*RES
1 *1963:Y *316:6 26.48 
2 *316:6 *316:18 39.0107 
3 *316:18 *2193:A 23 
4 *316:6 *316:31 37.105 
5 *316:31 *2438:A 23 
*END

*D_NET *317 0.0121707
*CONN
*I *2026:A1 I *D sky130_fd_sc_hd__o22a_1
*I *2076:A I *D sky130_fd_sc_hd__xnor2_1
*I *2179:A I *D sky130_fd_sc_hd__xnor2_1
*I *2107:A1 I *D sky130_fd_sc_hd__o2111a_1
*I *1964:Y O *D sky130_fd_sc_hd__inv_2
*CAP
1 *2026:A1 0
2 *2076:A 0.000481636
3 *2179:A 0.000182879
4 *2107:A1 0.000309617
5 *1964:Y 1.41727e-05
6 *317:44 0.00120514
7 *317:14 0.00165789
8 *317:10 0.00190308
9 *2076:A *2083:A1 0.000258644
10 *2076:A *320:85 6.92122e-05
11 *2076:A *325:10 3.7473e-07
12 *2076:A *737:18 0.000296529
13 *2076:A *761:36 2.93845e-05
14 *2107:A1 *2107:D1 1.21972e-05
15 *2107:A1 *2525:RESET_B 3.62714e-05
16 *2107:A1 *731:36 5.44764e-05
17 *2179:A *432:8 2.4754e-05
18 *2179:A *731:22 6.85472e-05
19 *2179:A *731:36 1.90943e-05
20 *2179:A *760:34 9.84851e-05
21 *317:10 *470:27 9.86551e-06
22 *317:10 *761:18 9.86551e-06
23 *317:14 *2525:RESET_B 0.000174783
24 *317:14 *319:40 0.000414179
25 *317:14 *322:16 0
26 *317:14 *481:35 0.000278273
27 *317:14 *731:36 2.38252e-05
28 *317:14 *759:115 0.000884605
29 *317:44 *2017:A2 1.34451e-05
30 *317:44 *319:40 0.000176515
31 *317:44 *389:10 8.96559e-05
32 *317:44 *389:22 0.000516281
33 *317:44 *737:18 4.83021e-05
34 *317:44 *756:58 0.000178178
35 *317:44 *759:115 0.00168043
36 *2110:B1 *2179:A 1.14452e-05
37 *2159:A *2107:A1 8.72173e-05
38 *187:53 *2107:A1 4.0771e-05
39 *190:10 *2107:A1 0.000336732
40 *190:40 *2107:A1 7.17297e-05
41 *190:40 *2179:A 0.000295039
42 *201:35 *2179:A 5.50106e-05
43 *216:64 *2076:A 0
44 *216:68 *2076:A 2.50707e-05
45 *216:87 *2076:A 1.83667e-05
46 *216:87 *317:44 8.68016e-06
*RES
1 *1964:Y *317:10 46.3211 
2 *317:10 *317:14 12.0917 
3 *317:14 *2107:A1 45.0739 
4 *317:14 *2179:A 43.2925 
5 *317:10 *317:44 12.9627 
6 *317:44 *2076:A 47.57 
7 *317:44 *2026:A1 38 
*END

*D_NET *318 0.000495334
*CONN
*I *2033:A1 I *D sky130_fd_sc_hd__o21ba_1
*I *1965:Y O *D sky130_fd_sc_hd__inv_2
*CAP
1 *2033:A1 0
2 *1965:Y 0.000146317
3 *318:10 0.000146317
4 *318:10 *2033:A2 7.22403e-05
5 *318:10 *2087:C 4.38068e-06
6 *318:10 *418:8 8.85189e-05
7 *1965:A *318:10 6.17437e-06
8 *240:8 *318:10 3.13866e-05
*RES
1 *1965:Y *318:10 40.8793 
2 *318:10 *2033:A1 38 
*END

*D_NET *319 0.0157318
*CONN
*I *2105:A1 I *D sky130_fd_sc_hd__o2111a_1
*I *2017:A2 I *D sky130_fd_sc_hd__o221a_1
*I *2078:A1 I *D sky130_fd_sc_hd__a221o_1
*I *2084:B2 I *D sky130_fd_sc_hd__o2bb2a_1
*I *2030:A2 I *D sky130_fd_sc_hd__a221oi_1
*I *2178:A I *D sky130_fd_sc_hd__nor2_1
*I *2170:A1 I *D sky130_fd_sc_hd__a221o_1
*I *1966:Y O *D sky130_fd_sc_hd__inv_2
*CAP
1 *2105:A1 0
2 *2017:A2 0.000210569
3 *2078:A1 0
4 *2084:B2 0
5 *2030:A2 0.00023608
6 *2178:A 0
7 *2170:A1 0.000334547
8 *1966:Y 0
9 *319:77 0.000119938
10 *319:69 0.000750064
11 *319:44 0.00133397
12 *319:40 0.0020959
13 *319:34 0.00217366
14 *319:23 7.61202e-05
15 *319:6 0.000480743
16 *319:4 0.000826169
17 *2017:A2 *2018:A2 7.57281e-06
18 *2017:A2 *330:61 2.76611e-06
19 *2017:A2 *756:58 8.69997e-05
20 *2017:A2 *756:196 0
21 *2030:A2 *2028:B2 1.12487e-05
22 *2030:A2 *2030:B2 7.56417e-05
23 *2030:A2 *2030:C1 5.67058e-05
24 *2030:A2 *756:66 0.000190227
25 *2030:A2 *761:30 0.000224628
26 *2170:A1 *2170:B1 9.8971e-06
27 *2170:A1 *2170:C1 1.32939e-05
28 *2170:A1 *488:14 4.82843e-05
29 *2170:A1 *496:6 0.000139352
30 *2170:A1 *716:78 5.56539e-06
31 *319:6 *496:6 9.5877e-05
32 *319:23 *2108:A1 8.72173e-05
33 *319:23 *445:20 6.71386e-05
34 *319:23 *496:6 2.93747e-05
35 *319:34 *427:10 2.29192e-05
36 *319:34 *429:10 0
37 *319:34 *494:12 0
38 *319:34 *496:6 0.000694105
39 *319:34 *496:12 0
40 *319:34 *760:34 2.31116e-05
41 *319:40 *322:16 0
42 *319:40 *429:10 0
43 *319:40 *760:20 0.000787685
44 *319:40 *760:34 0.000353775
45 *319:40 *760:55 5.04641e-05
46 *319:44 *2018:A2 2.43935e-05
47 *319:44 *2028:B2 0.000107651
48 *319:44 *320:85 2.03256e-05
49 *319:44 *708:21 0
50 *319:44 *756:58 2.03909e-05
51 *319:44 *756:64 0.000100925
52 *319:44 *756:66 0.000459187
53 *319:44 *756:173 0.000197252
54 *319:69 *2078:B2 0.000208831
55 *319:69 *2083:B1 9.17228e-05
56 *319:69 *2086:A 2.93845e-05
57 *319:69 *2569:A 5.67058e-05
58 *319:69 *333:23 9.67842e-05
59 *319:69 *417:6 0.000236913
60 *319:69 *708:67 5.50106e-05
61 *319:69 *731:47 0.000271937
62 *319:77 *320:104 2.76611e-06
63 *319:77 *394:14 0.000161121
64 *319:77 *420:14 5.3304e-05
65 *319:77 *737:18 0
66 *2018:A1 *2017:A2 2.26049e-05
67 *2038:C *2030:A2 7.53384e-06
68 *2083:A2 *319:69 0.000180218
69 *2094:A_N *319:34 0.000100533
70 *2094:A_N *319:40 3.87577e-05
71 *197:12 *319:34 4.02843e-05
72 *220:31 *319:44 1.69668e-05
73 *221:59 *319:69 0.000145784
74 *224:10 *319:44 0.000205185
75 *235:28 *319:77 0.000217586
76 *237:38 *319:69 0.00023598
77 *317:14 *319:40 0.000414179
78 *317:44 *2017:A2 1.34451e-05
79 *317:44 *319:40 0.000176515
*RES
1 *1966:Y *319:4 23 
2 *319:4 *319:6 1.09786 
3 *319:6 *2170:A1 28.1579 
4 *319:6 *319:23 31.8229 
5 *319:23 *2178:A 23 
6 *319:4 *319:34 27.8429 
7 *319:34 *319:40 13.804 
8 *319:40 *319:44 18.5332 
9 *319:44 *2030:A2 44.1107 
10 *319:44 *319:69 31.5507 
11 *319:69 *319:77 33.2314 
12 *319:77 *2084:B2 23 
13 *319:69 *2078:A1 23 
14 *319:40 *2017:A2 47.5107 
15 *319:34 *2105:A1 38 
*END

*D_NET *320 0.0182026
*CONN
*I *2018:A2 I *D sky130_fd_sc_hd__o22a_1
*I *2084:A1_N I *D sky130_fd_sc_hd__o2bb2a_1
*I *2083:A1 I *D sky130_fd_sc_hd__o22a_1
*I *2029:A2 I *D sky130_fd_sc_hd__a22oi_1
*I *2168:B2 I *D sky130_fd_sc_hd__o22ai_1
*I *2169:A I *D sky130_fd_sc_hd__nand2_1
*I *1967:Y O *D sky130_fd_sc_hd__inv_2
*CAP
1 *2018:A2 0.000590516
2 *2084:A1_N 4.299e-06
3 *2083:A1 0.000164298
4 *2029:A2 0
5 *2168:B2 2.14194e-05
6 *2169:A 3.98183e-05
7 *1967:Y 4.80508e-05
8 *320:104 0.000513597
9 *320:85 0.00110358
10 *320:75 0.00102983
11 *320:66 0.00179045
12 *320:56 0.00201687
13 *320:46 0.00152024
14 *320:18 0.000340978
15 *320:8 0.00161228
16 *2018:A2 *330:61 2.93845e-05
17 *2018:A2 *708:21 1.11286e-05
18 *2018:A2 *756:58 9.53757e-05
19 *2083:A1 *2083:B1 5.3304e-05
20 *2083:A1 *325:10 9.82555e-05
21 *2083:A1 *731:36 1.69668e-05
22 *2083:A1 *731:47 5.50049e-05
23 *2084:A1_N *420:14 1.37702e-05
24 *2168:B2 *705:126 0
25 *2169:A *2168:A2 8.1796e-05
26 *320:18 *2168:A2 1.76557e-05
27 *320:18 *705:126 0
28 *320:18 *716:58 2.50227e-05
29 *320:46 *2094:B 1.27898e-05
30 *320:46 *2167:A 2.85715e-05
31 *320:46 *2182:B 0.000212162
32 *320:46 *322:30 0
33 *320:46 *425:10 0.000178671
34 *320:46 *438:24 0.000383051
35 *320:46 *451:27 0.000950642
36 *320:46 *488:14 0.000186788
37 *320:46 *705:102 5.33213e-05
38 *320:46 *705:115 0.000288294
39 *320:46 *716:58 0
40 *320:46 *716:78 0
41 *320:56 *429:10 6.17745e-05
42 *320:56 *438:16 0.000180212
43 *320:56 *494:12 1.69605e-05
44 *320:56 *500:8 3.56604e-05
45 *320:66 *2460:RESET_B 3.08152e-05
46 *320:66 *374:14 0
47 *320:66 *451:74 2.4754e-05
48 *320:66 *475:20 4.6318e-06
49 *320:66 *494:12 0.000127181
50 *320:66 *708:25 6.0514e-05
51 *320:66 *708:35 0.000107238
52 *320:66 *752:73 0
53 *320:75 *708:25 1.08052e-05
54 *320:85 *325:10 2.56147e-05
55 *320:85 *325:20 0.000513912
56 *320:85 *371:18 6.94148e-05
57 *320:85 *708:21 3.00219e-05
58 *320:85 *731:36 0.00066056
59 *320:85 *759:115 5.84835e-05
60 *320:104 *394:14 0
61 *2017:A2 *2018:A2 7.57281e-06
62 *2018:A1 *2018:A2 3.71369e-05
63 *2076:A *2083:A1 0.000258644
64 *2076:A *320:85 6.92122e-05
65 *2094:A_N *320:46 2.93747e-05
66 *2168:B1 *2169:A 5.67058e-05
67 *2169:B *2168:B2 0
68 *2169:B *320:18 0
69 *2170:A2 *320:46 2.19236e-05
70 *2460:D *320:66 0.000201109
71 *187:64 *320:66 0.000732369
72 *204:23 *320:66 0
73 *209:10 *320:8 7.39704e-05
74 *209:10 *320:46 0.000102696
75 *209:22 *2168:B2 5.90675e-06
76 *209:22 *320:18 5.70419e-05
77 *220:31 *320:104 0.000610665
78 *221:78 *2018:A2 2.1362e-05
79 *224:10 *2018:A2 4.64562e-05
80 *224:10 *320:66 4.96717e-05
81 *224:10 *320:85 1.83667e-05
82 *226:43 *2018:A2 1.09886e-05
83 *226:43 *320:85 4.89843e-05
84 *237:38 *2084:A1_N 8.34104e-06
85 *240:8 *320:104 7.98809e-05
86 *319:44 *2018:A2 2.43935e-05
87 *319:44 *320:85 2.03256e-05
88 *319:77 *320:104 2.76611e-06
*RES
1 *1967:Y *320:8 39.0254 
2 *320:8 *320:18 19.7954 
3 *320:18 *2169:A 24.5743 
4 *320:18 *2168:B2 23.4971 
5 *320:8 *320:46 46.9104 
6 *320:46 *320:56 48.9564 
7 *320:56 *320:66 41.157 
8 *320:66 *2029:A2 23 
9 *320:66 *320:75 15.2537 
10 *320:75 *320:85 19.9186 
11 *320:85 *2083:A1 42.2879 
12 *320:85 *320:104 38.0164 
13 *320:104 *2084:A1_N 38.1605 
14 *320:75 *2018:A2 46.6793 
*END

*D_NET *321 0.00195506
*CONN
*I *2028:A1 I *D sky130_fd_sc_hd__o221a_1
*I *1968:Y O *D sky130_fd_sc_hd__inv_2
*CAP
1 *2028:A1 2.77218e-05
2 *1968:Y 0.00048997
3 *321:10 0.000517692
4 *2028:A1 *2028:A2 5.3304e-05
5 *2028:A1 *701:72 2.64616e-05
6 *321:10 *729:43 0.000147636
7 *321:10 *756:64 9.28811e-05
8 *321:10 *756:66 0.000264976
9 *321:10 *756:173 0.000129796
10 *216:87 *321:10 0.000204618
*RES
1 *1968:Y *321:10 47.8393 
2 *321:10 *2028:A1 38.6214 
*END

*D_NET *322 0.0132701
*CONN
*I *2018:B2 I *D sky130_fd_sc_hd__o22a_1
*I *2110:A1 I *D sky130_fd_sc_hd__a221oi_1
*I *2167:A I *D sky130_fd_sc_hd__and2_1
*I *2108:B2 I *D sky130_fd_sc_hd__o221a_1
*I *1969:Y O *D sky130_fd_sc_hd__inv_2
*CAP
1 *2018:B2 0
2 *2110:A1 0
3 *2167:A 0.000579765
4 *2108:B2 0
5 *1969:Y 0
6 *322:71 0.000944354
7 *322:30 0.000894613
8 *322:18 0.000314848
9 *322:16 0.00209476
10 *322:4 0.00303912
11 *2167:A *2171:A 8.71791e-05
12 *2167:A *2171:D_N 0.000196467
13 *2167:A *445:20 0.00012323
14 *2167:A *488:14 0.000184282
15 *2167:A *716:78 0.000163343
16 *2167:A *738:57 0.000431513
17 *322:16 *324:20 0.00115174
18 *322:16 *332:12 5.00543e-05
19 *322:16 *729:35 6.38845e-05
20 *322:16 *729:43 0.000200963
21 *322:16 *730:45 0.000201409
22 *322:16 *731:20 0
23 *322:16 *731:22 0
24 *322:16 *738:133 1.53281e-05
25 *322:16 *760:14 1.4471e-05
26 *322:16 *760:20 0.000420656
27 *322:16 *760:34 0.000193173
28 *322:30 *2108:A1 5.67058e-05
29 *322:30 *2110:B2 9.72057e-06
30 *322:30 *335:22 6.47194e-05
31 *322:30 *425:10 2.11827e-05
32 *322:30 *440:10 9.84851e-05
33 *322:30 *442:10 9.16556e-05
34 *322:30 *445:20 8.94487e-05
35 *322:71 *323:29 1.52259e-05
36 *322:71 *329:8 0.000353214
37 *322:71 *331:27 0.000349813
38 *322:71 *332:46 2.25927e-05
39 *322:71 *365:14 0.000205089
40 *322:71 *365:24 0
41 *322:71 *708:137 0.000310212
42 *322:71 *747:16 9.03784e-05
43 *322:71 *747:18 1.40958e-05
44 *2018:B1 *322:71 1.14452e-05
45 *2108:B1 *322:30 2.32683e-05
46 *2110:A2 *322:30 1.14154e-05
47 *2110:B1 *322:30 1.14154e-05
48 *2178:B *2167:A 8.63491e-06
49 *195:18 *322:30 1.76557e-05
50 *317:14 *322:16 0
51 *319:40 *322:16 0
52 *320:46 *2167:A 2.85715e-05
53 *320:46 *322:30 0
*RES
1 *1969:Y *322:4 23 
2 *322:4 *322:16 40.5433 
3 *322:16 *322:18 15 
4 *322:18 *322:30 21.7736 
5 *322:30 *2108:B2 38 
6 *322:30 *2167:A 49.7243 
7 *322:18 *2110:A1 23 
8 *322:4 *322:71 46.4471 
9 *322:71 *2018:B2 23 
*END

*D_NET *323 0.00200508
*CONN
*I *2047:A I *D sky130_fd_sc_hd__nor2_1
*I *2048:A I *D sky130_fd_sc_hd__nand2_1
*I *2019:A1 I *D sky130_fd_sc_hd__o22a_1
*I *1970:Y O *D sky130_fd_sc_hd__inv_2
*CAP
1 *2047:A 0
2 *2048:A 0
3 *2019:A1 7.12263e-05
4 *1970:Y 0
5 *323:40 9.36219e-05
6 *323:29 0.000223266
7 *323:6 0.000461807
8 *323:4 0.000260937
9 *2019:A1 *331:40 9.58714e-05
10 *323:6 *331:40 4.08664e-05
11 *323:29 *2047:B 6.4704e-05
12 *323:29 *2048:B 3.88975e-05
13 *323:29 *331:40 3.33082e-05
14 *323:29 *365:14 0.000107212
15 *323:29 *366:12 7.51637e-05
16 *323:29 *391:18 1.1019e-05
17 *323:40 *2571:A 4.7345e-05
18 *2018:B1 *323:29 6.07611e-06
19 *2019:B1 *2019:A1 0
20 *2024:A1_N *2019:A1 4.9662e-05
21 *2024:A1_N *323:6 4.96717e-05
22 *2050:B *323:29 0
23 *2050:B *323:40 6.16439e-05
24 *217:63 *323:6 8.71791e-05
25 *225:39 *323:40 0.000110373
26 *322:71 *323:29 1.52259e-05
*RES
1 *1970:Y *323:4 23 
2 *323:4 *323:6 3.00357 
3 *323:6 *2019:A1 24.595 
4 *323:6 *323:29 34.9248 
5 *323:29 *2048:A 23 
6 *323:4 *323:40 32.2579 
7 *323:40 *2047:A 23 
*END

*D_NET *324 0.00616934
*CONN
*I *2024:B2 I *D sky130_fd_sc_hd__o2bb2a_1
*I *2104:A1 I *D sky130_fd_sc_hd__o221a_1
*I *2180:A I *D sky130_fd_sc_hd__xnor2_1
*I *1971:Y O *D sky130_fd_sc_hd__inv_2
*CAP
1 *2024:B2 0.000328068
2 *2104:A1 0
3 *2180:A 0
4 *1971:Y 0
5 *324:20 0.000779829
6 *324:8 0.000997321
7 *324:4 0.00054556
8 *2024:B2 *331:27 8.81445e-06
9 *2024:B2 *332:16 0.000184527
10 *2024:B2 *441:16 0.000111544
11 *2024:B2 *730:33 0.000642607
12 *324:8 *330:8 0.000257059
13 *324:8 *330:61 4.95081e-05
14 *324:8 *332:16 0.000601945
15 *324:8 *730:33 5.50106e-05
16 *324:20 *492:16 0
17 *324:20 *496:12 9.70232e-05
18 *324:20 *730:45 3.9353e-05
19 *324:20 *763:20 3.70432e-05
20 *2024:A1_N *2024:B2 0.000186846
21 *2098:B *324:20 3.55303e-05
22 *196:25 *324:20 2.07642e-05
23 *210:23 *324:20 3.92407e-05
24 *322:16 *324:20 0.00115174
*RES
1 *1971:Y *324:4 23 
2 *324:4 *324:8 7.31214 
3 *324:8 *324:20 36.662 
4 *324:20 *2180:A 38 
5 *324:8 *2104:A1 23 
6 *324:4 *2024:B2 32.8393 
*END

*D_NET *325 0.00311979
*CONN
*I *2026:B2 I *D sky130_fd_sc_hd__o22a_1
*I *2029:B2 I *D sky130_fd_sc_hd__a22oi_1
*I *1972:Y O *D sky130_fd_sc_hd__inv_2
*CAP
1 *2026:B2 2.1288e-05
2 *2029:B2 0
3 *1972:Y 0.000388696
4 *325:20 0.00025704
5 *325:10 0.000667024
6 *325:10 *2045:B 8.22421e-06
7 *325:10 *2083:B1 0.000223692
8 *325:10 *731:36 0.000224308
9 *325:20 *708:21 4.84419e-05
10 *325:20 *759:115 2.24814e-05
11 *2076:A *325:10 3.7473e-07
12 *2083:A1 *325:10 9.82555e-05
13 *216:68 *2026:B2 2.26497e-05
14 *216:68 *325:10 4.36547e-05
15 *216:87 *2026:B2 2.71583e-05
16 *223:10 *325:20 4.51887e-05
17 *226:24 *2026:B2 1.05441e-05
18 *226:43 *325:20 0.000471237
19 *320:85 *325:10 2.56147e-05
20 *320:85 *325:20 0.000513912
*RES
1 *1972:Y *325:10 45.0739 
2 *325:10 *325:20 32.6737 
3 *325:20 *2029:B2 23 
4 *325:10 *2026:B2 38.6732 
*END

*D_NET *326 0.0026918
*CONN
*I *2027:A2 I *D sky130_fd_sc_hd__o221a_1
*I *2015:B I *D sky130_fd_sc_hd__nand2_1
*I *2181:A I *D sky130_fd_sc_hd__xnor2_1
*I *1973:Y O *D sky130_fd_sc_hd__inv_2
*CAP
1 *2027:A2 0
2 *2015:B 3.342e-05
3 *2181:A 0.000466103
4 *1973:Y 0
5 *326:38 0.000156885
6 *326:12 0.000776255
7 *326:4 0.000433618
8 *2015:B *328:12 5.19804e-05
9 *2181:A *1975:A 5.50106e-05
10 *2181:A *328:12 2.4754e-05
11 *2181:A *736:31 0.000146714
12 *326:12 *2075:A 0.000270682
13 *326:12 *708:137 0
14 *326:12 *736:10 3.5664e-05
15 *326:38 *2075:A 9.67842e-05
16 *326:38 *708:137 6.33511e-05
17 *326:38 *747:12 6.68587e-05
18 *2015:A *2015:B 1.37232e-05
*RES
1 *1973:Y *326:4 23 
2 *326:4 *326:12 34.5571 
3 *326:12 *2181:A 31.265 
4 *326:12 *2015:B 24.0668 
5 *326:4 *326:38 33.0036 
6 *326:38 *2027:A2 23 
*END

*D_NET *327 0.00126768
*CONN
*I *2058:A1 I *D sky130_fd_sc_hd__a21oi_1
*I *2021:B2 I *D sky130_fd_sc_hd__o2bb2a_1
*I *1974:Y O *D sky130_fd_sc_hd__inv_2
*CAP
1 *2058:A1 0
2 *2021:B2 0.000172826
3 *1974:Y 0
4 *327:19 0.000186225
5 *327:4 0.000359052
6 *2021:B2 *758:63 0.000223698
7 *327:19 *375:8 0
8 *327:19 *730:8 0.000163361
9 *327:19 *758:63 0.000130423
10 *242:8 *327:19 3.20914e-05
*RES
1 *1974:Y *327:4 23 
2 *327:4 *2021:B2 25.5271 
3 *327:4 *327:19 33.8321 
4 *327:19 *2058:A1 23 
*END

*D_NET *328 0.000729862
*CONN
*I *2027:B2 I *D sky130_fd_sc_hd__o221a_1
*I *1975:Y O *D sky130_fd_sc_hd__inv_2
*CAP
1 *2027:B2 0
2 *1975:Y 0.000168453
3 *328:12 0.000168453
4 *328:12 *363:10 8.47691e-05
5 *2015:A *328:12 0.000147694
6 *2015:B *328:12 5.19804e-05
7 *2027:A1 *328:12 1.37232e-05
8 *2027:B1 *328:12 7.00352e-05
9 *2181:A *328:12 2.4754e-05
*RES
1 *1975:Y *328:12 28.4479 
2 *328:12 *2027:B2 23 
*END

*D_NET *329 0.000799392
*CONN
*I *2025:A1 I *D sky130_fd_sc_hd__o221a_1
*I *1976:Y O *D sky130_fd_sc_hd__inv_2
*CAP
1 *2025:A1 0
2 *1976:Y 0.000115875
3 *329:8 0.000115875
4 *329:8 *2025:C1 5.50106e-05
5 *329:8 *332:46 9.45494e-05
6 *329:8 *747:18 5.25848e-05
7 *329:8 *747:26 1.22822e-05
8 *322:71 *329:8 0.000353214
*RES
1 *1976:Y *329:8 27.4536 
2 *329:8 *2025:A1 23 
*END

*D_NET *330 0.00718073
*CONN
*I *2017:B2 I *D sky130_fd_sc_hd__o221a_1
*I *2104:B2 I *D sky130_fd_sc_hd__o221a_1
*I *2177:A I *D sky130_fd_sc_hd__nor2_1
*I *2183:A1 I *D sky130_fd_sc_hd__a211o_1
*I *1977:Y O *D sky130_fd_sc_hd__inv_2
*CAP
1 *2017:B2 0
2 *2104:B2 0
3 *2177:A 0.000305379
4 *2183:A1 2.53365e-05
5 *1977:Y 0
6 *330:61 0.000430819
7 *330:20 0.00037033
8 *330:16 0.000867282
9 *330:8 0.00122497
10 *330:4 0.00082812
11 *2177:A *2183:B1 3.90329e-05
12 *2177:A *2185:A1 1.55131e-05
13 *2177:A *2185:B1 4.58904e-06
14 *2177:A *2185:C1 3.27338e-06
15 *2177:A *477:10 2.45549e-06
16 *2177:A *761:102 0
17 *2183:A1 *451:57 6.10781e-05
18 *2183:A1 *474:8 6.10781e-05
19 *330:8 *2104:C1 0
20 *330:8 *332:16 1.03955e-05
21 *330:8 *436:10 9.41704e-05
22 *330:16 *2153:B 7.96152e-06
23 *330:16 *2153:C 0.000163466
24 *330:16 *2155:B 5.3304e-05
25 *330:20 *451:57 7.6144e-05
26 *330:20 *474:8 8.4047e-05
27 *330:61 *331:27 3.70094e-05
28 *330:61 *730:33 0.000438462
29 *330:61 *756:196 6.28591e-05
30 *2017:A2 *330:61 2.76611e-06
31 *2017:B1 *330:61 8.43081e-05
32 *2018:A1 *330:61 0
33 *2018:A2 *330:61 2.93845e-05
34 *2098:B *330:8 5.12254e-05
35 *2098:B *330:16 0.000113423
36 *2104:B1 *330:16 0.000420003
37 *2151:B1 *330:16 5.50049e-05
38 *188:12 *330:16 0.000359086
39 *196:25 *330:16 1.14452e-05
40 *200:38 *330:16 6.16531e-05
41 *200:47 *330:16 0.000418787
42 *221:78 *330:61 0
43 *324:8 *330:8 0.000257059
44 *324:8 *330:61 4.95081e-05
*RES
1 *1977:Y *330:4 23 
2 *330:4 *330:8 7.31214 
3 *330:8 *330:16 47.0271 
4 *330:16 *330:20 16.2014 
5 *330:20 *2183:A1 38.8493 
6 *330:20 *2177:A 42.2879 
7 *330:8 *2104:B2 23 
8 *330:4 *330:61 39.57 
9 *330:61 *2017:B2 23 
*END

*D_NET *331 0.00553266
*CONN
*I *2019:B2 I *D sky130_fd_sc_hd__o22a_1
*I *2024:A2_N I *D sky130_fd_sc_hd__o2bb2a_1
*I *2173:B2 I *D sky130_fd_sc_hd__a221o_1
*I *1978:Y O *D sky130_fd_sc_hd__inv_2
*CAP
1 *2019:B2 0
2 *2024:A2_N 0
3 *2173:B2 0.000595711
4 *1978:Y 0
5 *331:40 0.000350321
6 *331:27 0.000977384
7 *331:4 0.00122277
8 *2173:B2 *2103:A2 6.85401e-05
9 *2173:B2 *2103:C1 5.50106e-05
10 *2173:B2 *336:21 5.3304e-05
11 *2173:B2 *435:10 1.05235e-05
12 *2173:B2 *747:26 3.7122e-06
13 *2173:B2 *758:33 0.000733289
14 *331:27 *1979:A 5.50049e-05
15 *331:27 *332:46 8.58741e-05
16 *331:27 *441:12 3.81451e-05
17 *331:27 *730:33 9.91798e-05
18 *331:27 *747:26 0.000168181
19 *331:27 *756:196 0
20 *331:40 *365:14 1.05984e-05
21 *331:40 *366:12 2.44117e-05
22 *1976:A *331:27 7.70737e-05
23 *2017:B1 *331:27 0.000218971
24 *2019:A1 *331:40 9.58714e-05
25 *2024:A1_N *331:27 5.94921e-06
26 *2024:A1_N *331:40 6.33627e-05
27 *2024:B1 *331:40 4.9662e-05
28 *2024:B2 *331:27 8.81445e-06
29 *219:39 *331:27 0
30 *322:71 *331:27 0.000349813
31 *323:6 *331:40 4.08664e-05
32 *323:29 *331:40 3.33082e-05
33 *330:61 *331:27 3.70094e-05
*RES
1 *1978:Y *331:4 23 
2 *331:4 *2173:B2 36.0759 
3 *331:4 *331:27 43.7129 
4 *331:27 *2024:A2_N 23 
5 *331:27 *331:40 35.2821 
6 *331:40 *2019:B2 23 
*END

*D_NET *332 0.00819993
*CONN
*I *2025:B2 I *D sky130_fd_sc_hd__o221a_1
*I *2021:A1_N I *D sky130_fd_sc_hd__o2bb2a_1
*I *2176:A1 I *D sky130_fd_sc_hd__a211o_1
*I *2110:B2 I *D sky130_fd_sc_hd__a221oi_1
*I *1979:Y O *D sky130_fd_sc_hd__inv_2
*CAP
1 *2025:B2 0
2 *2021:A1_N 0
3 *2176:A1 1.48355e-05
4 *2110:B2 0.000515566
5 *1979:Y 0
6 *332:54 0.000136413
7 *332:46 0.000423194
8 *332:16 0.00114749
9 *332:12 0.000733297
10 *332:4 0.000402985
11 *2110:B2 *427:10 0.000182826
12 *2110:B2 *441:16 0.000269915
13 *332:12 *747:26 5.3304e-05
14 *332:12 *760:20 0.000108681
15 *332:16 *441:16 0.00169149
16 *332:46 *2025:C1 5.50106e-05
17 *332:46 *441:12 2.96154e-05
18 *332:46 *747:26 0.00053003
19 *332:54 *2021:B1 2.71302e-05
20 *332:54 *441:12 0
21 *332:54 *708:137 0.000101657
22 *2024:B2 *332:16 0.000184527
23 *2095:B *2110:B2 2.74078e-05
24 *2098:B *332:16 0.000435849
25 *2110:B1 *2110:B2 1.83444e-05
26 *204:23 *2110:B2 5.86079e-05
27 *204:23 *2176:A1 1.14154e-05
28 *204:23 *332:16 1.61361e-05
29 *219:39 *332:54 0.000149057
30 *322:16 *332:12 5.00543e-05
31 *322:30 *2110:B2 9.72057e-06
32 *322:71 *332:46 2.25927e-05
33 *324:8 *332:16 0.000601945
34 *329:8 *332:46 9.45494e-05
35 *330:8 *332:16 1.03955e-05
36 *331:27 *332:46 8.58741e-05
*RES
1 *1979:Y *332:4 23 
2 *332:4 *332:12 32.175 
3 *332:12 *332:16 19.6993 
4 *332:16 *2110:B2 34.6414 
5 *332:16 *2176:A1 23.4971 
6 *332:4 *332:46 36.8564 
7 *332:46 *332:54 33.278 
8 *332:54 *2021:A1_N 23 
9 *332:46 *2025:B2 23 
*END

*D_NET *333 0.00536972
*CONN
*I *2028:B2 I *D sky130_fd_sc_hd__o221a_1
*I *2030:B2 I *D sky130_fd_sc_hd__a221oi_1
*I *2185:A1 I *D sky130_fd_sc_hd__a211o_1
*I *1980:Y O *D sky130_fd_sc_hd__inv_2
*CAP
1 *2028:B2 0.000104819
2 *2030:B2 0.000106248
3 *2185:A1 0.000958638
4 *1980:Y 0
5 *333:23 0.000575372
6 *333:4 0.00132294
7 *2030:B2 *416:10 8.62876e-05
8 *2030:B2 *756:66 7.76364e-06
9 *2185:A1 *1980:A 3.22879e-05
10 *2185:A1 *2156:D 0.000144739
11 *2185:A1 *2183:B1 0.000134019
12 *2185:A1 *2185:B1 1.4691e-05
13 *2185:A1 *2185:C1 2.48712e-05
14 *2185:A1 *470:35 1.22822e-05
15 *2185:A1 *470:39 0.000170394
16 *2185:A1 *472:10 9.5877e-05
17 *2185:A1 *477:10 0.000178517
18 *2185:A1 *761:102 1.55097e-05
19 *333:23 *1980:A 3.22879e-05
20 *333:23 *2086:A 5.78073e-05
21 *333:23 *701:64 0.000572395
22 *333:23 *761:60 5.50049e-05
23 *333:23 *761:69 4.19743e-05
24 *2030:A2 *2028:B2 1.12487e-05
25 *2030:A2 *2030:B2 7.56417e-05
26 *2030:B1 *2028:B2 0.00020704
27 *2030:B1 *2030:B2 4.85022e-05
28 *2177:A *2185:A1 1.55131e-05
29 *205:38 *2185:A1 6.26126e-05
30 *319:44 *2028:B2 0.000107651
31 *319:69 *333:23 9.67842e-05
*RES
1 *1980:Y *333:4 23 
2 *333:4 *2185:A1 37.9971 
3 *333:4 *333:23 24.6736 
4 *333:23 *2030:B2 40.61 
5 *333:23 *2028:B2 41.3143 
*END

*D_NET *334 0.000486909
*CONN
*I *2103:A2 I *D sky130_fd_sc_hd__o221a_1
*I *1981:Y O *D sky130_fd_sc_hd__inv_2
*CAP
1 *2103:A2 0.000178353
2 *1981:Y 0.000178353
3 *2103:A2 *2103:C1 3.22879e-05
4 *2103:A2 *336:21 2.93747e-05
5 *2173:B2 *2103:A2 6.85401e-05
*RES
1 *1981:Y *2103:A2 49.5007 
*END

*D_NET *335 0.00242261
*CONN
*I *2121:A I *D sky130_fd_sc_hd__nor2_1
*I *2108:A2 I *D sky130_fd_sc_hd__o221a_1
*I *1982:Y O *D sky130_fd_sc_hd__inv_2
*CAP
1 *2121:A 0.000200299
2 *2108:A2 0
3 *1982:Y 0
4 *335:22 0.000620594
5 *335:6 0.000820893
6 *2121:A *2123:A 5.87155e-05
7 *2121:A *2170:B1 5.50049e-05
8 *2121:A *448:16 2.98648e-05
9 *2121:A *452:27 6.17437e-06
10 *2121:A *453:12 1.38338e-05
11 *2121:A *705:115 0
12 *2121:A *738:23 2.64616e-05
13 *2121:A *738:42 2.53762e-05
14 *2121:A *751:96 1.05441e-05
15 *335:22 *2123:A 1.37246e-05
16 *335:22 *2123:C 4.51431e-05
17 *335:22 *453:12 0.000121324
18 *335:22 *705:115 4.36401e-06
19 *335:22 *751:96 0.000182183
20 *2108:B1 *335:22 3.75733e-05
21 *2110:A2 *335:22 0
22 *192:53 *335:22 1.05658e-05
23 *206:12 *335:22 1.05155e-05
24 *206:18 *2121:A 3.12499e-05
25 *206:25 *335:22 3.34862e-05
26 *322:30 *335:22 6.47194e-05
*RES
1 *1982:Y *335:6 38 
2 *335:6 *335:22 39.2769 
3 *335:22 *2108:A2 23 
4 *335:6 *2121:A 42.1843 
*END

*D_NET *336 0.00409423
*CONN
*I *2103:B1 I *D sky130_fd_sc_hd__o221a_1
*I *2136:A I *D sky130_fd_sc_hd__and2_1
*I *1983:Y O *D sky130_fd_sc_hd__inv_2
*CAP
1 *2103:B1 0
2 *2136:A 0.000298435
3 *1983:Y 0
4 *336:21 0.000306744
5 *336:4 0.000605178
6 *2136:A *2136:B 9.84851e-05
7 *2136:A *457:53 0.00026808
8 *2136:A *729:24 0.000978971
9 *336:21 *434:10 9.46211e-05
10 *336:21 *763:14 6.7177e-06
11 *2103:A2 *336:21 2.93747e-05
12 *2173:B2 *336:21 5.3304e-05
13 *196:25 *2136:A 5.50106e-05
14 *196:25 *336:21 0.00048
15 *196:36 *2136:A 0.000819312
*RES
1 *1983:Y *336:4 23 
2 *336:4 *2136:A 36.0086 
3 *336:4 *336:21 37.0636 
4 *336:21 *2103:B1 23 
*END

*D_NET *337 0.000964066
*CONN
*I *2106:A2 I *D sky130_fd_sc_hd__o2111a_1
*I *1984:Y O *D sky130_fd_sc_hd__inv_2
*CAP
1 *2106:A2 0
2 *1984:Y 0.000323983
3 *337:10 0.000323983
4 *337:10 *2016:A_N 1.40958e-05
5 *337:10 *499:22 0.000219422
6 *337:10 *761:18 8.25811e-05
*RES
1 *1984:Y *337:10 42.6814 
2 *337:10 *2106:A2 38 
*END

*D_NET *338 0.00133334
*CONN
*I *2437:A1 I *D sky130_fd_sc_hd__a22oi_1
*I *1985:Y O *D sky130_fd_sc_hd__inv_2
*CAP
1 *2437:A1 0.000154179
2 *1985:Y 0.000201922
3 *338:10 0.000356101
4 *2437:A1 *697:24 5.67058e-05
5 *2437:A1 *739:36 5.90686e-05
6 *2437:A1 *739:51 0.000137046
7 *338:10 *695:6 3.71369e-05
8 *338:10 *701:122 9.41704e-05
9 *338:10 *719:10 0.000237012
10 *338:10 *733:83 0
*RES
1 *1985:Y *338:10 42.4121 
2 *338:10 *2437:A1 41.0036 
*END

*D_NET *339 0.000750378
*CONN
*I *2334:A1_N I *D sky130_fd_sc_hd__a2bb2o_1
*I *1986:Y O *D sky130_fd_sc_hd__inv_2
*CAP
1 *2334:A1_N 4.22845e-05
2 *1986:Y 0.000101324
3 *339:10 0.000143608
4 *2334:A1_N *2334:A2_N 9.84794e-05
5 *2334:A1_N *2567:A 0.000182826
6 *2334:A1_N *695:6 4.79641e-05
7 *339:10 *2335:A2 2.24973e-05
8 *339:10 *2567:A 9.84851e-05
9 *339:10 *701:120 1.01436e-05
10 *339:10 *706:14 2.76611e-06
*RES
1 *1986:Y *339:10 39.9471 
2 *339:10 *2334:A1_N 40.0507 
*END

*D_NET *340 0.0014877
*CONN
*I *1991:A3 I *D sky130_fd_sc_hd__o31a_1
*I *1987:Y O *D sky130_fd_sc_hd__nand2_1
*CAP
1 *1991:A3 0
2 *1987:Y 0.000448547
3 *340:10 0.000448547
4 *340:10 *342:18 4.08209e-05
5 *1991:A1 *340:10 2.39061e-05
6 *1993:A1 *340:10 0.000140891
7 *1993:A2 *340:10 0.000139052
8 *1995:A2 *340:10 1.74874e-06
9 *179:14 *340:10 0
10 *180:21 *340:10 0.000244189
*RES
1 *1987:Y *340:10 46.2029 
2 *340:10 *1991:A3 38 
*END

*D_NET *341 0.00266375
*CONN
*I *2008:A2 I *D sky130_fd_sc_hd__o21ai_1
*I *1989:B I *D sky130_fd_sc_hd__and2_1
*I *2006:B I *D sky130_fd_sc_hd__nor2_1
*I *1988:X O *D sky130_fd_sc_hd__and3_1
*CAP
1 *2008:A2 0.000322844
2 *1989:B 0
3 *2006:B 3.93866e-05
4 *1988:X 2.93367e-05
5 *341:23 0.000797846
6 *341:6 0.000543725
7 *341:6 *1988:C 2.07484e-05
8 *341:23 *1988:C 5.86343e-05
9 *341:23 *741:10 0.000111852
10 *341:23 *741:12 9.03784e-05
11 *1990:A *2008:A2 0.000179702
12 *1990:A *341:23 3.70187e-05
13 *1991:B1 *2008:A2 8.19402e-05
14 *2008:B1 *2008:A2 0.000100061
15 *2008:B1 *341:23 0.000201688
16 *181:10 *2008:A2 3.47781e-05
17 *313:12 *341:23 1.38076e-05
*RES
1 *1988:X *341:6 23.6214 
2 *341:6 *2006:B 23.8493 
3 *341:6 *341:23 24.7771 
4 *341:23 *1989:B 38 
5 *341:23 *2008:A2 44.6079 
*END

*D_NET *342 0.00269679
*CONN
*I *1990:B I *D sky130_fd_sc_hd__nand2_1
*I *1992:A1 I *D sky130_fd_sc_hd__o211a_1
*I *2009:A I *D sky130_fd_sc_hd__nor2_1
*I *1989:X O *D sky130_fd_sc_hd__and2_1
*CAP
1 *1990:B 0.000134848
2 *1992:A1 1.68907e-05
3 *2009:A 0
4 *1989:X 0
5 *342:18 0.000291434
6 *342:8 0.000717213
7 *342:4 0.000543736
8 *1990:B *2127:A 0
9 *1990:B *343:8 8.6949e-05
10 *1992:A1 *1992:A2 5.79559e-05
11 *342:8 *1992:A2 0.000113792
12 *342:8 *343:8 0.000308708
13 *342:18 *357:8 0.000100061
14 *1989:A *1992:A1 8.76309e-05
15 *1989:A *342:8 1.10658e-05
16 *1989:A *342:18 1.24376e-05
17 *1990:A *1990:B 5.90675e-06
18 *1991:A1 *342:18 4.2812e-06
19 *1991:A2 *342:18 4.49877e-05
20 *179:6 *342:18 6.17437e-06
21 *179:14 *342:18 9.4798e-06
22 *180:6 *342:18 2.65702e-05
23 *185:6 *342:18 7.58527e-05
24 *340:10 *342:18 4.08209e-05
*RES
1 *1989:X *342:4 23 
2 *342:4 *342:8 6.235 
3 *342:8 *342:18 35.7586 
4 *342:18 *2009:A 23 
5 *342:8 *1992:A1 24.0979 
6 *342:4 *1990:B 25.4236 
*END

*D_NET *343 0.00093365
*CONN
*I *1992:B1 I *D sky130_fd_sc_hd__o211a_1
*I *1990:Y O *D sky130_fd_sc_hd__nand2_1
*CAP
1 *1992:B1 0
2 *1990:Y 0.000151772
3 *343:8 0.000151772
4 *343:8 *1992:A2 3.85196e-05
5 *1989:A *343:8 4.34464e-05
6 *1990:A *343:8 9.91798e-05
7 *1990:B *343:8 8.6949e-05
8 *1992:C1 *343:8 5.3304e-05
9 *342:8 *343:8 0.000308708
*RES
1 *1990:Y *343:8 27.93 
2 *343:8 *1992:B1 23 
*END

*D_NET *344 0.00126702
*CONN
*I *1992:A2 I *D sky130_fd_sc_hd__o211a_1
*I *1991:X O *D sky130_fd_sc_hd__o31a_1
*CAP
1 *1992:A2 2.88191e-05
2 *1991:X 0.000298205
3 *344:10 0.000327024
4 *344:10 *357:8 0.000267096
5 *1989:A *1992:A2 2.46906e-05
6 *1992:A1 *1992:A2 5.79559e-05
7 *180:21 *344:10 0.000110913
8 *342:8 *1992:A2 0.000113792
9 *343:8 *1992:A2 3.85196e-05
*RES
1 *1991:X *344:10 42.5571 
2 *344:10 *1992:A2 39.595 
*END

*D_NET *345 0.00221423
*CONN
*I *1994:B I *D sky130_fd_sc_hd__nor2_1
*I *2007:A2 I *D sky130_fd_sc_hd__o21a_1
*I *1993:X O *D sky130_fd_sc_hd__o311a_1
*CAP
1 *1994:B 0
2 *2007:A2 0
3 *1993:X 0.000190826
4 *345:25 0.000125751
5 *345:14 0.00023201
6 *345:6 0.000548587
7 *345:6 *2007:B1 0.000267167
8 *345:14 *2007:B1 0.00016723
9 *345:14 *346:10 0
10 *345:14 *750:67 0
11 *345:25 *2508:RESET_B 0
12 *345:25 *346:10 0.000300098
13 *345:25 *750:67 0.000382555
14 *2508:D *345:14 0
*RES
1 *1993:X *345:6 26.0036 
2 *345:6 *345:14 33.7286 
3 *345:14 *2007:A2 23 
4 *345:6 *345:25 35.075 
5 *345:25 *1994:B 23 
*END

*D_NET *346 0.000819592
*CONN
*I *1995:B1 I *D sky130_fd_sc_hd__o21a_1
*I *1994:Y O *D sky130_fd_sc_hd__nor2_1
*CAP
1 *1995:B1 0
2 *1994:Y 0.000238585
3 *346:10 0.000238585
4 *346:10 *2508:RESET_B 0
5 *346:10 *750:67 4.23235e-05
6 *345:14 *346:10 0
7 *345:25 *346:10 0.000300098
*RES
1 *1994:Y *346:10 43.3443 
2 *346:10 *1995:B1 38 
*END

*D_NET *347 0.00947342
*CONN
*I *2357:D I *D sky130_fd_sc_hd__nor4_1
*I *2366:A I *D sky130_fd_sc_hd__nor2_1
*I *2356:B I *D sky130_fd_sc_hd__nor2_1
*I *2358:A1 I *D sky130_fd_sc_hd__a31o_1
*I *2361:A I *D sky130_fd_sc_hd__or2_1
*I *2373:A3 I *D sky130_fd_sc_hd__o311a_1
*I *1999:A I *D sky130_fd_sc_hd__nor2_4
*I *1996:Y O *D sky130_fd_sc_hd__nand2b_2
*CAP
1 *2357:D 0.000103747
2 *2366:A 0
3 *2356:B 0
4 *2358:A1 0
5 *2361:A 0.000170046
6 *2373:A3 0
7 *1999:A 0.000114962
8 *1996:Y 0.00019247
9 *347:89 0.00063952
10 *347:79 0.00167576
11 *347:39 0.000895384
12 *347:20 0.000999373
13 *347:18 0.000279455
14 *347:16 0.000256509
15 *347:14 0.00126109
16 *1999:A *2363:B 2.68708e-05
17 *1999:A *348:21 6.33511e-05
18 *2361:A *2353:B1 1.79747e-05
19 *2361:A *2374:A1 0.000181589
20 *2361:A *2381:A2 9.5877e-05
21 *2361:A *348:40 1.14452e-05
22 *2361:A *352:14 1.05441e-05
23 *2361:A *645:12 7.52978e-05
24 *2361:A *647:10 4.49336e-05
25 *347:14 *2504:CLK 2.93747e-05
26 *347:14 *351:10 0
27 *347:14 *358:10 7.04535e-05
28 *347:14 *359:79 0
29 *347:16 *348:40 2.24973e-05
30 *347:16 *358:10 0
31 *347:16 *359:64 0
32 *347:16 *359:79 0
33 *347:18 *788:DIODE 0
34 *347:18 *2369:B 4.21594e-06
35 *347:18 *348:21 2.24973e-05
36 *347:18 *348:40 4.6318e-06
37 *347:18 *349:10 0.000124102
38 *347:20 *2363:B 2.89463e-05
39 *347:20 *2369:B 2.96909e-05
40 *347:20 *348:21 0.000114945
41 *347:20 *349:10 1.14452e-05
42 *347:20 *351:32 2.11066e-05
43 *347:20 *636:10 3.32212e-05
44 *347:39 *2352:A 0.000136687
45 *347:39 *2364:B1 0.000135037
46 *347:39 *351:32 2.93747e-05
47 *347:39 *352:14 5.79466e-05
48 *347:39 *353:12 7.44257e-05
49 *347:39 *627:6 5.61255e-06
50 *347:39 *638:14 8.43466e-05
51 *347:39 *644:10 8.08139e-06
52 *347:39 *743:45 6.01687e-05
53 *347:79 *2506:RESET_B 8.68903e-05
54 *347:79 *351:72 1.12695e-05
55 *347:79 *359:79 4.41589e-05
56 *347:79 *651:10 2.11887e-05
57 *347:89 *2280:C 8.94487e-05
58 *347:89 *2380:B1 0.000181125
59 *347:89 *2506:RESET_B 6.6869e-05
60 *347:89 *351:72 0.000162812
61 *347:89 *578:10 2.76611e-06
62 *2503:D *347:79 9.99684e-05
63 *112:27 *347:79 3.70522e-05
64 *112:49 *1999:A 5.50049e-05
65 *112:55 *2361:A 3.17881e-05
66 *112:113 *1999:A 3.47781e-05
67 *113:32 *347:14 6.44887e-05
68 *115:10 *347:89 2.32101e-05
69 *292:8 *347:89 2.42905e-05
70 *315:12 *347:89 3.14377e-05
71 *315:21 *2357:D 0.000135037
72 *315:50 *347:16 6.07611e-06
73 *315:50 *347:18 3.87577e-05
*RES
1 *1996:Y *347:14 42.7021 
2 *347:14 *347:16 2.25786 
3 *347:16 *347:18 2.61 
4 *347:18 *347:20 4.01857 
5 *347:20 *1999:A 40.5271 
6 *347:20 *347:39 40.0464 
7 *347:39 *2373:A3 38 
8 *347:39 *2361:A 42.4121 
9 *347:18 *2358:A1 38 
10 *347:16 *2356:B 38 
11 *347:14 *347:79 43.2364 
12 *347:79 *347:89 40.4814 
13 *347:89 *2366:A 38 
14 *347:79 *2357:D 39.5743 
*END

*D_NET *348 0.00482243
*CONN
*I *2381:A1 I *D sky130_fd_sc_hd__o22ai_1
*I *1998:A I *D sky130_fd_sc_hd__inv_2
*I *1999:B I *D sky130_fd_sc_hd__nor2_4
*I *1997:X O *D sky130_fd_sc_hd__or3_2
*CAP
1 *2381:A1 0
2 *1998:A 1.50079e-05
3 *1999:B 0.000179875
4 *1997:X 6.92158e-05
5 *348:40 0.000377547
6 *348:21 0.000809963
7 *348:8 0.0006665
8 *1998:A *631:6 5.50049e-05
9 *1998:A *742:22 5.50049e-05
10 *1999:B *350:10 5.50049e-05
11 *1999:B *359:16 1.24376e-05
12 *1999:B *638:10 1.73387e-05
13 *348:8 *350:10 3.39096e-05
14 *348:21 *349:10 0.000135547
15 *348:21 *350:10 4.24694e-06
16 *348:21 *351:32 2.33476e-05
17 *348:21 *358:10 6.07611e-06
18 *348:21 *358:18 7.8128e-05
19 *348:21 *359:16 0
20 *348:21 *644:10 0.000154391
21 *348:40 *2374:A1 6.07826e-05
22 *348:40 *2382:A1 0
23 *348:40 *2382:A2 2.4754e-05
24 *348:40 *2382:A3 5.50049e-05
25 *348:40 *2382:B1 7.88926e-05
26 *348:40 *358:10 2.3529e-05
27 *348:40 *631:6 0.000482844
28 *348:40 *631:19 0
29 *348:40 *635:10 1.01436e-05
30 *348:40 *647:10 2.50825e-05
31 *348:40 *648:10 5.50106e-05
32 *348:40 *652:10 0.000157378
33 *348:40 *653:10 0.000272377
34 *348:40 *741:26 0
35 *348:40 *743:85 0.000315852
36 *348:40 *743:92 8.43466e-05
37 *1999:A *348:21 6.33511e-05
38 *2361:A *348:40 1.14452e-05
39 *112:49 *1999:B 3.71251e-05
40 *112:49 *348:21 0.000104779
41 *112:113 *348:8 3.39096e-05
42 *112:113 *348:21 1.27035e-05
43 *347:16 *348:40 2.24973e-05
44 *347:18 *348:21 2.24973e-05
45 *347:18 *348:40 4.6318e-06
46 *347:20 *348:21 0.000114945
*RES
1 *1997:X *348:8 39.5536 
2 *348:8 *1999:B 41.3764 
3 *348:8 *348:21 8.94857 
4 *348:21 *1998:A 38.6214 
5 *348:21 *348:40 42.8843 
6 *348:40 *2381:A1 38 
*END

*D_NET *349 0.0015152
*CONN
*I *2367:D1 I *D sky130_fd_sc_hd__a2111oi_1
*I *2358:A2 I *D sky130_fd_sc_hd__a31o_1
*I *1998:Y O *D sky130_fd_sc_hd__inv_2
*CAP
1 *2367:D1 0.000237324
2 *2358:A2 0
3 *1998:Y 0.000131144
4 *349:12 0.000237324
5 *349:10 0.000131144
6 *2367:D1 *2381:A2 1.14154e-05
7 *2367:D1 *358:18 3.91386e-05
8 *2367:D1 *359:38 0.0002246
9 *2367:D1 *632:26 6.26138e-05
10 *2367:D1 *636:8 2.13733e-05
11 *2367:D1 *643:12 9.47227e-05
12 *349:10 *742:22 5.3304e-05
13 *2380:B2 *2367:D1 0
14 *347:18 *349:10 0.000124102
15 *347:20 *349:10 1.14452e-05
16 *348:21 *349:10 0.000135547
*RES
1 *1998:Y *349:10 40.5271 
2 *349:10 *349:12 15 
3 *349:12 *2358:A2 23 
4 *349:12 *2367:D1 28.4271 
*END

*D_NET *350 0.0147044
*CONN
*I *2004:A I *D sky130_fd_sc_hd__or2_1
*I *2351:S I *D sky130_fd_sc_hd__mux2_1
*I *2344:S I *D sky130_fd_sc_hd__mux2_1
*I *2348:S I *D sky130_fd_sc_hd__mux2_1
*I *2347:S I *D sky130_fd_sc_hd__mux2_1
*I *2346:S I *D sky130_fd_sc_hd__mux2_1
*I *2345:S I *D sky130_fd_sc_hd__mux2_1
*I *2349:S I *D sky130_fd_sc_hd__mux2_1
*I *2350:S I *D sky130_fd_sc_hd__mux2_1
*I *1999:Y O *D sky130_fd_sc_hd__nor2_4
*CAP
1 *2004:A 1.50079e-05
2 *2351:S 0.000364526
3 *2344:S 0.000314161
4 *2348:S 0.000229492
5 *2347:S 0
6 *2346:S 0
7 *2345:S 0.000407651
8 *2349:S 3.96153e-05
9 *2350:S 0.000146246
10 *1999:Y 0.000295799
11 *350:82 0.000267103
12 *350:80 0.000443115
13 *350:78 0.000731582
14 *350:69 0.000275714
15 *350:56 0.00124569
16 *350:37 0.00177027
17 *350:18 0.00129528
18 *350:10 0.000567226
19 *2004:A *354:103 5.50049e-05
20 *2345:S *703:31 0
21 *2345:S *746:39 0.000141879
22 *2345:S *746:51 0.000115289
23 *2348:S *748:18 0.000182826
24 *2349:S *744:10 2.18506e-05
25 *2350:S *2342:S 5.50106e-05
26 *2350:S *2552:SET_B 0.000397154
27 *350:10 *354:8 0.000101769
28 *350:10 *354:10 7.75329e-06
29 *350:10 *359:16 2.44117e-05
30 *350:10 *638:10 1.94693e-05
31 *350:18 *2493:SET_B 0.000113571
32 *350:18 *354:10 0.000181256
33 *350:37 *2493:SET_B 0.00021673
34 *350:37 *2552:SET_B 4.21281e-05
35 *350:37 *745:31 0
36 *350:37 *745:41 0.000303278
37 *350:37 *745:96 0.000188926
38 *350:37 *748:35 0
39 *350:37 *748:44 0
40 *350:56 *744:10 5.67058e-05
41 *350:56 *746:51 0.000142346
42 *350:78 *2498:CLK 0.000141052
43 *350:78 *748:18 0.000156984
44 *350:78 *748:24 0.000226306
45 *1999:B *350:10 5.50049e-05
46 *2341:A0 *350:37 0
47 *2342:A0 *2350:S 4.5051e-05
48 *2342:A0 *350:37 4.67488e-05
49 *2342:A1 *2350:S 0.000217652
50 *2351:A0 *2351:S 2.4754e-05
51 *2351:A1 *2351:S 0.000313255
52 *2487:D *350:56 0.00019975
53 *2498:D *350:78 5.3304e-05
54 *112:113 *350:10 0
55 *118:12 *2345:S 0.00010018
56 *118:23 *2348:S 9.62764e-05
57 *119:12 *2345:S 6.4393e-05
58 *119:12 *350:56 1.37349e-05
59 *119:33 *2344:S 1.76557e-05
60 *120:12 *350:78 4.67488e-05
61 *121:12 *2348:S 1.83667e-05
62 *122:10 *350:37 0
63 *122:20 *350:37 0
64 *123:14 *2350:S 5.50049e-05
65 *131:16 *350:37 2.8936e-05
66 *149:19 *350:78 7.9284e-05
67 *149:27 *2344:S 0.000393266
68 *150:29 *350:37 0.000121586
69 *150:42 *2345:S 0
70 *150:42 *350:56 0
71 *151:38 *350:56 0
72 *152:42 *2348:S 2.49733e-05
73 *152:42 *2351:S 0.000424869
74 *152:42 *350:80 0.000127272
75 *152:42 *350:82 6.16531e-05
76 *153:27 *2349:S 5.41288e-05
77 *153:27 *350:56 8.11977e-05
78 *153:31 *2348:S 6.08043e-05
79 *153:31 *2351:S 0
80 *153:31 *350:80 0
81 *153:31 *350:82 0
82 *154:27 *350:37 0
83 *156:29 *2004:A 5.50049e-05
84 *273:8 *350:56 8.62783e-05
85 *274:10 *350:37 0.000168754
86 *275:8 *350:37 0
87 *281:10 *2348:S 0.000163343
88 *288:8 *2351:S 6.68793e-05
89 *348:8 *350:10 3.39096e-05
90 *348:21 *350:10 4.24694e-06
*RES
1 *1999:Y *350:10 44.0486 
2 *350:10 *350:18 21.5457 
3 *350:18 *2350:S 29.0279 
4 *350:18 *350:37 48.4979 
5 *350:37 *2349:S 24.0979 
6 *350:37 *350:56 29.935 
7 *350:56 *2345:S 47.3421 
8 *350:56 *350:69 15 
9 *350:69 *2346:S 23 
10 *350:69 *350:78 22.2914 
11 *350:78 *350:80 1.90571 
12 *350:80 *350:82 0.849286 
13 *350:82 *2347:S 38 
14 *350:82 *2348:S 43.9864 
15 *350:80 *2344:S 43.2821 
16 *350:78 *2351:S 47.7357 
17 *350:10 *2004:A 38.6214 
*END

*D_NET *351 0.00878231
*CONN
*I *2380:A2 I *D sky130_fd_sc_hd__a221o_1
*I *2280:C I *D sky130_fd_sc_hd__and3b_1
*I *2365:A3 I *D sky130_fd_sc_hd__a31o_1
*I *2370:A2 I *D sky130_fd_sc_hd__a211o_1
*I *2352:C_N I *D sky130_fd_sc_hd__or3b_1
*I *2001:B I *D sky130_fd_sc_hd__nand2_1
*I *2000:Y O *D sky130_fd_sc_hd__nor2_1
*CAP
1 *2380:A2 4.99949e-05
2 *2280:C 0.000343451
3 *2365:A3 1.4805e-05
4 *2370:A2 2.10401e-05
5 *2352:C_N 0
6 *2001:B 3.69657e-05
7 *2000:Y 0.000594959
8 *351:72 0.00089126
9 *351:55 0.000702535
10 *351:32 0.000589284
11 *351:16 0.000681723
12 *351:14 0.000398464
13 *351:10 0.00103289
14 *2001:B *2364:B1 9.5877e-05
15 *2001:B *352:6 9.41704e-05
16 *2280:C *2378:A 1.02387e-05
17 *2280:C *578:10 0
18 *2280:C *641:6 9.84851e-05
19 *2280:C *641:43 3.47781e-05
20 *2280:C *743:129 0
21 *2365:A3 *742:90 2.33476e-05
22 *2370:A2 *636:35 5.50106e-05
23 *2380:A2 *2380:B1 3.66052e-05
24 *351:10 *2558:A 1.40958e-05
25 *351:10 *359:64 3.68907e-05
26 *351:10 *359:79 0.000122386
27 *351:10 *639:24 2.26497e-05
28 *351:10 *642:8 0.000222926
29 *351:10 *705:27 0
30 *351:14 *788:DIODE 7.74438e-05
31 *351:14 *2363:B 9.48381e-06
32 *351:14 *2369:A 2.46922e-05
33 *351:14 *359:40 1.6873e-05
34 *351:14 *359:64 5.3375e-05
35 *351:14 *579:12 9.19684e-06
36 *351:14 *632:26 5.79413e-06
37 *351:14 *636:10 6.7177e-06
38 *351:14 *639:24 0.000310097
39 *351:14 *742:90 0
40 *351:16 *788:DIODE 2.32004e-05
41 *351:16 *636:35 0.000140259
42 *351:16 *644:10 3.17634e-05
43 *351:32 *639:12 0.000506859
44 *351:32 *644:10 1.59094e-05
45 *351:32 *741:26 2.24608e-05
46 *2000:B *351:10 3.22879e-05
47 *2380:B2 *2380:A2 1.6318e-05
48 *1:15 *351:32 0.000263606
49 *112:27 *351:72 0.000121642
50 *112:35 *2280:C 0.000206867
51 *112:35 *351:72 5.24393e-05
52 *112:65 *351:32 2.05503e-05
53 *113:32 *351:10 0
54 *292:8 *2380:A2 6.17437e-06
55 *315:12 *2280:C 0
56 *315:50 *351:55 0.000246107
57 *347:14 *351:10 0
58 *347:20 *351:32 2.11066e-05
59 *347:39 *351:32 2.93747e-05
60 *347:79 *351:72 1.12695e-05
61 *347:89 *2280:C 8.94487e-05
62 *347:89 *351:72 0.000162812
63 *348:21 *351:32 2.33476e-05
*RES
1 *2000:Y *351:10 49.9832 
2 *351:10 *351:14 20.6032 
3 *351:14 *351:16 3.00357 
4 *351:16 *351:32 49.1228 
5 *351:32 *2001:B 24.0979 
6 *351:16 *2352:C_N 23 
7 *351:14 *2370:A2 23.6214 
8 *351:10 *351:55 8.48533 
9 *351:55 *2365:A3 46.3211 
10 *351:55 *351:72 11.3486 
11 *351:72 *2280:C 44.3593 
12 *351:72 *2380:A2 38.8596 
*END

*D_NET *352 0.00165444
*CONN
*I *2003:A I *D sky130_fd_sc_hd__nor2_4
*I *2373:B1 I *D sky130_fd_sc_hd__o311a_1
*I *2353:A3 I *D sky130_fd_sc_hd__o31a_1
*I *2001:Y O *D sky130_fd_sc_hd__nand2_1
*CAP
1 *2003:A 7.07793e-05
2 *2373:B1 0
3 *2353:A3 0
4 *2001:Y 0.000120803
5 *352:14 0.000102442
6 *352:8 0.000120353
7 *352:6 0.000209493
8 *2003:A *2364:A3 1.32314e-05
9 *2003:A *2364:B1 4.05745e-05
10 *2003:A *2373:C1 1.09903e-05
11 *2003:A *627:6 0.000125213
12 *2003:A *638:14 2.93845e-05
13 *352:6 *2364:A3 0.000287729
14 *352:6 *2364:B1 0.000105862
15 *352:8 *2373:C1 5.12055e-06
16 *352:14 *2353:B1 0.000186521
17 *352:14 *743:45 6.32792e-05
18 *2001:B *352:6 9.41704e-05
19 *2361:A *352:14 1.05441e-05
20 *347:39 *352:14 5.79466e-05
*RES
1 *2001:Y *352:6 26.48 
2 *352:6 *352:8 0.497143 
3 *352:8 *352:14 32.61 
4 *352:14 *2353:A3 23 
5 *352:8 *2373:B1 23 
6 *352:6 *2003:A 25.0714 
*END

*D_NET *353 0.0026387
*CONN
*I *2361:B I *D sky130_fd_sc_hd__or2_1
*I *2352:A I *D sky130_fd_sc_hd__or3b_1
*I *2003:B I *D sky130_fd_sc_hd__nor2_4
*I *2002:Y O *D sky130_fd_sc_hd__nand2b_1
*CAP
1 *2361:B 0.000195729
2 *2352:A 9.46086e-05
3 *2003:B 0
4 *2002:Y 0.000339877
5 *353:12 0.000148007
6 *353:8 0.000589004
7 *2352:A *627:6 9.76261e-05
8 *2361:B *2381:A2 5.50049e-05
9 *2361:B *631:19 1.01436e-05
10 *2361:B *645:12 5.50049e-05
11 *2361:B *742:40 7.02269e-05
12 *2361:B *743:59 0.000207845
13 *353:8 *2002:B 3.81391e-05
14 *353:8 *2353:B1 0
15 *353:8 *638:10 0.000107212
16 *353:8 *702:8 0
17 *353:8 *741:26 0
18 *353:8 *742:40 1.37271e-05
19 *353:8 *743:35 6.53787e-05
20 *353:8 *743:45 0
21 *353:8 *743:59 0.000233876
22 *353:12 *627:6 7.44257e-05
23 *112:55 *2352:A 3.17516e-05
24 *347:39 *2352:A 0.000136687
25 *347:39 *353:12 7.44257e-05
*RES
1 *2002:Y *353:8 45.54 
2 *353:8 *353:12 16.5743 
3 *353:12 *2003:B 23 
4 *353:12 *2352:A 26.0036 
5 *353:8 *2361:B 42.7021 
*END

*D_NET *354 0.0148393
*CONN
*I *2378:A I *D sky130_fd_sc_hd__or4b_1
*I *2343:S I *D sky130_fd_sc_hd__mux2_1
*I *2004:B I *D sky130_fd_sc_hd__or2_1
*I *2342:S I *D sky130_fd_sc_hd__mux2_1
*I *2338:S I *D sky130_fd_sc_hd__mux2_1
*I *2337:S I *D sky130_fd_sc_hd__mux2_1
*I *2340:S I *D sky130_fd_sc_hd__mux2_1
*I *2339:S I *D sky130_fd_sc_hd__mux2_1
*I *2336:S I *D sky130_fd_sc_hd__mux2_1
*I *2341:S I *D sky130_fd_sc_hd__mux2_1
*I *2003:Y O *D sky130_fd_sc_hd__nor2_4
*CAP
1 *2378:A 0.000435631
2 *2343:S 0.000174606
3 *2004:B 0
4 *2342:S 1.08631e-05
5 *2338:S 0.000476521
6 *2337:S 0
7 *2340:S 0.000232251
8 *2339:S 0
9 *2336:S 0.000216546
10 *2341:S 0.000179877
11 *2003:Y 0.000294007
12 *354:112 0.00115107
13 *354:103 0.000650486
14 *354:60 0.000335686
15 *354:45 0.00120123
16 *354:33 0.000956591
17 *354:16 0.000405067
18 *354:14 0.00106805
19 *354:10 0.000752295
20 *354:8 0.000703415
21 *2336:S *2490:SET_B 3.3123e-05
22 *2336:S *703:63 0.000141052
23 *2336:S *746:51 0.000124862
24 *2336:S *746:58 6.33511e-05
25 *2338:S *2492:SET_B 1.40958e-05
26 *2338:S *703:176 0.000137651
27 *2338:S *745:31 8.10857e-05
28 *2342:S *2552:SET_B 5.67058e-05
29 *2343:S *680:8 5.50106e-05
30 *2343:S *681:8 0
31 *2343:S *701:144 0
32 *2378:A *1997:B 0
33 *2378:A *641:43 7.7086e-05
34 *2378:A *701:144 0
35 *2378:A *739:14 0
36 *2378:A *743:129 2.05503e-05
37 *354:8 *359:16 0.000290464
38 *354:8 *742:57 0.000418268
39 *354:8 *743:59 0
40 *354:10 *2493:SET_B 6.7177e-06
41 *354:10 *742:57 3.70094e-05
42 *354:14 *2493:SET_B 0
43 *354:14 *703:170 1.02387e-05
44 *354:14 *745:96 0
45 *354:45 *2490:CLK 5.74886e-05
46 *354:45 *2490:SET_B 6.42902e-05
47 *354:45 *2491:SET_B 2.94414e-05
48 *2004:A *354:103 5.50049e-05
49 *2280:C *2378:A 1.02387e-05
50 *2336:A0 *2336:S 0.000138727
51 *2337:A0 *354:45 2.61078e-05
52 *2338:A0 *2338:S 5.70419e-05
53 *2339:A0 *354:60 5.3304e-05
54 *2340:A0 *2340:S 0.00010018
55 *2341:A0 *2341:S 0.000164375
56 *2341:A0 *354:16 0.000169683
57 *2350:S *2342:S 5.50106e-05
58 *2434:A *2378:A 0
59 *2448:A0 *354:14 0
60 *2490:D *354:45 0.000265098
61 *112:35 *2378:A 0.000212087
62 *122:10 *2341:S 0.000139647
63 *122:10 *354:33 6.17437e-06
64 *122:20 *2336:S 7.44257e-05
65 *123:14 *354:14 0
66 *125:19 *2336:S 0.000290884
67 *125:19 *354:45 0.000139647
68 *127:34 *2343:S 5.67058e-05
69 *130:29 *354:14 0.000335229
70 *130:29 *354:16 0.000102638
71 *132:58 *2343:S 0
72 *150:29 *354:45 0.000182826
73 *152:29 *354:60 1.21972e-05
74 *152:42 *2340:S 0.000112697
75 *152:42 *354:60 1.40958e-05
76 *154:10 *354:14 0
77 *154:10 *354:16 0
78 *154:14 *354:16 0
79 *156:29 *2343:S 6.28591e-05
80 *156:29 *354:103 4.79641e-05
81 *156:29 *354:112 0.000512465
82 *274:10 *354:45 9.5877e-05
83 *277:10 *2340:S 3.22879e-05
84 *279:10 *354:10 0
85 *286:8 *2341:S 6.03737e-05
86 *350:10 *354:8 0.000101769
87 *350:10 *354:10 7.75329e-06
88 *350:18 *354:10 0.000181256
*RES
1 *2003:Y *354:8 46.2443 
2 *354:8 *354:10 6.48357 
3 *354:10 *354:14 8.51357 
4 *354:14 *354:16 3.66643 
5 *354:16 *2341:S 42.8057 
6 *354:16 *354:33 16.0979 
7 *354:33 *354:45 30.1007 
8 *354:45 *2336:S 45.3536 
9 *354:45 *354:60 16.5743 
10 *354:60 *2339:S 23 
11 *354:60 *2340:S 28.3857 
12 *354:33 *2337:S 23 
13 *354:14 *2338:S 46.265 
14 *354:10 *2342:S 38.6214 
15 *354:8 *354:103 17.1957 
16 *354:103 *2004:B 23 
17 *354:103 *354:112 26.5793 
18 *354:112 *2343:S 41.9357 
19 *354:112 *2378:A 45.8921 
*END

*D_NET *355 0.00252763
*CONN
*I *2441:A2 I *D sky130_fd_sc_hd__a21o_1
*I *2372:A I *D sky130_fd_sc_hd__and3_1
*I *2005:Y O *D sky130_fd_sc_hd__inv_2
*CAP
1 *2441:A2 0.00038055
2 *2372:A 4.10759e-05
3 *2005:Y 0.000234394
4 *355:10 0.00065602
5 *2372:A *2355:C_N 5.47983e-06
6 *2372:A *629:25 5.61507e-05
7 *2441:A2 *2360:C1 5.56356e-05
8 *2441:A2 *634:10 0.000159984
9 *2441:A2 *646:12 0
10 *2441:A2 *762:54 6.35321e-05
11 *355:10 *2359:B 4.94667e-05
12 *355:10 *634:10 0.000476506
13 *2005:A *355:10 5.73288e-05
14 *110:43 *2441:A2 2.51702e-05
15 *110:55 *2372:A 6.42943e-05
16 *110:55 *355:10 0.000189157
17 *112:90 *2441:A2 1.28818e-05
18 *112:90 *355:10 0
*RES
1 *2005:Y *355:10 45.0014 
2 *355:10 *2372:A 39.1186 
3 *355:10 *2441:A2 44.4629 
*END

*D_NET *356 0.00267342
*CONN
*I *2007:B1 I *D sky130_fd_sc_hd__o21a_1
*I *2006:Y O *D sky130_fd_sc_hd__nor2_1
*CAP
1 *2007:B1 0.000359726
2 *2006:Y 0.000231269
3 *356:10 0.000590995
4 *356:10 *1988:C 0.00017472
5 *1987:A *2007:B1 5.3304e-05
6 *1988:B *356:10 5.26733e-06
7 *1993:A1 *2007:B1 0.000113125
8 *1995:A2 *2007:B1 8.39049e-06
9 *2007:A1 *2007:B1 0.000309586
10 *177:37 *356:10 0.000108681
11 *177:45 *2007:B1 0.000138607
12 *178:21 *356:10 0.000109343
13 *182:12 *2007:B1 3.60059e-05
14 *345:6 *2007:B1 0.000267167
15 *345:14 *2007:B1 0.00016723
*RES
1 *2006:Y *356:10 42.0807 
2 *356:10 *2007:B1 48.4814 
*END

*D_NET *357 0.00130127
*CONN
*I *2009:B I *D sky130_fd_sc_hd__nor2_1
*I *2008:Y O *D sky130_fd_sc_hd__o21ai_1
*CAP
1 *2009:B 0
2 *2008:Y 0.00029099
3 *357:8 0.00029099
4 *1991:A1 *357:8 5.79559e-05
5 *1991:A2 *357:8 9.78729e-06
6 *1991:B1 *357:8 0.000141393
7 *2008:A1 *357:8 5.79559e-05
8 *179:6 *357:8 2.94066e-05
9 *184:10 *357:8 5.56356e-05
10 *342:18 *357:8 0.000100061
11 *344:10 *357:8 0.000267096
*RES
1 *2008:Y *357:8 29.8357 
2 *357:8 *2009:B 23 
*END

*D_NET *358 0.00435455
*CONN
*I *2011:C I *D sky130_fd_sc_hd__or3_2
*I *2358:A3 I *D sky130_fd_sc_hd__a31o_1
*I *2381:A2 I *D sky130_fd_sc_hd__o22ai_1
*I *2010:Y O *D sky130_fd_sc_hd__nand2b_1
*CAP
1 *2011:C 0
2 *2358:A3 0
3 *2381:A2 0.00032998
4 *2010:Y 5.65883e-05
5 *358:18 0.00050804
6 *358:10 0.000831642
7 *358:8 0.00071017
8 *2381:A2 *2371:C1 2.81041e-05
9 *2381:A2 *632:26 0
10 *2381:A2 *633:8 0.000257141
11 *2381:A2 *633:22 4.28286e-05
12 *2381:A2 *636:8 0.000554292
13 *2381:A2 *645:12 0.000121807
14 *2381:A2 *652:10 7.53384e-06
15 *358:8 *2558:A 5.67058e-05
16 *358:10 *2376:S 0
17 *358:10 *635:42 0
18 *358:10 *722:8 0
19 *358:10 *743:85 0
20 *358:10 *752:37 3.24466e-05
21 *358:10 *752:47 0.000122397
22 *358:18 *2371:C1 5.50049e-05
23 *358:18 *359:10 2.29192e-05
24 *358:18 *359:16 1.19692e-05
25 *358:18 *359:38 9.67842e-05
26 *358:18 *645:12 0
27 *358:18 *742:32 0
28 *2000:B *358:10 0
29 *2361:A *2381:A2 9.5877e-05
30 *2361:B *2381:A2 5.50049e-05
31 *2367:D1 *2381:A2 1.14154e-05
32 *2367:D1 *358:18 3.91386e-05
33 *113:32 *358:10 0
34 *116:14 *358:8 9.8971e-06
35 *116:14 *358:10 7.76364e-06
36 *116:20 *358:10 0
37 *290:8 *358:10 0.000110913
38 *347:14 *358:10 7.04535e-05
39 *347:16 *358:10 0
40 *348:21 *358:10 6.07611e-06
41 *348:21 *358:18 7.8128e-05
42 *348:40 *358:10 2.3529e-05
*RES
1 *2010:Y *358:8 39.0979 
2 *358:8 *358:10 12.1179 
3 *358:10 *358:18 18.8529 
4 *358:18 *2381:A2 33.9786 
5 *358:18 *2358:A3 23 
6 *358:10 *2011:C 38 
*END

*D_NET *359 0.0197148
*CONN
*I *768:DIODE I *D sky130_fd_sc_hd__diode_2
*I *778:DIODE I *D sky130_fd_sc_hd__diode_2
*I *2262:A1 I *D sky130_fd_sc_hd__a21o_1
*I *2014:A_N I *D sky130_fd_sc_hd__and2b_1
*I *767:DIODE I *D sky130_fd_sc_hd__diode_2
*I *2369:A I *D sky130_fd_sc_hd__nand2_1
*I *788:DIODE I *D sky130_fd_sc_hd__diode_2
*I *2359:B I *D sky130_fd_sc_hd__nor2_1
*I *787:DIODE I *D sky130_fd_sc_hd__diode_2
*I *2011:X O *D sky130_fd_sc_hd__or3_2
*CAP
1 *768:DIODE 0
2 *778:DIODE 0
3 *2262:A1 0
4 *2014:A_N 0
5 *767:DIODE 0
6 *2369:A 3.94519e-05
7 *788:DIODE 0.000152117
8 *2359:B 0.000120613
9 *787:DIODE 0
10 *2011:X 0.000100683
11 *359:108 0.000196071
12 *359:100 0.000314127
13 *359:93 0.000233305
14 *359:89 0.00144831
15 *359:85 0.00265031
16 *359:79 0.00319347
17 *359:64 0.00199256
18 *359:40 0.000224916
19 *359:38 0.000519959
20 *359:16 0.00137251
21 *359:10 0.00172285
22 *788:DIODE *2369:B 8.62876e-05
23 *788:DIODE *636:10 0.000104515
24 *788:DIODE *636:35 5.50106e-05
25 *788:DIODE *644:10 9.58714e-05
26 *359:10 *742:32 7.76538e-05
27 *359:16 *628:10 9.64801e-06
28 *359:16 *638:10 4.96675e-06
29 *359:16 *644:10 0
30 *359:16 *742:32 2.76611e-06
31 *359:16 *742:57 8.06804e-06
32 *359:16 *743:35 8.52481e-05
33 *359:16 *743:37 0.000301719
34 *359:16 *743:45 5.67058e-05
35 *359:16 *743:59 0
36 *359:38 *2371:C1 7.13587e-05
37 *359:38 *636:8 2.81406e-06
38 *359:79 *2503:RESET_B 9.18694e-05
39 *359:85 *790:DIODE 2.64616e-05
40 *359:85 *2585:A 0.000143655
41 *359:85 *385:8 4.334e-05
42 *359:85 *733:83 7.63554e-05
43 *359:85 *756:77 6.25829e-05
44 *359:85 *756:83 0.000352547
45 *359:89 *509:10 1.32289e-05
46 *359:93 *2014:B 5.83407e-05
47 *359:93 *362:8 2.93747e-05
48 *359:100 *2014:B 0.000131595
49 *359:100 *573:14 0.000143655
50 *359:108 *2454:RESET_B 7.44354e-05
51 *359:108 *361:23 2.3529e-05
52 *1999:B *359:16 1.24376e-05
53 *2005:A *2359:B 0.000175791
54 *2039:A2 *359:85 0
55 *2269:A1 *359:100 0.000185428
56 *2367:D1 *359:38 0.0002246
57 *2503:D *359:79 0.000351519
58 *108:18 *2359:B 7.63261e-05
59 *112:10 *359:79 9.01041e-05
60 *112:49 *359:16 6.50143e-05
61 *146:29 *359:89 0.000230604
62 *236:10 *359:85 0.000443667
63 *250:8 *359:108 8.62876e-05
64 *255:10 *359:93 0.000271476
65 *255:10 *359:100 5.67058e-05
66 *315:50 *359:64 3.49583e-05
67 *347:14 *359:79 0
68 *347:16 *359:64 0
69 *347:16 *359:79 0
70 *347:18 *788:DIODE 0
71 *347:79 *359:79 4.41589e-05
72 *348:21 *359:16 0
73 *350:10 *359:16 2.44117e-05
74 *351:10 *359:64 3.68907e-05
75 *351:10 *359:79 0.000122386
76 *351:14 *788:DIODE 7.74438e-05
77 *351:14 *2369:A 2.46922e-05
78 *351:14 *359:40 1.6873e-05
79 *351:14 *359:64 5.3375e-05
80 *351:16 *788:DIODE 2.32004e-05
81 *354:8 *359:16 0.000290464
82 *355:10 *2359:B 4.94667e-05
83 *358:18 *359:10 2.29192e-05
84 *358:18 *359:16 1.19692e-05
85 *358:18 *359:38 9.67842e-05
*RES
1 *2011:X *359:10 39.8229 
2 *359:10 *359:16 33.6429 
3 *359:16 *787:DIODE 23 
4 *359:16 *2359:B 26.8736 
5 *359:10 *359:38 35.3857 
6 *359:38 *359:40 0.673214 
7 *359:40 *788:DIODE 41.8839 
8 *359:40 *2369:A 38.9425 
9 *359:38 *359:64 2.61 
10 *359:64 *767:DIODE 38 
11 *359:64 *359:79 42.0632 
12 *359:79 *359:85 42.2496 
13 *359:85 *359:89 33.2493 
14 *359:89 *359:93 3.97714 
15 *359:93 *2014:A_N 23 
16 *359:93 *359:100 4.43286 
17 *359:100 *359:108 33.48 
18 *359:108 *2262:A1 23 
19 *359:100 *778:DIODE 23 
20 *359:89 *768:DIODE 23 
*END

*D_NET *360 0.00141438
*CONN
*I *2261:C I *D sky130_fd_sc_hd__and4bb_1
*I *2013:B I *D sky130_fd_sc_hd__nor2_1
*I *2012:X O *D sky130_fd_sc_hd__or4_1
*CAP
1 *2261:C 0.000152753
2 *2013:B 0
3 *2012:X 0.000180604
4 *360:10 0.000333357
5 *2261:C *573:6 5.50106e-05
6 *2261:C *573:14 9.27917e-05
7 *2261:C *574:6 1.56665e-05
8 *2261:C *574:14 8.51329e-05
9 *2261:C *574:33 0.00010018
10 *2261:C *754:36 0.000185434
11 *360:10 *573:14 4.6318e-06
12 *360:10 *574:14 4.08641e-05
13 *247:40 *360:10 0.000110913
14 *250:23 *360:10 0
15 *252:10 *360:10 5.70419e-05
*RES
1 *2012:X *360:10 41.3557 
2 *360:10 *2013:B 38 
3 *360:10 *2261:C 43.0129 
*END

*D_NET *361 0.00204216
*CONN
*I *2262:A2 I *D sky130_fd_sc_hd__a21o_1
*I *2014:B I *D sky130_fd_sc_hd__and2b_1
*I *2013:Y O *D sky130_fd_sc_hd__nor2_1
*CAP
1 *2262:A2 0
2 *2014:B 0.000302575
3 *2013:Y 0.000107378
4 *361:23 0.00012072
5 *361:6 0.000530673
6 *2014:B *573:14 0.000228903
7 *2014:B *574:14 6.17437e-06
8 *361:6 *573:14 0.000139352
9 *361:6 *574:14 8.39179e-05
10 *361:23 *573:14 3.96156e-05
11 *361:23 *577:10 0
12 *247:40 *361:6 9.5877e-05
13 *250:8 *361:23 8.62876e-05
14 *250:23 *361:23 8.72173e-05
15 *359:93 *2014:B 5.83407e-05
16 *359:100 *2014:B 0.000131595
17 *359:108 *361:23 2.3529e-05
*RES
1 *2013:Y *361:6 26.0036 
2 *361:6 *2014:B 30.4571 
3 *361:6 *361:23 32.9621 
4 *361:23 *2262:A2 23 
*END

*D_NET *362 0.00689986
*CONN
*I *2057:A I *D sky130_fd_sc_hd__or3_1
*I *2034:A I *D sky130_fd_sc_hd__nor2_1
*I *2052:A I *D sky130_fd_sc_hd__or4b_2
*I *2033:B1_N I *D sky130_fd_sc_hd__o21ba_1
*I *2014:X O *D sky130_fd_sc_hd__and2b_1
*CAP
1 *2057:A 0.000218089
2 *2034:A 3.2539e-05
3 *2052:A 0.000120991
4 *2033:B1_N 2.95011e-05
5 *2014:X 2.82203e-05
6 *362:34 0.000505794
7 *362:21 0.000642385
8 *362:10 0.00107459
9 *362:8 0.000807081
10 *2033:B1_N *420:14 5.50106e-05
11 *2034:A *413:8 2.93845e-05
12 *2052:A *2052:B 4.97675e-05
13 *2052:A *2052:C 4.65917e-05
14 *2052:A *2073:A 0.000407414
15 *2052:A *747:61 1.14154e-05
16 *2057:A *2087:B 0
17 *2057:A *380:17 7.10099e-05
18 *2057:A *396:19 0.000269775
19 *2057:A *737:72 2.4754e-05
20 *362:10 *2454:CLK 0
21 *362:10 *2457:RESET_B 0.000120396
22 *362:10 *2461:RESET_B 0.000166513
23 *362:10 *383:8 0
24 *362:10 *412:10 6.79006e-05
25 *362:10 *577:10 0
26 *362:10 *709:31 0
27 *362:10 *754:81 0.00019747
28 *362:10 *754:88 0.000428682
29 *362:21 *2087:B 0
30 *362:21 *2461:RESET_B 0.000376881
31 *362:21 *407:10 0
32 *362:21 *412:10 4.6318e-06
33 *362:21 *421:8 0
34 *362:34 *2087:B 0
35 *362:34 *2461:RESET_B 0.0002644
36 *362:34 *380:17 4.6318e-06
37 *362:34 *380:19 9.03054e-05
38 *362:34 *756:34 2.54046e-05
39 *2456:D *362:10 6.7177e-06
40 *217:57 *2057:A 1.34354e-05
41 *229:24 *2057:A 0.000313249
42 *230:8 *362:10 0.000102524
43 *235:48 *362:10 0.000207416
44 *255:10 *362:10 5.56203e-05
45 *359:93 *362:8 2.93747e-05
*RES
1 *2014:X *362:8 38.6214 
2 *362:8 *362:10 19.865 
3 *362:10 *2033:B1_N 38.6214 
4 *362:10 *362:21 5.42714 
5 *362:21 *2052:A 42.4536 
6 *362:21 *362:34 6.13143 
7 *362:34 *2034:A 38.6214 
8 *362:34 *2057:A 44.4421 
*END

*D_NET *363 0.00164861
*CONN
*I *2020:A I *D sky130_fd_sc_hd__and4_1
*I *2015:Y O *D sky130_fd_sc_hd__nand2_1
*CAP
1 *2020:A 0
2 *2015:Y 0.000448324
3 *363:10 0.000448324
4 *363:10 *365:24 6.07611e-06
5 *363:10 *375:8 0.000137869
6 *363:10 *730:8 0
7 *363:10 *747:16 0.000342125
8 *2027:B1 *363:10 0.000181125
9 *328:12 *363:10 8.47691e-05
*RES
1 *2015:Y *363:10 46.6793 
2 *363:10 *2020:A 38 
*END

*D_NET *364 0.00090523
*CONN
*I *2017:C1 I *D sky130_fd_sc_hd__o221a_1
*I *2016:Y O *D sky130_fd_sc_hd__nand2b_1
*CAP
1 *2017:C1 0.000197115
2 *2016:Y 0.00012063
3 *364:8 0.000317745
4 *2017:C1 *756:177 8.10857e-05
5 *364:8 *729:43 0.000188654
6 *364:8 *761:18 0
*RES
1 *2016:Y *364:8 40.61 
2 *364:8 *2017:C1 41.48 
*END

*D_NET *365 0.00180516
*CONN
*I *2020:B I *D sky130_fd_sc_hd__and4_1
*I *2017:X O *D sky130_fd_sc_hd__o221a_1
*CAP
1 *2020:B 0
2 *2017:X 0.0004909
3 *365:24 5.38528e-05
4 *365:14 0.000544753
5 *365:14 *366:12 2.35119e-05
6 *365:24 *366:12 6.16531e-05
7 *365:24 *747:16 7.76364e-06
8 *365:24 *747:61 9.67842e-05
9 *221:78 *365:14 9.84794e-05
10 *229:24 *365:24 9.84851e-05
11 *322:71 *365:14 0.000205089
12 *322:71 *365:24 0
13 *323:29 *365:14 0.000107212
14 *331:40 *365:14 1.05984e-05
15 *363:10 *365:24 6.07611e-06
*RES
1 *2017:X *365:14 46.1407 
2 *365:14 *365:24 46.9471 
3 *365:24 *2020:B 23 
*END

*D_NET *366 0.00120994
*CONN
*I *2020:C I *D sky130_fd_sc_hd__and4_1
*I *2018:X O *D sky130_fd_sc_hd__o22a_1
*CAP
1 *2020:C 0
2 *2018:X 0.000364102
3 *366:12 0.000364102
4 *366:12 *367:8 0.000241128
5 *2050:B *366:12 4.6318e-06
6 *225:39 *366:12 5.12394e-05
7 *323:29 *366:12 7.51637e-05
8 *331:40 *366:12 2.44117e-05
9 *365:14 *366:12 2.35119e-05
10 *365:24 *366:12 6.16531e-05
*RES
1 *2018:X *366:12 44.7943 
2 *366:12 *2020:C 38 
*END

*D_NET *367 0.000548508
*CONN
*I *2020:D I *D sky130_fd_sc_hd__and4_1
*I *2019:X O *D sky130_fd_sc_hd__o22a_1
*CAP
1 *2020:D 0
2 *2019:X 0.000152311
3 *367:8 0.000152311
4 *367:8 *2079:A 0
5 *367:8 *730:8 0
6 *1970:A *367:8 2.75733e-06
7 *366:12 *367:8 0.000241128
*RES
1 *2019:X *367:8 41.3143 
2 *367:8 *2020:D 38 
*END

*D_NET *368 0.000126903
*CONN
*I *2032:A I *D sky130_fd_sc_hd__and4_1
*I *2020:X O *D sky130_fd_sc_hd__and4_1
*CAP
1 *2032:A 6.74574e-06
2 *2020:X 6.74574e-06
3 *2032:A *747:61 5.67058e-05
4 *229:24 *2032:A 5.67058e-05
*RES
1 *2020:X *2032:A 46.6214 
*END

*D_NET *369 0.000465596
*CONN
*I *2027:C1 I *D sky130_fd_sc_hd__o221a_1
*I *2021:X O *D sky130_fd_sc_hd__o2bb2a_1
*CAP
1 *2027:C1 0
2 *2021:X 0.000165381
3 *369:10 0.000165381
4 *369:10 *2021:B1 0
5 *369:10 *708:137 7.8128e-05
6 *369:10 *736:12 0
7 *369:10 *758:63 5.67058e-05
*RES
1 *2021:X *369:10 40.8793 
2 *369:10 *2027:C1 38 
*END

*D_NET *370 0.000873913
*CONN
*I *2030:C1 I *D sky130_fd_sc_hd__a221oi_1
*I *2022:X O *D sky130_fd_sc_hd__xor2_1
*CAP
1 *2030:C1 0.000150368
2 *2022:X 0.000187653
3 *370:8 0.000338022
4 *2030:C1 *761:30 0.000141164
5 *370:8 *756:66 0
6 *370:8 *756:68 0
7 *2030:A2 *2030:C1 5.67058e-05
8 *2082:B *370:8 0
*RES
1 *2022:X *370:8 40.9621 
2 *370:8 *2030:C1 41.48 
*END

*D_NET *371 0.00549546
*CONN
*I *2028:C1 I *D sky130_fd_sc_hd__o221a_1
*I *2023:Y O *D sky130_fd_sc_hd__xnor2_1
*CAP
1 *2028:C1 0
2 *2023:Y 0.000120092
3 *371:18 0.00212065
4 *371:10 0.00224074
5 *371:10 *404:10 0
6 *371:10 *737:89 0
7 *371:18 *2569:A 3.76959e-05
8 *371:18 *708:21 1.20966e-05
9 *371:18 *731:36 0.000562418
10 *371:18 *759:115 0.000298788
11 *2030:B1 *371:18 6.07611e-06
12 *220:31 *371:18 2.74884e-05
13 *320:85 *371:18 6.94148e-05
*RES
1 *2023:Y *371:10 48.0818 
2 *371:10 *371:18 28.9671 
3 *371:18 *2028:C1 23 
*END

*D_NET *372 0.000487456
*CONN
*I *2025:C1 I *D sky130_fd_sc_hd__o221a_1
*I *2024:X O *D sky130_fd_sc_hd__o2bb2a_1
*CAP
1 *2025:C1 1.49804e-05
2 *2024:X 0.000125772
3 *372:8 0.000140753
4 *372:8 *708:137 0
5 *372:8 *730:33 1.14452e-05
6 *1976:A *372:8 4.08641e-05
7 *2017:B1 *372:8 4.08537e-05
8 *219:39 *372:8 2.76611e-06
9 *329:8 *2025:C1 5.50106e-05
10 *332:46 *2025:C1 5.50106e-05
*RES
1 *2024:X *372:8 40.2579 
2 *372:8 *2025:C1 38.6214 
*END

*D_NET *373 0.000904133
*CONN
*I *2032:B I *D sky130_fd_sc_hd__and4_1
*I *2025:X O *D sky130_fd_sc_hd__o221a_1
*CAP
1 *2032:B 0
2 *2025:X 0.000176657
3 *373:6 0.000176657
4 *373:6 *2032:C 0.000313244
5 *373:6 *747:18 6.17437e-06
6 *373:6 *747:61 0.0002314
*RES
1 *2025:X *373:6 27.9093 
2 *373:6 *2032:B 23 
*END

*D_NET *374 0.00113178
*CONN
*I *2031:A I *D sky130_fd_sc_hd__and4_1
*I *2026:X O *D sky130_fd_sc_hd__o22a_1
*CAP
1 *2031:A 0
2 *2026:X 0.000416264
3 *374:14 0.000416264
4 *374:14 *2031:B 5.12055e-06
5 *374:14 *2031:C 1.79538e-05
6 *374:14 *377:10 0.000152583
7 *374:14 *379:8 1.73399e-05
8 *374:14 *708:137 4.49313e-06
9 *2029:A1 *374:14 4.67488e-05
10 *216:64 *374:14 5.50106e-05
11 *320:66 *374:14 0
*RES
1 *2026:X *374:14 30.0221 
2 *374:14 *2031:A 23 
*END

*D_NET *375 0.00140151
*CONN
*I *2032:C I *D sky130_fd_sc_hd__and4_1
*I *2027:X O *D sky130_fd_sc_hd__o221a_1
*CAP
1 *2032:C 0.000258784
2 *2027:X 0.000210314
3 *375:8 0.000469098
4 *2032:C *747:61 1.21972e-05
5 *375:8 *730:8 0
6 *327:19 *375:8 0
7 *363:10 *375:8 0.000137869
8 *373:6 *2032:C 0.000313244
*RES
1 *2027:X *375:8 42.0186 
2 *375:8 *2032:C 41.9564 
*END

*D_NET *376 0.00175218
*CONN
*I *2031:B I *D sky130_fd_sc_hd__and4_1
*I *2028:X O *D sky130_fd_sc_hd__o221a_1
*CAP
1 *2031:B 4.06029e-05
2 *2028:X 0.000557437
3 *376:10 0.000598039
4 *376:10 *2028:A2 9.31593e-05
5 *376:10 *377:10 9.28078e-06
6 *376:10 *701:72 5.73835e-06
7 *220:31 *376:10 0.000308045
8 *221:78 *376:10 0.000101536
9 *223:10 *376:10 3.32226e-05
10 *374:14 *2031:B 5.12055e-06
*RES
1 *2028:X *376:10 45.8921 
2 *376:10 *2031:B 38.8493 
*END

*D_NET *377 0.000674469
*CONN
*I *2031:C I *D sky130_fd_sc_hd__and4_1
*I *2029:Y O *D sky130_fd_sc_hd__a22oi_1
*CAP
1 *2031:C 4.33462e-05
2 *2029:Y 9.25171e-05
3 *377:10 0.000135863
4 *2031:C *708:137 9.67842e-05
5 *377:10 *708:137 5.61255e-06
6 *2018:A1 *377:10 9.28078e-06
7 *221:78 *377:10 3.14237e-05
8 *223:10 *377:10 7.98243e-05
9 *374:14 *2031:C 1.79538e-05
10 *374:14 *377:10 0.000152583
11 *376:10 *377:10 9.28078e-06
*RES
1 *2029:Y *377:10 40.2993 
2 *377:10 *2031:C 39.0979 
*END

*D_NET *378 0.00221793
*CONN
*I *2031:D I *D sky130_fd_sc_hd__and4_1
*I *2030:Y O *D sky130_fd_sc_hd__a221oi_1
*CAP
1 *2031:D 0
2 *2030:Y 0.000385132
3 *378:10 0.000385132
4 *378:10 *386:23 0.000574985
5 *378:10 *386:27 3.84106e-05
6 *378:10 *761:30 4.5051e-05
7 *378:10 *761:36 0.000141954
8 *2038:A *378:10 7.53384e-06
9 *2038:B *378:10 8.4047e-05
10 *2038:C *378:10 6.87288e-05
11 *221:78 *378:10 0.00048696
12 *223:10 *378:10 0
*RES
1 *2030:Y *378:10 49.1236 
2 *378:10 *2031:D 38 
*END

*D_NET *379 0.00333675
*CONN
*I *2032:D I *D sky130_fd_sc_hd__and4_1
*I *2031:X O *D sky130_fd_sc_hd__and4_1
*CAP
1 *2032:D 0.000380197
2 *2031:X 0.000465279
3 *379:8 0.000845475
4 *2032:D *2055:C1 1.37349e-05
5 *2032:D *392:10 0.000601141
6 *2032:D *394:10 1.62061e-05
7 *2032:D *747:61 0.000651349
8 *379:8 *2045:B 2.94414e-05
9 *379:8 *389:10 0.000264564
10 *1965:A *379:8 5.14746e-06
11 *2026:A2 *379:8 1.41077e-05
12 *216:64 *379:8 3.58084e-06
13 *224:37 *2032:D 1.2597e-05
14 *226:18 *2032:D 1.65916e-05
15 *374:14 *379:8 1.73399e-05
*RES
1 *2031:X *379:8 44.3386 
2 *379:8 *2032:D 48.7093 
*END

*D_NET *380 0.0038213
*CONN
*I *2034:B I *D sky130_fd_sc_hd__nor2_1
*I *2052:B I *D sky130_fd_sc_hd__or4b_2
*I *2033:A2 I *D sky130_fd_sc_hd__o21ba_1
*I *2057:B I *D sky130_fd_sc_hd__or3_1
*I *2032:X O *D sky130_fd_sc_hd__and4_1
*CAP
1 *2034:B 3.2539e-05
2 *2052:B 0.000163822
3 *2033:A2 0.000275901
4 *2057:B 0
5 *2032:X 0.000177031
6 *380:19 0.000634815
7 *380:17 0.000443704
8 *380:6 0.000393104
9 *2033:A2 *2461:RESET_B 0.000496356
10 *2033:A2 *418:8 4.34534e-05
11 *2034:B *413:8 2.93845e-05
12 *2052:B *2052:C 5.67058e-05
13 *380:17 *737:72 0
14 *380:19 *2049:C 0
15 *380:19 *2461:RESET_B 0.000166513
16 *380:19 *391:18 0
17 *380:19 *737:62 0
18 *2052:A *2052:B 4.97675e-05
19 *2057:A *380:17 7.10099e-05
20 *217:57 *380:17 0.000108681
21 *229:24 *380:6 0.000272383
22 *229:24 *380:17 0.00018282
23 *239:12 *380:17 1.02387e-05
24 *239:12 *380:19 4.58924e-05
25 *318:10 *2033:A2 7.22403e-05
26 *362:34 *380:17 4.6318e-06
27 *362:34 *380:19 9.03054e-05
*RES
1 *2032:X *380:6 26.0036 
2 *380:6 *2057:B 23 
3 *380:6 *380:17 19.3086 
4 *380:17 *380:19 4.72286 
5 *380:19 *2033:A2 44.8357 
6 *380:19 *2052:B 40.5271 
7 *380:17 *2034:B 38.6214 
*END

*D_NET *381 0.00361215
*CONN
*I *2055:C1 I *D sky130_fd_sc_hd__o211a_1
*I *2571:A I *D sky130_fd_sc_hd__clkbuf_2
*I *2034:Y O *D sky130_fd_sc_hd__nor2_1
*CAP
1 *2055:C1 0.000275289
2 *2571:A 0.000131683
3 *2034:Y 0.000506961
4 *381:8 0.000913933
5 *2055:C1 *2055:A2 1.69668e-05
6 *2055:C1 *392:10 6.08043e-05
7 *2055:C1 *392:25 4.73689e-05
8 *2055:C1 *730:8 0.000563221
9 *2055:C1 *747:61 0.000136486
10 *2571:A *2079:A 8.72173e-05
11 *2571:A *730:8 1.01436e-05
12 *2571:A *747:61 0.000268221
13 *381:8 *413:8 5.50106e-05
14 *1970:A *2571:A 5.79413e-06
15 *2032:D *2055:C1 1.37349e-05
16 *217:63 *381:8 0.000471965
17 *323:40 *2571:A 4.7345e-05
*RES
1 *2034:Y *381:8 45.2914 
2 *381:8 *2571:A 41.6664 
3 *381:8 *2055:C1 45.8921 
*END

*D_NET *382 0.00112366
*CONN
*I *2037:B I *D sky130_fd_sc_hd__and3_1
*I *2035:X O *D sky130_fd_sc_hd__or2_1
*CAP
1 *2037:B 4.24857e-05
2 *2035:X 0.000309459
3 *382:10 0.000351945
4 *2037:B *761:36 5.50106e-05
5 *382:10 *383:8 8.62876e-05
6 *382:10 *701:89 2.76611e-06
7 *382:10 *708:67 5.09988e-05
8 *382:10 *737:28 0.000111852
9 *216:6 *382:10 5.67058e-05
10 *221:21 *382:10 5.6146e-05
11 *235:14 *382:10 0
*RES
1 *2035:X *382:10 43.4893 
2 *382:10 *2037:B 38.6214 
*END

*D_NET *383 0.00108114
*CONN
*I *2037:C I *D sky130_fd_sc_hd__and3_1
*I *2036:Y O *D sky130_fd_sc_hd__nand2_1
*CAP
1 *2037:C 2.07935e-05
2 *2036:Y 0.000271154
3 *383:8 0.000291948
4 *383:8 *2457:RESET_B 0
5 *383:8 *737:28 3.61397e-05
6 *383:8 *754:81 0
7 *383:8 *754:88 0
8 *2036:B *383:8 0.000224336
9 *2076:B *2037:C 5.83345e-06
10 *221:21 *383:8 0.000141879
11 *235:14 *383:8 2.76611e-06
12 *362:10 *383:8 0
13 *382:10 *383:8 8.62876e-05
*RES
1 *2036:Y *383:8 44.8357 
2 *383:8 *2037:C 38.2279 
*END

*D_NET *384 0.00217559
*CONN
*I *2042:B I *D sky130_fd_sc_hd__or2_1
*I *2040:A_N I *D sky130_fd_sc_hd__and3b_1
*I *2038:X O *D sky130_fd_sc_hd__and3_1
*CAP
1 *2042:B 0.000185792
2 *2040:A_N 0.00021964
3 *2038:X 8.81242e-05
4 *384:10 0.000493556
5 *2040:A_N *386:12 8.83237e-05
6 *2038:C *2040:A_N 3.70187e-05
7 *2038:C *384:10 0.000130378
8 *2039:B1 *2040:A_N 0.000276775
9 *2041:C *2042:B 5.3304e-05
10 *2042:A *2042:B 8.42098e-05
11 *216:12 *2042:B 2.02517e-05
12 *221:25 *2042:B 1.03955e-05
13 *222:19 *2040:A_N 0.000191157
14 *223:8 *2040:A_N 0.000187986
15 *223:10 *2040:A_N 2.46345e-05
16 *223:10 *384:10 8.4047e-05
*RES
1 *2038:X *384:10 39.8229 
2 *384:10 *2040:A_N 44.4836 
3 *384:10 *2042:B 41.0243 
*END

*D_NET *385 0.000289347
*CONN
*I *2040:B I *D sky130_fd_sc_hd__and3b_1
*I *2039:X O *D sky130_fd_sc_hd__a21o_1
*CAP
1 *2040:B 4.55235e-05
2 *2039:X 5.00856e-05
3 *385:8 9.56091e-05
4 *2040:B *790:DIODE 2.93845e-05
5 *2039:A2 *385:8 2.54046e-05
6 *359:85 *385:8 4.334e-05
*RES
1 *2039:X *385:8 39.2014 
2 *385:8 *2040:B 38.6214 
*END

*D_NET *386 0.00526686
*CONN
*I *2045:B I *D sky130_fd_sc_hd__or2_1
*I *2050:D I *D sky130_fd_sc_hd__and4_1
*I *2044:B I *D sky130_fd_sc_hd__nand2_1
*I *2043:A_N I *D sky130_fd_sc_hd__and3b_1
*I *2041:X O *D sky130_fd_sc_hd__and4_1
*CAP
1 *2045:B 0.000282948
2 *2050:D 6.63278e-05
3 *2044:B 0
4 *2043:A_N 0
5 *2041:X 0
6 *386:27 0.000244015
7 *386:23 0.000978518
8 *386:12 0.000256652
9 *386:4 0.000774535
10 *2045:B *389:10 3.97681e-05
11 *2050:D *2046:A 6.51746e-05
12 *386:27 *708:137 0.000124075
13 *1965:A *2045:B 0.000117381
14 *2026:A2 *2045:B 5.50106e-05
15 *2040:A_N *386:12 8.83237e-05
16 *2041:A *386:12 5.50106e-05
17 *2041:A *386:23 9.84794e-05
18 *2050:B *2045:B 0
19 *216:14 *386:23 0.00010394
20 *216:16 *386:12 0
21 *216:16 *386:23 3.47781e-05
22 *216:49 *386:23 0.000102638
23 *216:64 *2045:B 0.000139346
24 *216:64 *386:23 0.000588168
25 *216:87 *2050:D 2.02872e-05
26 *221:78 *386:27 1.41227e-05
27 *223:8 *386:12 4.334e-05
28 *223:8 *386:23 0
29 *223:10 *386:23 0
30 *224:25 *2050:D 5.3304e-05
31 *224:29 *386:27 3.18198e-05
32 *224:37 *2050:D 0.000182832
33 *226:20 *2050:D 5.50106e-05
34 *325:10 *2045:B 8.22421e-06
35 *378:10 *386:23 0.000574985
36 *378:10 *386:27 3.84106e-05
37 *379:8 *2045:B 2.94414e-05
*RES
1 *2041:X *386:4 23 
2 *386:4 *386:12 35.3443 
3 *386:12 *2043:A_N 23 
4 *386:4 *386:23 28.0396 
5 *386:23 *386:27 18.1382 
6 *386:27 *2044:B 23 
7 *386:27 *2050:D 25.5271 
8 *386:23 *2045:B 44.0382 
*END

*D_NET *387 0.00117755
*CONN
*I *2043:B I *D sky130_fd_sc_hd__and3b_1
*I *2042:X O *D sky130_fd_sc_hd__or2_1
*CAP
1 *2043:B 5.10823e-05
2 *2042:X 0.000290348
3 *387:10 0.00034143
4 *2036:A *2043:B 2.64616e-05
5 *2039:A1 *387:10 6.25829e-05
6 *216:16 *387:10 0.000376261
7 *221:25 *387:10 2.93845e-05
8 *237:10 *387:10 0
9 *237:21 *387:10 0
*RES
1 *2042:X *387:10 44.4007 
2 *387:10 *2043:B 38.6214 
*END

*D_NET *388 0.00165923
*CONN
*I *2047:B I *D sky130_fd_sc_hd__nor2_1
*I *2048:B I *D sky130_fd_sc_hd__nand2_1
*I *2046:B I *D sky130_fd_sc_hd__and3_1
*I *2044:Y O *D sky130_fd_sc_hd__nand2_1
*CAP
1 *2047:B 0.00011703
2 *2048:B 2.76384e-05
3 *2046:B 0.000141989
4 *2044:Y 0
5 *388:19 0.000383443
6 *388:4 0.000380764
7 *2047:B *391:18 2.72136e-05
8 *2018:B1 *388:19 3.56537e-05
9 *2050:B *388:19 4.95041e-05
10 *216:87 *2046:B 0.000181125
11 *216:87 *388:19 0.000211266
12 *323:29 *2047:B 6.4704e-05
13 *323:29 *2048:B 3.88975e-05
*RES
1 *2044:Y *388:4 23 
2 *388:4 *2046:B 25.0507 
3 *388:4 *388:19 34.0807 
4 *388:19 *2048:B 24.0254 
5 *388:19 *2047:B 25.8896 
*END

*D_NET *389 0.00267791
*CONN
*I *2046:C I *D sky130_fd_sc_hd__and3_1
*I *2045:X O *D sky130_fd_sc_hd__or2_1
*CAP
1 *2046:C 0
2 *2045:X 0.00019606
3 *389:22 0.000280585
4 *389:10 0.000476645
5 *389:10 *737:12 1.65299e-05
6 *389:10 *737:18 3.7473e-07
7 *389:22 *756:58 0.000513984
8 *1965:A *389:10 4.79612e-05
9 *2018:A1 *389:22 2.24608e-05
10 *2026:A2 *389:10 7.53384e-06
11 *2045:B *389:10 3.97681e-05
12 *216:87 *389:10 0.000137521
13 *221:78 *389:22 7.57281e-06
14 *224:21 *389:22 6.04112e-05
15 *317:44 *389:10 8.96559e-05
16 *317:44 *389:22 0.000516281
17 *379:8 *389:10 0.000264564
*RES
1 *2045:X *389:10 43.0854 
2 *389:10 *389:22 33.0259 
3 *389:22 *2046:C 23 
*END

*D_NET *390 0.00106767
*CONN
*I *2049:A_N I *D sky130_fd_sc_hd__and3b_1
*I *2051:B I *D sky130_fd_sc_hd__or2_1
*I *2047:Y O *D sky130_fd_sc_hd__nor2_1
*CAP
1 *2049:A_N 7.02003e-05
2 *2051:B 0
3 *2047:Y 4.63422e-05
4 *390:12 0.000113684
5 *390:6 0.000230227
6 *2049:A_N *391:18 9.62666e-05
7 *2049:A_N *737:12 2.32101e-05
8 *2049:A_N *737:62 2.32004e-05
9 *2049:A_N *756:48 9.41704e-05
10 *390:6 *391:18 5.41288e-05
11 *390:6 *737:12 2.64616e-05
12 *390:12 *737:12 0.000159167
13 *390:12 *747:61 8.12802e-06
14 *390:12 *756:48 6.89634e-05
15 *2050:B *390:12 1.7992e-05
16 *224:37 *390:12 3.55303e-05
*RES
1 *2047:Y *390:6 24.0979 
2 *390:6 *390:12 32.9621 
3 *390:12 *2051:B 23 
4 *390:6 *2049:A_N 25.0507 
*END

*D_NET *391 0.0014574
*CONN
*I *2049:B I *D sky130_fd_sc_hd__and3b_1
*I *2048:Y O *D sky130_fd_sc_hd__nand2_1
*CAP
1 *2049:B 0
2 *2048:Y 0.000371207
3 *391:18 0.000371207
4 *391:18 *737:62 2.96154e-05
5 *391:18 *756:48 8.97949e-05
6 *2047:B *391:18 2.72136e-05
7 *2049:A_N *391:18 9.62666e-05
8 *225:14 *391:18 0.000406944
9 *323:29 *391:18 1.1019e-05
10 *380:19 *391:18 0
11 *390:6 *391:18 5.41288e-05
*RES
1 *2048:Y *391:18 46.3479 
2 *391:18 *2049:B 38 
*END

*D_NET *392 0.00507379
*CONN
*I *2052:C I *D sky130_fd_sc_hd__or4b_2
*I *2055:A2 I *D sky130_fd_sc_hd__o211a_1
*I *2054:B I *D sky130_fd_sc_hd__nand2_1
*I *2056:C I *D sky130_fd_sc_hd__and3_1
*I *2050:X O *D sky130_fd_sc_hd__and4_1
*CAP
1 *2052:C 0.000175463
2 *2055:A2 2.58337e-05
3 *2054:B 0.000206455
4 *2056:C 0.00010469
5 *2050:X 0.000244722
6 *392:25 0.000316189
7 *392:10 0.000604376
8 *392:6 0.000835972
9 *2052:C *2052:D_N 2.4754e-05
10 *2052:C *2073:A 9.24795e-06
11 *2052:C *747:61 5.29672e-05
12 *2054:B *2058:B1 0.000135037
13 *2054:B *395:6 1.76557e-05
14 *2056:C *758:63 0.000137158
15 *392:6 *2052:D_N 2.93845e-05
16 *392:6 *747:61 1.21972e-05
17 *392:10 *396:10 0
18 *392:10 *397:8 3.04021e-05
19 *392:10 *737:62 0.000102696
20 *392:10 *737:72 0.000424533
21 *1974:A *2056:C 9.41704e-05
22 *2027:B1 *2054:B 9.41704e-05
23 *2032:D *392:10 0.000601141
24 *2052:A *2052:C 4.65917e-05
25 *2052:B *2052:C 5.67058e-05
26 *2054:A *2054:B 4.79641e-05
27 *2055:C1 *2055:A2 1.69668e-05
28 *2055:C1 *392:10 6.08043e-05
29 *2055:C1 *392:25 4.73689e-05
30 *2056:A *2055:A2 6.16531e-05
31 *2056:A *392:10 6.16439e-05
32 *2056:A *392:25 0.000161121
33 *219:31 *2056:C 4.13439e-05
34 *224:37 *392:6 0.000180212
35 *226:20 *392:6 1.21972e-05
*RES
1 *2050:X *392:6 26.9564 
2 *392:6 *392:10 26.0614 
3 *392:10 *2056:C 40.6514 
4 *392:10 *392:25 2.25786 
5 *392:25 *2054:B 42.3293 
6 *392:25 *2055:A2 38.8493 
7 *392:6 *2052:C 27.3293 
*END

*D_NET *393 0.000201508
*CONN
*I *2052:D_N I *D sky130_fd_sc_hd__or4b_2
*I *2051:X O *D sky130_fd_sc_hd__or2_1
*CAP
1 *2052:D_N 2.44422e-05
2 *2051:X 2.44422e-05
3 *2052:D_N *747:61 9.84851e-05
4 *2052:C *2052:D_N 2.4754e-05
5 *392:6 *2052:D_N 2.93845e-05
*RES
1 *2051:X *2052:D_N 47.0979 
*END

*D_NET *394 0.00273378
*CONN
*I *2053:A I *D sky130_fd_sc_hd__inv_2
*I *2078:B1 I *D sky130_fd_sc_hd__a221o_1
*I *2083:B1 I *D sky130_fd_sc_hd__o22a_1
*I *2052:X O *D sky130_fd_sc_hd__or4b_2
*CAP
1 *2053:A 8.84471e-05
2 *2078:B1 0
3 *2083:B1 0.000278897
4 *2052:X 0.000172271
5 *394:14 0.000620387
6 *394:10 0.000602208
7 *2083:B1 *2078:B2 4.52618e-05
8 *2083:B1 *2078:C1 9.84851e-05
9 *2083:B1 *731:47 0.000146457
10 *394:10 *418:8 0
11 *394:10 *747:61 5.50106e-05
12 *394:14 *418:8 0
13 *394:14 *737:18 0
14 *1965:A *2053:A 8.03063e-05
15 *2032:D *394:10 1.62061e-05
16 *2083:A1 *2083:B1 5.3304e-05
17 *224:37 *394:10 0
18 *224:37 *394:14 0
19 *319:69 *2083:B1 9.17228e-05
20 *319:77 *394:14 0.000161121
21 *320:104 *394:14 0
22 *325:10 *2083:B1 0.000223692
*RES
1 *2052:X *394:10 40.5271 
2 *394:10 *394:14 20.4271 
3 *394:14 *2083:B1 29.8357 
4 *394:14 *2078:B1 23 
5 *394:10 *2053:A 40.0507 
*END

*D_NET *395 0.000997784
*CONN
*I *2055:B1 I *D sky130_fd_sc_hd__o211a_1
*I *2058:A2 I *D sky130_fd_sc_hd__a21oi_1
*I *2054:Y O *D sky130_fd_sc_hd__nand2_1
*CAP
1 *2055:B1 1.17411e-05
2 *2058:A2 5.50701e-05
3 *2054:Y 0.000126076
4 *395:6 0.000192888
5 *2058:A2 *2058:B1 7.84283e-05
6 *395:6 *2058:B1 3.59538e-05
7 *2054:A *395:6 0.000182826
8 *2054:B *395:6 1.76557e-05
9 *227:37 *2058:A2 0.00014196
10 *227:37 *395:6 9.84794e-05
11 *241:10 *395:6 5.67058e-05
*RES
1 *2054:Y *395:6 26.48 
2 *395:6 *2058:A2 25.0714 
3 *395:6 *2055:B1 23.4971 
*END

*D_NET *396 0.00205056
*CONN
*I *2059:B I *D sky130_fd_sc_hd__or2_1
*I *2060:B I *D sky130_fd_sc_hd__and2_1
*I *2057:C I *D sky130_fd_sc_hd__or3_1
*I *2056:X O *D sky130_fd_sc_hd__and3_1
*CAP
1 *2059:B 1.63022e-05
2 *2060:B 0
3 *2057:C 0
4 *2056:X 0.00017487
5 *396:19 0.000114815
6 *396:12 9.85125e-05
7 *396:10 0.00017487
8 *2059:B *737:72 0.000143655
9 *396:10 *397:8 0
10 *396:10 *737:72 0
11 *396:19 *737:72 0.000574102
12 *2057:A *396:19 0.000269775
13 *217:57 *396:10 3.98859e-05
14 *219:31 *396:10 9.84794e-05
15 *229:14 *2059:B 0.000130423
16 *229:14 *396:19 0.00010018
17 *229:24 *396:19 0.000114692
18 *392:10 *396:10 0
*RES
1 *2056:X *396:10 41.0036 
2 *396:10 *396:12 15 
3 *396:12 *2057:C 23 
4 *396:12 *396:19 6.33857 
5 *396:19 *2060:B 23 
6 *396:19 *2059:B 24.5743 
*END

*D_NET *397 0.00187394
*CONN
*I *2058:B1 I *D sky130_fd_sc_hd__a21oi_1
*I *2057:X O *D sky130_fd_sc_hd__or3_1
*CAP
1 *2058:B1 0.000204653
2 *2057:X 0.000324507
3 *397:8 0.00052916
4 *1974:A *397:8 8.4047e-05
5 *2027:A1 *2058:B1 0
6 *2027:B1 *2058:B1 0.000158334
7 *2054:A *2058:B1 9.41704e-05
8 *2054:B *2058:B1 0.000135037
9 *2056:A *397:8 1.37246e-05
10 *2058:A2 *2058:B1 7.84283e-05
11 *217:57 *397:8 0
12 *227:37 *2058:B1 4.2062e-05
13 *228:10 *397:8 5.94125e-05
14 *228:12 *397:8 8.4047e-05
15 *392:10 *397:8 3.04021e-05
16 *395:6 *2058:B1 3.59538e-05
17 *396:10 *397:8 0
*RES
1 *2057:X *397:8 42.7229 
2 *397:8 *2058:B1 43.4064 
*END

*D_NET *398 0.000423828
*CONN
*I *2061:C I *D sky130_fd_sc_hd__and3b_1
*I *2059:X O *D sky130_fd_sc_hd__or2_1
*CAP
1 *2061:C 9.32254e-05
2 *2059:X 9.32254e-05
3 *2061:C *399:30 0.000136738
4 *2061:C *399:47 4.08664e-05
5 *2061:C *737:72 5.6061e-05
6 *2061:C *737:83 3.7122e-06
*RES
1 *2059:X *2061:C 48.0507 
*END

*D_NET *399 0.00549274
*CONN
*I *2065:C I *D sky130_fd_sc_hd__and3_1
*I *2061:A_N I *D sky130_fd_sc_hd__and3b_1
*I *2064:A2 I *D sky130_fd_sc_hd__a21oi_1
*I *2063:A2 I *D sky130_fd_sc_hd__a21oi_1
*I *2062:A2 I *D sky130_fd_sc_hd__o21ai_1
*I *2060:X O *D sky130_fd_sc_hd__and2_1
*CAP
1 *2065:C 0.000251248
2 *2061:A_N 7.52017e-05
3 *2064:A2 0
4 *2063:A2 0.000109596
5 *2062:A2 0.000160362
6 *2060:X 6.52883e-05
7 *399:47 0.000454679
8 *399:40 0.000455098
9 *399:30 0.000787587
10 *399:10 0.000404
11 *399:6 0.00040359
12 *2061:A_N *737:72 0
13 *2062:A2 *400:10 7.54749e-05
14 *2062:A2 *737:109 5.12254e-05
15 *2063:A2 *2085:D 0.000122304
16 *2063:A2 *2465:RESET_B 0
17 *2063:A2 *400:10 5.51058e-05
18 *399:6 *737:72 0.00010018
19 *399:10 *2085:D 6.07611e-06
20 *399:30 *737:72 9.61969e-05
21 *399:40 *2465:RESET_B 0.000296017
22 *399:40 *403:20 7.88926e-05
23 *399:40 *419:14 7.80251e-05
24 *399:40 *709:117 0.000352556
25 *399:40 *737:89 4.85126e-05
26 *399:47 *737:83 8.06804e-06
27 *2061:C *399:30 0.000136738
28 *2061:C *399:47 4.08664e-05
29 *2065:B *2065:C 2.46183e-06
30 *217:18 *2061:A_N 5.67058e-05
31 *217:18 *2065:C 0.000228909
32 *217:31 *2065:C 5.50049e-05
33 *219:31 *2062:A2 0.000436767
*RES
1 *2060:X *399:6 24.0979 
2 *399:6 *399:10 16.9057 
3 *399:10 *2062:A2 42.9093 
4 *399:10 *2063:A2 41.3143 
5 *399:6 *399:30 3.00357 
6 *399:30 *399:40 41.0614 
7 *399:40 *2064:A2 23 
8 *399:30 *399:47 1.57429 
9 *399:47 *2061:A_N 24.9471 
10 *399:47 *2065:C 27.0393 
*END

*D_NET *400 0.00088682
*CONN
*I *2063:B1 I *D sky130_fd_sc_hd__a21oi_1
*I *2062:Y O *D sky130_fd_sc_hd__o21ai_1
*CAP
1 *2063:B1 0
2 *2062:Y 0.000293103
3 *400:10 0.000293103
4 *400:10 *2465:RESET_B 4.85126e-05
5 *400:10 *737:109 5.67058e-05
6 *2062:A2 *400:10 7.54749e-05
7 *2063:A2 *400:10 5.51058e-05
8 *231:21 *400:10 6.48142e-05
*RES
1 *2062:Y *400:10 43.2614 
2 *400:10 *2063:B1 38 
*END

*D_NET *401 0.00077981
*CONN
*I *2066:A I *D sky130_fd_sc_hd__or3b_1
*I *2064:Y O *D sky130_fd_sc_hd__a21oi_1
*CAP
1 *2066:A 0
2 *2064:Y 0.000313309
3 *401:10 0.000313309
4 *401:10 *403:8 4.08641e-05
5 *401:10 *403:20 6.64346e-05
6 *401:10 *404:10 0
7 *401:10 *755:23 4.58924e-05
*RES
1 *2064:Y *401:10 42.9455 
2 *401:10 *2066:A 38 
*END

*D_NET *402 0.0012159
*CONN
*I *2069:A2 I *D sky130_fd_sc_hd__o21ai_1
*I *2068:B I *D sky130_fd_sc_hd__and2_1
*I *2066:B I *D sky130_fd_sc_hd__or3b_1
*I *2065:X O *D sky130_fd_sc_hd__and3_1
*CAP
1 *2069:A2 0
2 *2068:B 0
3 *2066:B 0
4 *2065:X 0
5 *402:38 0.000179599
6 *402:16 0.000156802
7 *402:8 0.000294672
8 *402:4 0.000317469
9 *402:8 *404:10 1.94812e-05
10 *402:8 *404:40 1.94693e-05
11 *402:16 *404:10 2.26385e-05
12 *402:16 *404:40 9.03784e-05
13 *402:16 *755:23 0
14 *402:38 *404:40 4.64931e-05
15 *402:38 *737:109 2.93747e-05
16 *2068:A *402:16 1.01436e-05
17 *217:18 *402:38 0
18 *219:25 *402:38 2.93747e-05
*RES
1 *2065:X *402:4 23 
2 *402:4 *402:8 2.42357 
3 *402:8 *402:16 32.8793 
4 *402:16 *2066:B 23 
5 *402:8 *2068:B 23 
6 *402:4 *402:38 33.2936 
7 *402:38 *2069:A2 23 
*END

*D_NET *403 0.00161093
*CONN
*I *2067:A I *D sky130_fd_sc_hd__inv_2
*I *2088:B I *D sky130_fd_sc_hd__xor2_1
*I *2066:X O *D sky130_fd_sc_hd__or3b_1
*CAP
1 *2067:A 0
2 *2088:B 0
3 *2066:X 8.39297e-05
4 *403:20 0.000595008
5 *403:10 0.000595008
6 *403:8 8.39297e-05
7 *403:8 *404:10 6.68587e-05
8 *403:8 *755:23 0
9 *403:20 *404:10 0
10 *403:20 *737:89 0
11 *2023:A *403:20 0
12 *218:19 *403:20 0
13 *399:40 *403:20 7.88926e-05
14 *401:10 *403:8 4.08641e-05
15 *401:10 *403:20 6.64346e-05
*RES
1 *2066:X *403:8 39.9057 
2 *403:8 *403:10 15 
3 *403:10 *403:20 40.7093 
4 *403:20 *2088:B 23 
5 *403:10 *2067:A 23 
*END

*D_NET *404 0.00385751
*CONN
*I *2070:A I *D sky130_fd_sc_hd__nor2_1
*I *2071:A2 I *D sky130_fd_sc_hd__o21ai_1
*I *2072:A2 I *D sky130_fd_sc_hd__a21oi_1
*I *2068:X O *D sky130_fd_sc_hd__and2_1
*CAP
1 *2070:A 0
2 *2071:A2 3.9534e-05
3 *2072:A2 0.000325633
4 *2068:X 0
5 *404:40 0.000192918
6 *404:10 0.000915019
7 *404:4 0.00074277
8 *2072:A2 *771:DIODE 5.50049e-05
9 *2072:A2 *406:8 0.000123988
10 *2072:A2 *754:130 5.67058e-05
11 *2072:A2 *757:130 0
12 *404:10 *755:10 0
13 *404:10 *755:23 0
14 *404:10 *757:130 0
15 *404:40 *737:122 5.50106e-05
16 *2023:A *404:10 0.000141869
17 *2065:B *404:10 0.000323803
18 *2068:A *404:40 6.32688e-05
19 *217:31 *404:40 0
20 *218:19 *404:10 0.000326992
21 *219:10 *404:40 2.60152e-05
22 *219:25 *404:40 2.93845e-05
23 *220:21 *2071:A2 6.17437e-06
24 *220:31 *2071:A2 2.93747e-05
25 *232:8 *404:10 0.000138727
26 *371:10 *404:10 0
27 *401:10 *404:10 0
28 *402:8 *404:10 1.94812e-05
29 *402:8 *404:40 1.94693e-05
30 *402:16 *404:10 2.26385e-05
31 *402:16 *404:40 9.03784e-05
32 *402:38 *404:40 4.64931e-05
33 *403:8 *404:10 6.68587e-05
34 *403:20 *404:10 0
*RES
1 *2068:X *404:4 23 
2 *404:4 *404:10 28.4436 
3 *404:10 *2072:A2 45.105 
4 *404:10 *2071:A2 38.6214 
5 *404:4 *404:40 34.9093 
6 *404:40 *2070:A 23 
*END

*D_NET *405 0.000161744
*CONN
*I *2070:B I *D sky130_fd_sc_hd__nor2_1
*I *2069:Y O *D sky130_fd_sc_hd__o21ai_1
*CAP
1 *2070:B 2.75124e-05
2 *2069:Y 2.75124e-05
3 *2070:B *737:122 5.67058e-05
4 *2069:A1 *2070:B 1.37232e-05
5 *219:25 *2070:B 3.62905e-05
*RES
1 *2069:Y *2070:B 47.1186 
*END

*D_NET *406 0.000767396
*CONN
*I *2072:B1 I *D sky130_fd_sc_hd__a21oi_1
*I *2071:Y O *D sky130_fd_sc_hd__o21ai_1
*CAP
1 *2072:B1 1.08768e-05
2 *2071:Y 0.000198422
3 *406:8 0.000209299
4 *2072:B1 *771:DIODE 5.50049e-05
5 *2072:B1 *754:130 5.67058e-05
6 *406:8 *423:10 0
7 *406:8 *754:130 4.27224e-05
8 *2072:A2 *406:8 0.000123988
9 *234:23 *406:8 7.03766e-05
*RES
1 *2071:Y *406:8 43.075 
2 *406:8 *2072:B1 38.6214 
*END

*D_NET *407 0.000525424
*CONN
*I *2087:A I *D sky130_fd_sc_hd__and3_1
*I *2073:Y O *D sky130_fd_sc_hd__xnor2_1
*CAP
1 *2087:A 0
2 *2073:Y 0.000214723
3 *407:10 0.000214723
4 *407:10 *2087:B 4.1196e-05
5 *2073:B *407:10 5.47808e-05
6 *362:21 *407:10 0
*RES
1 *2073:Y *407:10 41.1279 
2 *407:10 *2087:A 38 
*END

*D_NET *408 0.000608182
*CONN
*I *2086:A I *D sky130_fd_sc_hd__and3_1
*I *2074:Y O *D sky130_fd_sc_hd__xnor2_1
*CAP
1 *2086:A 0.000160342
2 *2074:Y 7.23375e-05
3 *408:8 0.00023268
4 *408:8 *701:72 5.56306e-05
5 *408:8 *761:18 0
6 *319:69 *2086:A 2.93845e-05
7 *333:23 *2086:A 5.78073e-05
*RES
1 *2074:Y *408:8 39.5536 
2 *408:8 *2086:A 40.5271 
*END

*D_NET *409 0.00270033
*CONN
*I *2085:A I *D sky130_fd_sc_hd__and4_1
*I *2075:Y O *D sky130_fd_sc_hd__xnor2_1
*CAP
1 *2085:A 0.00040449
2 *2075:Y 0.000762904
3 *409:8 0.00116739
4 *2085:A *411:8 3.5664e-05
5 *2085:A *414:8 0
6 *2085:A *758:63 0
7 *409:8 *2464:RESET_B 8.08139e-06
8 *2463:D *409:8 0.000298766
9 *217:57 *2085:A 0
10 *219:31 *2085:A 2.30292e-05
*RES
1 *2075:Y *409:8 48.6264 
2 *409:8 *2085:A 44.7529 
*END

*D_NET *410 0.000624107
*CONN
*I *2078:C1 I *D sky130_fd_sc_hd__a221o_1
*I *2076:Y O *D sky130_fd_sc_hd__xnor2_1
*CAP
1 *2078:C1 2.01521e-05
2 *2076:Y 0.00011442
3 *410:8 0.000134572
4 *2078:C1 *2078:B2 9.84851e-05
5 *410:8 *708:67 3.54812e-05
6 *410:8 *737:18 3.62323e-05
7 *2083:B1 *2078:C1 9.84851e-05
8 *237:21 *410:8 8.62783e-05
*RES
1 *2076:Y *410:8 40.2579 
2 *410:8 *2078:C1 39.0979 
*END

*D_NET *411 0.000349151
*CONN
*I *2085:B I *D sky130_fd_sc_hd__and4_1
*I *2077:Y O *D sky130_fd_sc_hd__xnor2_1
*CAP
1 *2085:B 0
2 *2077:Y 7.07908e-05
3 *411:8 7.07908e-05
4 *411:8 *414:8 0.000171906
5 *2085:A *411:8 3.5664e-05
6 *217:57 *411:8 0
*RES
1 *2077:Y *411:8 40.2579 
2 *411:8 *2085:B 38 
*END

*D_NET *412 0.00147721
*CONN
*I *2089:A_N I *D sky130_fd_sc_hd__and4b_1
*I *2078:X O *D sky130_fd_sc_hd__a221o_1
*CAP
1 *2089:A_N 5.23094e-05
2 *2078:X 0.000388268
3 *412:10 0.000440577
4 *2089:A_N *420:14 9.84851e-05
5 *412:10 *2462:RESET_B 0.000139352
6 *412:10 *708:67 1.03955e-05
7 *2462:D *412:10 0.000182826
8 *230:8 *412:10 8.62876e-05
9 *235:14 *412:10 6.17437e-06
10 *362:10 *412:10 6.79006e-05
11 *362:21 *412:10 4.6318e-06
*RES
1 *2078:X *412:10 44.3386 
2 *412:10 *2089:A_N 39.0979 
*END

*D_NET *413 0.00190041
*CONN
*I *2087:B I *D sky130_fd_sc_hd__and3_1
*I *2079:Y O *D sky130_fd_sc_hd__xnor2_1
*CAP
1 *2087:B 0.000589189
2 *2079:Y 0.000280489
3 *413:8 0.000869678
4 *2087:B *421:8 6.07611e-06
5 *2087:B *709:76 0
6 *2087:B *709:87 0
7 *2087:B *709:100 0
8 *2034:A *413:8 2.93845e-05
9 *2034:B *413:8 2.93845e-05
10 *2057:A *2087:B 0
11 *2073:B *2087:B 0
12 *243:10 *2087:B 0
13 *362:21 *2087:B 0
14 *362:34 *2087:B 0
15 *381:8 *413:8 5.50106e-05
16 *407:10 *2087:B 4.1196e-05
*RES
1 *2079:Y *413:8 42.9093 
2 *413:8 *2087:B 48.005 
*END

*D_NET *414 0.00132305
*CONN
*I *2085:C I *D sky130_fd_sc_hd__and4_1
*I *2080:Y O *D sky130_fd_sc_hd__xnor2_1
*CAP
1 *2085:C 0
2 *2080:Y 0.000279881
3 *414:8 0.000279881
4 *414:8 *2085:D 0.000591383
5 *2085:A *414:8 0
6 *411:8 *414:8 0.000171906
*RES
1 *2080:Y *414:8 45.8921 
2 *414:8 *2085:C 38 
*END

*D_NET *415 0.00217674
*CONN
*I *2085:D I *D sky130_fd_sc_hd__and4_1
*I *2081:Y O *D sky130_fd_sc_hd__xnor2_1
*CAP
1 *2085:D 0.000292337
2 *2081:Y 0.000262392
3 *415:8 0.000554729
4 *415:8 *760:81 0.000205566
5 *2063:A2 *2085:D 0.000122304
6 *231:21 *2085:D 0
7 *233:23 *415:8 0.000141954
8 *399:10 *2085:D 6.07611e-06
9 *414:8 *2085:D 0.000591383
*RES
1 *2081:Y *415:8 43.8621 
2 *415:8 *2085:D 46.2443 
*END

*D_NET *416 0.00112533
*CONN
*I *2086:B I *D sky130_fd_sc_hd__and3_1
*I *2082:Y O *D sky130_fd_sc_hd__xnor2_1
*CAP
1 *2086:B 0
2 *2082:Y 0.000299771
3 *416:10 0.000299771
4 *416:10 *761:30 0.000353214
5 *2030:B1 *416:10 8.62876e-05
6 *2030:B2 *416:10 8.62876e-05
*RES
1 *2082:Y *416:10 43.1579 
2 *416:10 *2086:B 38 
*END

*D_NET *417 0.00100453
*CONN
*I *2086:C I *D sky130_fd_sc_hd__and3_1
*I *2083:X O *D sky130_fd_sc_hd__o22a_1
*CAP
1 *2086:C 0
2 *2083:X 0.000307515
3 *417:6 0.000307515
4 *417:6 *2569:A 5.50106e-05
5 *417:6 *420:10 9.75779e-05
6 *319:69 *417:6 0.000236913
*RES
1 *2083:X *417:6 28.6964 
2 *417:6 *2086:C 23 
*END

*D_NET *418 0.0016035
*CONN
*I *2087:C I *D sky130_fd_sc_hd__and3_1
*I *2084:X O *D sky130_fd_sc_hd__o2bb2a_1
*CAP
1 *2087:C 0.000494058
2 *2084:X 0.000119557
3 *418:8 0.000613614
4 *2087:C *2570:A 0.000131919
5 *1965:A *2087:C 1.94812e-05
6 *2033:A2 *418:8 4.34534e-05
7 *240:8 *418:8 8.85189e-05
8 *318:10 *2087:C 4.38068e-06
9 *318:10 *418:8 8.85189e-05
10 *394:10 *418:8 0
11 *394:14 *418:8 0
*RES
1 *2084:X *418:8 40.9621 
2 *418:8 *2087:C 44.4214 
*END

*D_NET *419 0.00349087
*CONN
*I *2091:A I *D sky130_fd_sc_hd__and3_1
*I *2085:X O *D sky130_fd_sc_hd__and4_1
*CAP
1 *2091:A 0
2 *2085:X 0.000130624
3 *419:14 0.000730815
4 *419:8 0.000861439
5 *419:14 *2465:RESET_B 0.00036992
6 *419:14 *2469:CLK 3.22879e-05
7 *419:14 *422:10 9.00651e-05
8 *419:14 *423:10 3.31683e-05
9 *419:14 *709:76 1.47563e-05
10 *419:14 *709:87 3.19083e-05
11 *419:14 *709:100 0.000105072
12 *419:14 *709:113 0.000169665
13 *419:14 *737:89 0
14 *419:14 *759:115 1.20966e-05
15 *419:14 *759:123 9.3287e-05
16 *2073:B *419:14 2.82307e-05
17 *219:31 *419:8 0.000183733
18 *226:8 *419:14 0.000485889
19 *229:10 *419:14 0
20 *243:10 *419:14 3.98859e-05
21 *399:40 *419:14 7.80251e-05
*RES
1 *2085:X *419:8 40.0507 
2 *419:8 *419:14 34.0779 
3 *419:14 *2091:A 23 
*END

*D_NET *420 0.00440277
*CONN
*I *2089:B I *D sky130_fd_sc_hd__and4b_1
*I *2086:X O *D sky130_fd_sc_hd__and3_1
*CAP
1 *2089:B 0
2 *2086:X 0.00014576
3 *420:14 0.000640631
4 *420:10 0.000786391
5 *420:10 *2569:A 0.000164968
6 *420:10 *708:21 1.05441e-05
7 *420:14 *701:72 0.000265091
8 *420:14 *701:89 8.28202e-05
9 *2033:B1_N *420:14 5.50106e-05
10 *2084:A1_N *420:14 1.37702e-05
11 *2089:A_N *420:14 9.84851e-05
12 *220:31 *420:14 0.0017497
13 *223:10 *420:10 0.000162803
14 *235:28 *420:14 5.02025e-05
15 *237:38 *420:14 2.57173e-05
16 *319:77 *420:14 5.3304e-05
17 *417:6 *420:10 9.75779e-05
*RES
1 *2086:X *420:10 41.3557 
2 *420:10 *420:14 34.6786 
3 *420:14 *2089:B 23 
*END

*D_NET *421 0.000484496
*CONN
*I *2089:C I *D sky130_fd_sc_hd__and4b_1
*I *2087:X O *D sky130_fd_sc_hd__and3_1
*CAP
1 *2089:C 2.9437e-05
2 *2087:X 0.000128665
3 *421:8 0.000158103
4 *2089:C *2089:D 2.55612e-05
5 *421:8 *709:76 3.81742e-05
6 *2087:B *421:8 6.07611e-06
7 *220:31 *2089:C 9.84794e-05
8 *362:21 *421:8 0
*RES
1 *2087:X *421:8 39.9057 
2 *421:8 *2089:C 39.0979 
*END

*D_NET *422 0.00128885
*CONN
*I *2089:D I *D sky130_fd_sc_hd__and4b_1
*I *2088:X O *D sky130_fd_sc_hd__xor2_1
*CAP
1 *2089:D 0.000109986
2 *2088:X 0.000157896
3 *422:10 0.000267882
4 *2089:D *423:10 0.00026626
5 *422:10 *737:89 6.49713e-05
6 *422:10 *759:123 2.93845e-05
7 *2089:C *2089:D 2.55612e-05
8 *220:31 *2089:D 0.000276841
9 *419:14 *422:10 9.00651e-05
*RES
1 *2088:X *422:10 41.2314 
2 *422:10 *2089:D 41.827 
*END

*D_NET *423 0.00114953
*CONN
*I *2091:B I *D sky130_fd_sc_hd__and3_1
*I *2089:X O *D sky130_fd_sc_hd__and4b_1
*CAP
1 *2091:B 0
2 *2089:X 0.000380642
3 *423:10 0.000380642
4 *423:10 *424:8 5.55278e-05
5 *423:10 *709:65 0
6 *423:10 *709:76 0
7 *2089:D *423:10 0.00026626
8 *220:31 *423:10 2.18409e-05
9 *244:10 *423:10 1.14452e-05
10 *406:8 *423:10 0
11 *419:14 *423:10 3.31683e-05
*RES
1 *2089:X *423:10 44.4421 
2 *423:10 *2091:B 38 
*END

*D_NET *424 0.00052708
*CONN
*I *2091:C I *D sky130_fd_sc_hd__and3_1
*I *2090:Y O *D sky130_fd_sc_hd__xnor2_1
*CAP
1 *2091:C 5.33177e-05
2 *2090:Y 0.000117235
3 *424:8 0.000170553
4 *2091:C *2469:CLK 4.41689e-05
5 *424:8 *754:130 0
6 *244:10 *424:8 8.62783e-05
7 *423:10 *424:8 5.55278e-05
*RES
1 *2090:Y *424:8 40.61 
2 *424:8 *2091:C 38.9321 
*END

*D_NET *425 0.00141567
*CONN
*I *2108:C1 I *D sky130_fd_sc_hd__o221a_1
*I *2093:Y O *D sky130_fd_sc_hd__nand2b_1
*CAP
1 *2108:C1 0
2 *2093:Y 0.000599237
3 *425:10 0.000599237
4 *425:10 *772:DIODE 1.73399e-05
5 *425:10 *439:10 0
6 *425:10 *445:20 0
7 *425:10 *705:86 0
8 *425:10 *705:102 0
9 *425:10 *738:133 0
10 *320:46 *425:10 0.000178671
11 *322:30 *425:10 2.11827e-05
*RES
1 *2093:Y *425:10 48.9786 
2 *425:10 *2108:C1 38 
*END

*D_NET *426 0.00125949
*CONN
*I *2107:B1 I *D sky130_fd_sc_hd__o2111a_1
*I *2094:Y O *D sky130_fd_sc_hd__nand2b_1
*CAP
1 *2107:B1 0
2 *2094:Y 0.000329754
3 *426:10 0.000329754
4 *426:10 *438:24 0.000136743
5 *426:10 *738:133 0
6 *2097:A_N *426:10 1.69668e-05
7 *187:53 *426:10 8.58484e-05
8 *190:10 *426:10 0.000286524
9 *190:40 *426:10 7.39034e-05
*RES
1 *2094:Y *426:10 44.6493 
2 *426:10 *2107:B1 38 
*END

*D_NET *427 0.00063218
*CONN
*I *2105:B1 I *D sky130_fd_sc_hd__o2111a_1
*I *2095:Y O *D sky130_fd_sc_hd__nand2b_1
*CAP
1 *2105:B1 0
2 *2095:Y 0.000213218
3 *427:10 0.000213218
4 *427:10 *494:12 0
5 *2110:B2 *427:10 0.000182826
6 *319:34 *427:10 2.29192e-05
*RES
1 *2095:Y *427:10 41.2521 
2 *427:10 *2105:B1 38 
*END

*D_NET *428 0.000480624
*CONN
*I *2107:C1 I *D sky130_fd_sc_hd__o2111a_1
*I *2096:Y O *D sky130_fd_sc_hd__nand2b_1
*CAP
1 *2107:C1 0.000124196
2 *2096:Y 0.000124196
3 *2107:C1 *2107:D1 2.93845e-05
4 *2107:C1 *759:66 0.000147837
5 *187:53 *2107:C1 5.50106e-05
*RES
1 *2096:Y *2107:C1 48.5271 
*END

*D_NET *429 0.00162584
*CONN
*I *2105:C1 I *D sky130_fd_sc_hd__o2111a_1
*I *2097:Y O *D sky130_fd_sc_hd__nand2b_1
*CAP
1 *2105:C1 0
2 *2097:Y 0.000623536
3 *429:10 0.000623536
4 *429:10 *2097:B 2.64616e-05
5 *429:10 *438:16 0.000228909
6 *429:10 *451:27 0
7 *429:10 *494:12 0
8 *429:10 *761:139 5.12254e-05
9 *2094:A_N *429:10 0
10 *2525:D *429:10 1.03955e-05
11 *319:34 *429:10 0
12 *319:40 *429:10 0
13 *320:56 *429:10 6.17745e-05
*RES
1 *2097:Y *429:10 47.5079 
2 *429:10 *2105:C1 38 
*END

*D_NET *430 0.000439653
*CONN
*I *2104:C1 I *D sky130_fd_sc_hd__o221a_1
*I *2098:Y O *D sky130_fd_sc_hd__xnor2_1
*CAP
1 *2104:C1 0.000151458
2 *2098:Y 0.000151458
3 *2098:B *2104:C1 0.000136738
4 *330:8 *2104:C1 0
*RES
1 *2098:Y *2104:C1 49.045 
*END

*D_NET *431 0.000277826
*CONN
*I *2113:B1 I *D sky130_fd_sc_hd__a21oi_1
*I *2099:X O *D sky130_fd_sc_hd__xor2_1
*CAP
1 *2113:B1 0
2 *2099:X 9.51086e-05
3 *431:8 9.51086e-05
4 *431:8 *443:10 8.76088e-05
5 *194:32 *431:8 0
*RES
1 *2099:X *431:8 40.2579 
2 *431:8 *2113:B1 38 
*END

*D_NET *432 0.00147985
*CONN
*I *2105:D1 I *D sky130_fd_sc_hd__o2111a_1
*I *2100:Y O *D sky130_fd_sc_hd__nand2b_1
*CAP
1 *2105:D1 0
2 *2100:Y 0.00050788
3 *432:8 0.00050788
4 *432:8 *760:34 0.000101877
5 *2105:A2 *432:8 6.85921e-05
6 *2179:A *432:8 2.4754e-05
7 *201:35 *432:8 0.000268868
*RES
1 *2100:Y *432:8 32.57 
2 *432:8 *2105:D1 23 
*END

*D_NET *433 0.000679481
*CONN
*I *2107:D1 I *D sky130_fd_sc_hd__o2111a_1
*I *2101:Y O *D sky130_fd_sc_hd__nand2b_1
*CAP
1 *2107:D1 0.000125729
2 *2101:Y 0.000125729
3 *2107:D1 *759:66 0.000301095
4 *2107:A1 *2107:D1 1.21972e-05
5 *2107:C1 *2107:D1 2.93845e-05
6 *187:53 *2107:D1 8.5346e-05
*RES
1 *2101:Y *2107:D1 49.5007 
*END

*D_NET *434 0.00108193
*CONN
*I *2103:C1 I *D sky130_fd_sc_hd__o221a_1
*I *2102:Y O *D sky130_fd_sc_hd__xnor2_1
*CAP
1 *2103:C1 1.24964e-05
2 *2102:Y 0.000288328
3 *434:10 0.000300824
4 *434:10 *451:82 0.000135547
5 *434:10 *716:18 6.43253e-05
6 *434:10 *736:31 9.84851e-05
7 *434:10 *763:14 0
8 *2103:A2 *2103:C1 3.22879e-05
9 *2173:B2 *2103:C1 5.50106e-05
10 *336:21 *434:10 9.46211e-05
*RES
1 *2102:Y *434:10 43.8207 
2 *434:10 *2103:C1 38.6214 
*END

*D_NET *435 0.00096917
*CONN
*I *2106:B1 I *D sky130_fd_sc_hd__o2111a_1
*I *2103:X O *D sky130_fd_sc_hd__o221a_1
*CAP
1 *2106:B1 0
2 *2103:X 0.000202672
3 *435:10 0.000202672
4 *435:10 *436:10 8.62783e-05
5 *435:10 *470:27 0.000181504
6 *435:10 *499:22 0.000285519
7 *2173:B2 *435:10 1.05235e-05
*RES
1 *2103:X *435:10 42.64 
2 *435:10 *2106:B1 38 
*END

*D_NET *436 0.000521122
*CONN
*I *2106:C1 I *D sky130_fd_sc_hd__o2111a_1
*I *2104:X O *D sky130_fd_sc_hd__o221a_1
*CAP
1 *2106:C1 0
2 *2104:X 0.000127197
3 *436:10 0.000127197
4 *436:10 *470:27 8.62783e-05
5 *330:8 *436:10 9.41704e-05
6 *435:10 *436:10 8.62783e-05
*RES
1 *2104:X *436:10 40.2993 
2 *436:10 *2106:C1 38 
*END

*D_NET *437 0.00268377
*CONN
*I *2106:D1 I *D sky130_fd_sc_hd__o2111a_1
*I *2105:X O *D sky130_fd_sc_hd__o2111a_1
*CAP
1 *2106:D1 0
2 *2105:X 0.00117238
3 *437:16 0.00117238
4 *437:16 *2154:A 2.02872e-05
5 *437:16 *2523:RESET_B 9.81774e-05
6 *437:16 *708:96 6.28737e-05
7 *202:6 *437:16 0.000134453
8 *202:19 *437:16 2.32101e-05
*RES
1 *2105:X *437:16 39.095 
2 *437:16 *2106:D1 23 
*END

*D_NET *438 0.00880098
*CONN
*I *2118:A1 I *D sky130_fd_sc_hd__a21o_1
*I *2120:A1 I *D sky130_fd_sc_hd__a31o_1
*I *2106:X O *D sky130_fd_sc_hd__o2111a_1
*CAP
1 *2118:A1 0
2 *2120:A1 4.07831e-05
3 *2106:X 0.000144054
4 *438:39 0.000159134
5 *438:24 0.00116833
6 *438:16 0.00171126
7 *438:8 0.000886892
8 *2120:A1 *2120:A2 5.67058e-05
9 *2120:A1 *2120:A3 2.4754e-05
10 *2120:A1 *451:12 9.84794e-05
11 *438:8 *708:29 3.54739e-05
12 *438:8 *708:96 0.000275938
13 *438:16 *2162:A 9.84851e-05
14 *438:16 *451:27 3.63562e-05
15 *438:16 *451:74 0.000114856
16 *438:16 *475:20 0.000435854
17 *438:16 *500:16 0.000434159
18 *438:16 *708:35 0.000387169
19 *438:24 *2094:B 2.57636e-05
20 *438:24 *2120:A2 0.000128723
21 *438:24 *451:12 9.84851e-05
22 *438:24 *451:27 0.00066425
23 *438:39 *2118:A2 4.5942e-05
24 *438:39 *2120:A2 3.21327e-05
25 *438:39 *451:12 0.000145915
26 *2094:A_N *438:24 5.67058e-05
27 *2098:B *438:8 1.05441e-05
28 *2525:D *438:16 0.000146971
29 *161:57 *438:39 1.02387e-05
30 *187:64 *438:16 2.06822e-05
31 *188:12 *438:8 0.000311412
32 *192:10 *438:39 4.08641e-05
33 *204:23 *438:16 2.4754e-05
34 *320:46 *438:24 0.000383051
35 *320:56 *438:16 0.000180212
36 *426:10 *438:24 0.000136743
37 *429:10 *438:16 0.000228909
*RES
1 *2106:X *438:8 42.3707 
2 *438:8 *438:16 48.7257 
3 *438:16 *438:24 37.4543 
4 *438:24 *2120:A1 24.595 
5 *438:24 *438:39 34.3707 
6 *438:39 *2118:A1 23 
*END

*D_NET *439 0.00129075
*CONN
*I *2114:A I *D sky130_fd_sc_hd__and4_1
*I *2107:X O *D sky130_fd_sc_hd__o2111a_1
*CAP
1 *2114:A 0
2 *2107:X 0.000365487
3 *439:10 0.000365487
4 *439:10 *738:133 0.000530399
5 *189:50 *439:10 2.93747e-05
6 *425:10 *439:10 0
*RES
1 *2107:X *439:10 45.8093 
2 *439:10 *2114:A 38 
*END

*D_NET *440 0.000456067
*CONN
*I *2114:B I *D sky130_fd_sc_hd__and4_1
*I *2108:X O *D sky130_fd_sc_hd__o221a_1
*CAP
1 *2114:B 0
2 *2108:X 0.000122949
3 *440:10 0.000122949
4 *440:10 *442:10 8.62783e-05
5 *440:10 *738:133 2.54046e-05
6 *322:30 *440:10 9.84851e-05
*RES
1 *2108:X *440:10 40.2993 
2 *440:10 *2114:B 38 
*END

*D_NET *441 0.00859833
*CONN
*I *2110:C1 I *D sky130_fd_sc_hd__a221oi_1
*I *2109:X O *D sky130_fd_sc_hd__xor2_1
*CAP
1 *2110:C1 0
2 *2109:X 0.000103681
3 *441:16 0.00217045
4 *441:12 0.00254981
5 *441:8 0.000483042
6 *441:12 *2021:B1 4.23714e-05
7 *441:12 *736:8 2.47097e-05
8 *441:12 *736:10 5.08899e-05
9 *441:12 *736:12 2.96909e-05
10 *441:12 *756:196 0.000767924
11 *441:12 *756:205 6.38845e-05
12 *2024:B2 *441:16 0.000111544
13 *2095:B *441:16 7.68955e-06
14 *2109:B *441:8 2.32101e-05
15 *2110:A2 *441:16 0
16 *2110:B2 *441:16 0.000269915
17 *198:18 *441:8 0.000140259
18 *219:39 *441:12 0
19 *331:27 *441:12 3.81451e-05
20 *332:16 *441:16 0.00169149
21 *332:46 *441:12 2.96154e-05
22 *332:54 *441:12 0
*RES
1 *2109:X *441:8 40.0507 
2 *441:8 *441:12 26.0614 
3 *441:12 *441:16 31.3614 
4 *441:16 *2110:C1 23 
*END

*D_NET *442 0.000983349
*CONN
*I *2114:C I *D sky130_fd_sc_hd__and4_1
*I *2110:Y O *D sky130_fd_sc_hd__a221oi_1
*CAP
1 *2114:C 0
2 *2110:Y 0.000171383
3 *442:10 0.000171383
4 *442:10 *2108:A1 7.33614e-05
5 *442:10 *445:20 0.000165583
6 *442:10 *738:133 0
7 *2108:B1 *442:10 0.000223704
8 *322:30 *442:10 9.16556e-05
9 *440:10 *442:10 8.62783e-05
*RES
1 *2110:Y *442:10 42.785 
2 *442:10 *2114:C 38 
*END

*D_NET *443 0.00090626
*CONN
*I *2113:A1 I *D sky130_fd_sc_hd__a21oi_1
*I *2111:Y O *D sky130_fd_sc_hd__nand2_1
*CAP
1 *2113:A1 0
2 *2111:Y 0.00028893
3 *443:10 0.00028893
4 *443:10 *1967:A 0
5 *443:10 *2111:A 5.41288e-05
6 *443:10 *444:10 0.000171906
7 *443:10 *716:58 1.47563e-05
8 *443:10 *727:12 0
9 *2111:B *443:10 0
10 *194:32 *443:10 0
11 *431:8 *443:10 8.76088e-05
*RES
1 *2111:Y *443:10 44.1729 
2 *443:10 *2113:A1 38 
*END

*D_NET *444 0.00127809
*CONN
*I *2113:A2 I *D sky130_fd_sc_hd__a21oi_1
*I *2112:X O *D sky130_fd_sc_hd__or2_1
*CAP
1 *2113:A2 0
2 *2112:X 0.000307528
3 *444:10 0.000307528
4 *444:10 *716:52 0.000313255
5 *444:10 *716:58 0.000169665
6 *2099:B *444:10 6.17437e-06
7 *2112:B *444:10 2.03764e-06
8 *443:10 *444:10 0.000171906
*RES
1 *2112:X *444:10 44.2143 
2 *444:10 *2113:A2 38 
*END

*D_NET *445 0.00379722
*CONN
*I *2114:D I *D sky130_fd_sc_hd__and4_1
*I *2113:Y O *D sky130_fd_sc_hd__a21oi_1
*CAP
1 *2114:D 0
2 *2113:Y 0.00049198
3 *445:20 0.000494996
4 *445:12 0.000986975
5 *445:12 *1967:A 5.67058e-05
6 *445:12 *2135:B 2.47702e-05
7 *445:12 *461:14 0.000139346
8 *445:12 *738:65 1.59094e-05
9 *445:20 *2108:A1 3.1858e-05
10 *445:20 *461:14 0.000299169
11 *445:20 *484:8 0.000114092
12 *445:20 *711:10 0.000104602
13 *445:20 *716:78 0
14 *445:20 *738:65 0.000401816
15 *445:20 *738:131 6.16439e-05
16 *2167:A *445:20 0.00012323
17 *2178:B *445:20 2.94741e-05
18 *209:10 *445:12 9.84851e-05
19 *319:23 *445:20 6.71386e-05
20 *322:30 *445:20 8.94487e-05
21 *425:10 *445:20 0
22 *442:10 *445:20 0.000165583
*RES
1 *2113:Y *445:12 46.3789 
2 *445:12 *445:20 28.5886 
3 *445:20 *2114:D 23 
*END

*D_NET *446 0.00308396
*CONN
*I *2118:A2 I *D sky130_fd_sc_hd__a21o_1
*I *2120:A2 I *D sky130_fd_sc_hd__a31o_1
*I *2114:X O *D sky130_fd_sc_hd__and4_1
*CAP
1 *2118:A2 0.000181269
2 *2120:A2 0.00014853
3 *2114:X 0.000687097
4 *446:8 0.0010169
5 *2118:A2 *2123:A 8.13892e-05
6 *2118:A2 *2514:RESET_B 6.26356e-05
7 *2118:A2 *751:96 0
8 *2120:A2 *2120:A3 5.67058e-05
9 *2120:A2 *2514:RESET_B 6.08751e-05
10 *446:8 *2514:CLK 1.76557e-05
11 *446:8 *751:96 2.60093e-05
12 *1982:A *2118:A2 5.3304e-05
13 *2105:A2 *446:8 2.13733e-05
14 *2120:A1 *2120:A2 5.67058e-05
15 *161:57 *2120:A2 0
16 *192:10 *2118:A2 0.000133316
17 *192:47 *446:8 2.75503e-05
18 *201:18 *2118:A2 2.88979e-05
19 *201:35 *446:8 0.000216949
20 *438:24 *2120:A2 0.000128723
21 *438:39 *2118:A2 4.5942e-05
22 *438:39 *2120:A2 3.21327e-05
*RES
1 *2114:X *446:8 47.6736 
2 *446:8 *2120:A2 41.9564 
3 *446:8 *2118:A2 42.7643 
*END

*D_NET *447 0.00760875
*CONN
*I *2119:A2 I *D sky130_fd_sc_hd__o211a_1
*I *2117:B I *D sky130_fd_sc_hd__nand2_1
*I *2120:A3 I *D sky130_fd_sc_hd__a31o_1
*I *2188:B1_N I *D sky130_fd_sc_hd__o21bai_1
*I *2191:A2_N I *D sky130_fd_sc_hd__o2bb2a_1
*I *2115:Y O *D sky130_fd_sc_hd__nor3b_2
*CAP
1 *2119:A2 9.75126e-05
2 *2117:B 0
3 *2120:A3 0.000355396
4 *2188:B1_N 0
5 *2191:A2_N 4.99221e-05
6 *2115:Y 0.000210432
7 *447:52 0.000385555
8 *447:50 0.000488482
9 *447:41 0.000143499
10 *447:33 0.000495554
11 *447:14 0.000969767
12 *447:12 0.0009286
13 *447:10 0.000210432
14 *2191:A2_N *506:10 5.3304e-05
15 *447:10 *741:26 0.000449875
16 *447:14 *506:10 0.000176497
17 *447:14 *750:14 5.85822e-06
18 *447:33 *504:14 7.47881e-05
19 *447:33 *508:10 8.4047e-05
20 *447:41 *504:28 5.41288e-05
21 *447:41 *505:16 4.74706e-05
22 *447:50 *2583:A 0.000194908
23 *2116:D *2120:A3 9.75779e-05
24 *2119:A1 *2119:A2 0.000138727
25 *2119:A1 *447:52 5.33597e-05
26 *2120:A1 *2120:A3 2.4754e-05
27 *2120:A2 *2120:A3 5.67058e-05
28 *2187:B *447:14 7.80291e-06
29 *2187:B *447:33 0
30 *2190:B *447:33 0.000315268
31 *2190:B *447:41 7.80035e-05
32 *2191:B2 *447:14 5.0633e-05
33 *110:14 *447:33 4.67488e-05
34 *110:14 *447:41 1.12487e-05
35 *161:23 *447:33 5.94125e-05
36 *162:10 *447:41 0.000193737
37 *163:16 *447:10 2.93845e-05
38 *163:30 *447:33 4.09412e-06
39 *163:30 *447:41 0.000144119
40 *164:59 *447:14 0.000149925
41 *177:33 *2120:A3 0
42 *177:33 *447:10 0.000356554
43 *177:33 *447:33 0
44 *187:19 *2120:A3 0.000249918
45 *187:19 *447:52 1.14452e-05
46 *316:6 *447:10 5.3304e-05
*RES
1 *2115:Y *447:10 44.7529 
2 *447:10 *447:12 15 
3 *447:12 *447:14 8.24429 
4 *447:14 *2191:A2_N 23.6214 
5 *447:14 *447:33 37.6436 
6 *447:33 *447:41 34.4121 
7 *447:41 *2188:B1_N 23 
8 *447:12 *447:50 20.3857 
9 *447:50 *447:52 0.849286 
10 *447:52 *2120:A3 45.7471 
11 *447:52 *2117:B 38 
12 *447:50 *2119:A2 39.9057 
*END

*D_NET *448 0.00426186
*CONN
*I *2128:D I *D sky130_fd_sc_hd__and4_1
*I *2124:C I *D sky130_fd_sc_hd__and3_1
*I *2122:B I *D sky130_fd_sc_hd__nor2_1
*I *2116:X O *D sky130_fd_sc_hd__and4bb_1
*CAP
1 *2128:D 0.00015994
2 *2124:C 6.18147e-05
3 *2122:B 7.77378e-05
4 *2116:X 0.000266905
5 *448:35 0.000352911
6 *448:16 0.000733006
7 *448:8 0.00105333
8 *2122:B *2123:C 0
9 *2122:B *751:96 6.24638e-05
10 *448:8 *2121:B 8.16356e-05
11 *448:8 *449:8 6.6869e-05
12 *448:8 *451:12 4.06408e-05
13 *448:8 *752:47 0.000169674
14 *448:16 *2121:B 0.00011641
15 *448:16 *2170:B1 4.27353e-05
16 *448:16 *705:115 0
17 *448:16 *738:23 0.000221079
18 *448:35 *2121:B 2.70366e-05
19 *448:35 *451:12 2.89463e-05
20 *448:35 *452:14 4.08537e-05
21 *448:35 *738:14 0
22 *1982:A *2122:B 8.77152e-06
23 *2119:A1 *448:8 1.80023e-05
24 *2121:A *448:16 2.98648e-05
25 *2124:A *2124:C 8.61932e-05
26 *2124:A *2128:D 5.50106e-05
27 *161:57 *448:8 9.35072e-05
28 *187:19 *448:8 5.26101e-05
29 *192:31 *2128:D 0.000169595
30 *201:18 *2122:B 3.5642e-05
31 *206:18 *448:16 0.000108681
*RES
1 *2116:X *448:8 44.8357 
2 *448:8 *448:16 39.3214 
3 *448:16 *2122:B 40.1129 
4 *448:8 *448:35 17.9621 
5 *448:35 *2124:C 23.9632 
6 *448:35 *2128:D 25.5271 
*END

*D_NET *449 0.00195791
*CONN
*I *2121:B I *D sky130_fd_sc_hd__nor2_1
*I *2118:B1 I *D sky130_fd_sc_hd__a21o_1
*I *2117:Y O *D sky130_fd_sc_hd__nand2_1
*CAP
1 *2121:B 0.000345911
2 *2118:B1 8.56161e-05
3 *2117:Y 6.1675e-05
4 *449:8 0.000493202
5 *2118:B1 *2119:B1 0.000139357
6 *2121:B *452:14 7.9199e-05
7 *2121:B *738:23 9.67842e-05
8 *2119:A1 *449:8 0.000140958
9 *161:57 *2118:B1 0.000181131
10 *201:18 *2118:B1 4.21281e-05
11 *448:8 *2121:B 8.16356e-05
12 *448:8 *449:8 6.6869e-05
13 *448:16 *2121:B 0.00011641
14 *448:35 *2121:B 2.70366e-05
*RES
1 *2117:Y *449:8 39.9057 
2 *449:8 *2118:B1 40.5271 
3 *449:8 *2121:B 45.8921 
*END

*D_NET *450 0.000647104
*CONN
*I *2119:B1 I *D sky130_fd_sc_hd__o211a_1
*I *2118:X O *D sky130_fd_sc_hd__a21o_1
*CAP
1 *2119:B1 0.000174912
2 *2118:X 0.000174912
3 *2118:B1 *2119:B1 0.000139357
4 *161:57 *2119:B1 0.000102913
5 *201:18 *2119:B1 5.50106e-05
*RES
1 *2118:X *2119:B1 49.5007 
*END

*D_NET *451 0.0166811
*CONN
*I *2147:A I *D sky130_fd_sc_hd__or3_1
*I *2153:A I *D sky130_fd_sc_hd__or3_1
*I *2157:A I *D sky130_fd_sc_hd__or3_1
*I *2161:A I *D sky130_fd_sc_hd__or3_1
*I *2572:A I *D sky130_fd_sc_hd__buf_2
*I *2120:X O *D sky130_fd_sc_hd__a31o_1
*CAP
1 *2147:A 0.00010979
2 *2153:A 7.08401e-05
3 *2157:A 2.1727e-05
4 *2161:A 2.3577e-05
5 *2572:A 0
6 *2120:X 0
7 *451:82 0.0010158
8 *451:74 0.00114358
9 *451:57 0.000631336
10 *451:44 0.000846382
11 *451:27 0.0021512
12 *451:12 0.000438467
13 *451:4 0.00206436
14 *2147:A *469:8 6.38845e-05
15 *2147:A *470:27 0.000105072
16 *2147:A *763:14 0.000137163
17 *2153:A *2153:C 9.41704e-05
18 *2153:A *2155:B 9.67842e-05
19 *2157:A *478:8 4.00259e-06
20 *2161:A *477:45 5.50106e-05
21 *451:12 *738:14 3.20914e-05
22 *451:27 *2186:A1 4.72367e-05
23 *451:27 *479:10 0.000136486
24 *451:27 *481:35 0
25 *451:27 *497:8 1.01436e-05
26 *451:27 *731:22 8.72173e-05
27 *451:27 *731:36 0.000316555
28 *451:27 *761:126 2.5343e-05
29 *451:27 *761:139 0.000114041
30 *451:44 *2186:A1 6.07611e-06
31 *451:44 *477:24 5.12254e-05
32 *451:44 *477:45 0
33 *451:44 *478:8 0.000182826
34 *451:44 *479:10 1.40759e-05
35 *451:44 *481:10 0
36 *451:44 *482:10 0.0001404
37 *451:44 *502:10 0.000184527
38 *451:44 *759:102 2.32004e-05
39 *451:44 *761:126 0
40 *451:57 *776:DIODE 0.000374674
41 *451:57 *474:8 3.06852e-05
42 *451:57 *477:10 0.000132925
43 *451:57 *477:14 0.000126847
44 *451:57 *477:24 2.32101e-05
45 *451:57 *752:73 0
46 *451:57 *759:31 5.94125e-05
47 *451:57 *761:102 6.7177e-06
48 *451:74 *475:8 5.24537e-05
49 *451:74 *708:35 0.000135037
50 *451:74 *759:31 0.000198321
51 *451:74 *761:102 5.91593e-05
52 *451:82 *716:18 6.32688e-05
53 *451:82 *729:24 0.00034721
54 *2094:A_N *451:27 3.97296e-05
55 *2101:B *451:27 4.19124e-05
56 *2104:B1 *451:82 0.000193411
57 *2120:A1 *451:12 9.84794e-05
58 *2159:A *451:27 0
59 *2183:A1 *451:57 6.10781e-05
60 *2526:D *451:44 2.30292e-05
61 *161:57 *451:12 0.000376242
62 *187:64 *451:74 0.000306338
63 *187:64 *451:82 0.000844017
64 *189:35 *2153:A 9.62666e-05
65 *192:10 *451:12 0
66 *192:31 *451:12 0
67 *196:25 *451:82 0
68 *200:47 *451:82 9.5359e-05
69 *205:21 *451:44 0.000107748
70 *215:12 *2161:A 2.64616e-05
71 *320:46 *451:27 0.000950642
72 *320:66 *451:74 2.4754e-05
73 *330:20 *451:57 7.6144e-05
74 *429:10 *451:27 0
75 *434:10 *451:82 0.000135547
76 *438:16 *451:27 3.63562e-05
77 *438:16 *451:74 0.000114856
78 *438:24 *451:12 9.84851e-05
79 *438:24 *451:27 0.00066425
80 *438:39 *451:12 0.000145915
81 *448:8 *451:12 4.06408e-05
82 *448:35 *451:12 2.89463e-05
*RES
1 *2120:X *451:4 23 
2 *451:4 *451:12 39.9429 
3 *451:12 *2572:A 23 
4 *451:4 *451:27 43.7929 
5 *451:27 *2161:A 38.6214 
6 *451:27 *451:44 25.9993 
7 *451:44 *2157:A 23.4971 
8 *451:44 *451:57 23.0786 
9 *451:57 *2153:A 40.0507 
10 *451:57 *451:74 36.9186 
11 *451:74 *451:82 47.4829 
12 *451:82 *2147:A 41.6664 
*END

*D_NET *452 0.00229733
*CONN
*I *2123:B I *D sky130_fd_sc_hd__nor3_1
*I *2125:B I *D sky130_fd_sc_hd__nor2_1
*I *2121:Y O *D sky130_fd_sc_hd__nor2_1
*CAP
1 *2123:B 0
2 *2125:B 0
3 *2121:Y 0
4 *452:27 0.000152896
5 *452:14 0.000392385
6 *452:4 0.000545281
7 *452:14 *455:8 0.000315852
8 *452:14 *738:14 3.35885e-05
9 *452:14 *738:23 8.06804e-06
10 *452:27 *2123:A 0.000137238
11 *452:27 *738:23 5.61255e-06
12 *452:27 *738:42 0.000102005
13 *2121:A *452:27 6.17437e-06
14 *2121:B *452:14 7.9199e-05
15 *2124:A *452:14 0.000230604
16 *2128:B *452:14 1.01436e-05
17 *192:31 *452:14 5.50049e-05
18 *192:31 *452:27 6.11521e-05
19 *206:12 *452:27 0.000121278
20 *448:35 *452:14 4.08537e-05
*RES
1 *2121:Y *452:4 23 
2 *452:4 *452:14 38.3893 
3 *452:14 *2125:B 23 
4 *452:4 *452:27 33.9357 
5 *452:27 *2123:B 23 
*END

*D_NET *453 0.000798646
*CONN
*I *2123:C I *D sky130_fd_sc_hd__nor3_1
*I *2122:Y O *D sky130_fd_sc_hd__nor2_1
*CAP
1 *2123:C 5.76328e-05
2 *2122:Y 0.000120287
3 *453:12 0.00017792
4 *2123:C *2123:A 4.77554e-05
5 *453:12 *751:96 2.11066e-05
6 *1982:A *2123:C 5.99831e-05
7 *2121:A *453:12 1.38338e-05
8 *2122:B *2123:C 0
9 *201:18 *2123:C 3.31306e-05
10 *206:12 *453:12 5.31565e-05
11 *206:18 *453:12 4.73716e-05
12 *335:22 *2123:C 4.51431e-05
13 *335:22 *453:12 0.000121324
*RES
1 *2122:Y *453:12 46.9868 
2 *453:12 *2123:C 47.6054 
*END

*D_NET *454 0.00138613
*CONN
*I *2126:B I *D sky130_fd_sc_hd__or3_1
*I *2129:B I *D sky130_fd_sc_hd__nor2_1
*I *2124:X O *D sky130_fd_sc_hd__and3_1
*CAP
1 *2126:B 7.85561e-05
2 *2129:B 0
3 *2124:X 0.000206405
4 *454:12 6.95969e-05
5 *454:6 0.000354558
6 *2126:B *457:12 4.17736e-05
7 *2126:B *457:23 5.50106e-05
8 *454:6 *455:8 1.56762e-05
9 *454:6 *457:12 9.5877e-05
10 *454:12 *738:14 0.000163361
11 *2128:C *454:12 0.000163361
12 *193:23 *454:6 0.000141954
*RES
1 *2124:X *454:6 26.0036 
2 *454:6 *454:12 32.2579 
3 *454:12 *2129:B 23 
4 *454:6 *2126:B 24.0979 
*END

*D_NET *455 0.00141437
*CONN
*I *2126:C I *D sky130_fd_sc_hd__or3_1
*I *2125:Y O *D sky130_fd_sc_hd__nor2_1
*CAP
1 *2126:C 0
2 *2125:Y 0.000159168
3 *455:8 0.000159168
4 *455:8 *457:12 0.000139352
5 *455:8 *457:23 4.2573e-05
6 *2125:A *455:8 0.000187129
7 *2128:C *455:8 0.000139352
8 *192:31 *455:8 4.04303e-05
9 *193:23 *455:8 0.000215671
10 *452:14 *455:8 0.000315852
11 *454:6 *455:8 1.56762e-05
*RES
1 *2125:Y *455:8 30.3121 
2 *455:8 *2126:C 23 
*END

*D_NET *456 0.00369604
*CONN
*I *2168:A2 I *D sky130_fd_sc_hd__o22ai_1
*I *2127:A I *D sky130_fd_sc_hd__inv_2
*I *2170:B1 I *D sky130_fd_sc_hd__a221o_1
*I *2126:X O *D sky130_fd_sc_hd__or3_1
*CAP
1 *2168:A2 0.000163653
2 *2127:A 0.000581472
3 *2170:B1 0.000505134
4 *2126:X 4.99221e-05
5 *456:23 0.000810805
6 *456:8 0.000620736
7 *2127:A *2130:C 4.67488e-05
8 *2127:A *738:14 3.16665e-05
9 *2170:B1 *487:8 6.16439e-05
10 *2170:B1 *488:14 0.000187299
11 *2170:B1 *705:115 0
12 *2170:B1 *738:42 0.000169674
13 *456:8 *457:23 5.3304e-05
14 *456:23 *487:8 8.4047e-05
15 *1990:B *2127:A 0
16 *2121:A *2170:B1 5.50049e-05
17 *2168:B1 *2168:A2 2.9938e-05
18 *2169:A *2168:A2 8.1796e-05
19 *2170:A1 *2170:B1 9.8971e-06
20 *2170:A2 *2170:B1 3.32734e-05
21 *207:10 *2127:A 1.56662e-06
22 *208:14 *2127:A 7.1851e-06
23 *208:23 *2127:A 4.55057e-05
24 *208:23 *2168:A2 5.37348e-06
25 *209:22 *2168:A2 0
26 *209:22 *2170:B1 0
27 *320:18 *2168:A2 1.76557e-05
28 *448:16 *2170:B1 4.27353e-05
*RES
1 *2126:X *456:8 38.6214 
2 *456:8 *2170:B1 48.1293 
3 *456:8 *456:23 16.2014 
4 *456:23 *2127:A 31.0164 
5 *456:23 *2168:A2 26.5007 
*END

*D_NET *457 0.00598101
*CONN
*I *2140:D I *D sky130_fd_sc_hd__and4_1
*I *2137:C I *D sky130_fd_sc_hd__and3_1
*I *2131:B I *D sky130_fd_sc_hd__nand2_1
*I *2133:B I *D sky130_fd_sc_hd__or2_1
*I *2130:B I *D sky130_fd_sc_hd__nor3_1
*I *2128:X O *D sky130_fd_sc_hd__and4_1
*CAP
1 *2140:D 0
2 *2137:C 0
3 *2131:B 8.88193e-06
4 *2133:B 0
5 *2130:B 0
6 *2128:X 0
7 *457:64 7.4112e-05
8 *457:53 0.000257182
9 *457:41 0.000531396
10 *457:25 3.10012e-05
11 *457:23 0.000895957
12 *457:12 0.000110696
13 *457:4 0.000784432
14 *2131:B *729:24 5.67058e-05
15 *457:12 *738:14 0.000135557
16 *457:23 *2166:A2 5.50106e-05
17 *457:23 *2171:A 0.000310647
18 *457:23 *2171:B 0.000310647
19 *457:23 *2171:D_N 0.000330475
20 *457:23 *461:14 9.87029e-05
21 *457:23 *461:27 2.18409e-05
22 *457:23 *489:16 5.62507e-05
23 *457:23 *729:24 0.000238305
24 *457:23 *738:57 0.000103708
25 *457:23 *738:121 5.30121e-05
26 *457:25 *2136:B 5.90675e-06
27 *457:25 *729:24 1.03833e-05
28 *457:41 *2136:B 8.4776e-05
29 *457:41 *729:24 9.24795e-06
30 *457:53 *2136:B 2.7203e-05
31 *457:53 *463:10 5.67058e-05
32 *457:53 *489:16 6.42666e-05
33 *457:53 *729:24 6.25714e-05
34 *457:64 *731:20 0.000163352
35 *2126:B *457:12 4.17736e-05
36 *2126:B *457:23 5.50106e-05
37 *2128:B *457:12 1.01436e-05
38 *2136:A *457:53 0.00026808
39 *193:10 *457:12 0.000135557
40 *195:77 *457:53 2.70504e-05
41 *197:12 *457:64 0.000163352
42 *454:6 *457:12 9.5877e-05
43 *455:8 *457:12 0.000139352
44 *455:8 *457:23 4.2573e-05
45 *456:8 *457:23 5.3304e-05
*RES
1 *2128:X *457:4 23 
2 *457:4 *457:12 33.48 
3 *457:12 *2130:B 23 
4 *457:4 *457:23 16.9857 
5 *457:23 *457:25 0.497143 
6 *457:25 *2133:B 23 
7 *457:25 *2131:B 23.6214 
8 *457:23 *457:41 3.37643 
9 *457:41 *457:53 35.8829 
10 *457:53 *2137:C 23 
11 *457:41 *457:64 32.2579 
12 *457:64 *2140:D 23 
*END

*D_NET *458 0.000264568
*CONN
*I *2130:C I *D sky130_fd_sc_hd__nor3_1
*I *2129:Y O *D sky130_fd_sc_hd__nor2_1
*CAP
1 *2130:C 8.5535e-05
2 *2129:Y 8.5535e-05
3 *2127:A *2130:C 4.67488e-05
4 *208:23 *2130:C 4.67488e-05
*RES
1 *2129:Y *2130:C 47.595 
*END

*D_NET *459 0.00334263
*CONN
*I *2132:A I *D sky130_fd_sc_hd__inv_2
*I *2135:B I *D sky130_fd_sc_hd__and3b_1
*I *2136:B I *D sky130_fd_sc_hd__and2_1
*I *2131:Y O *D sky130_fd_sc_hd__nand2_1
*CAP
1 *2132:A 0.000134831
2 *2135:B 0.000240713
3 *2136:B 0.00011081
4 *2131:Y 0
5 *459:29 0.000416499
6 *459:25 0.000364416
7 *459:4 0.000434271
8 *2132:A *460:8 7.6144e-05
9 *2132:A *711:10 4.07715e-05
10 *2132:A *731:20 0
11 *2135:B *738:65 9.84851e-05
12 *2135:B *738:80 0.000136738
13 *2136:B *729:24 0.000198498
14 *459:25 *2517:RESET_B 0
15 *459:25 *2519:RESET_B 4.93359e-05
16 *459:25 *460:8 0
17 *459:25 *731:20 0.000137324
18 *459:25 *738:80 0.000300258
19 *459:29 *460:8 6.16439e-05
20 *2131:A *2136:B 5.50106e-05
21 *2136:A *2136:B 9.84851e-05
22 *195:8 *459:25 3.56433e-05
23 *196:54 *459:25 6.70363e-05
24 *197:10 *459:25 0.000143059
25 *445:12 *2135:B 2.47702e-05
26 *457:25 *2136:B 5.90675e-06
27 *457:41 *2136:B 8.4776e-05
28 *457:53 *2136:B 2.7203e-05
*RES
1 *2131:Y *459:4 23 
2 *459:4 *2136:B 27.1429 
3 *459:4 *459:25 39.3836 
4 *459:25 *459:29 15.8493 
5 *459:29 *2135:B 41.48 
6 *459:29 *2132:A 40.2579 
*END

*D_NET *460 0.00138599
*CONN
*I *2166:A2 I *D sky130_fd_sc_hd__o31a_1
*I *2132:Y O *D sky130_fd_sc_hd__inv_2
*CAP
1 *2166:A2 1.91252e-05
2 *2132:Y 0.000235858
3 *460:8 0.000254983
4 *2166:A2 *461:14 5.3304e-05
5 *460:8 *2517:RESET_B 9.63815e-05
6 *460:8 *711:10 0.000533542
7 *2132:A *460:8 7.6144e-05
8 *457:23 *2166:A2 5.50106e-05
9 *459:25 *460:8 0
10 *459:29 *460:8 6.16439e-05
*RES
1 *2132:Y *460:8 45.1879 
2 *460:8 *2166:A2 38.6214 
*END

*D_NET *461 0.00255115
*CONN
*I *2134:A I *D sky130_fd_sc_hd__inv_2
*I *2135:C I *D sky130_fd_sc_hd__and3b_1
*I *2133:X O *D sky130_fd_sc_hd__or2_1
*CAP
1 *2134:A 0
2 *2135:C 0
3 *2133:X 0
4 *461:27 0.000201636
5 *461:14 0.000439333
6 *461:4 0.000640969
7 *461:14 *711:10 0.000296937
8 *461:14 *738:65 8.06804e-06
9 *461:27 *2517:RESET_B 0.000130138
10 *2166:A2 *461:14 5.3304e-05
11 *195:8 *461:27 4.28882e-05
12 *195:12 *461:27 1.23172e-05
13 *195:18 *461:27 0.000166504
14 *445:12 *461:14 0.000139346
15 *445:20 *461:14 0.000299169
16 *457:23 *461:14 9.87029e-05
17 *457:23 *461:27 2.18409e-05
*RES
1 *2133:X *461:4 23 
2 *461:4 *461:14 38.5964 
3 *461:14 *2135:C 23 
4 *461:4 *461:27 34.2879 
5 *461:27 *2134:A 23 
*END

*D_NET *462 0.000673846
*CONN
*I *2166:A3 I *D sky130_fd_sc_hd__o31a_1
*I *2134:Y O *D sky130_fd_sc_hd__inv_2
*CAP
1 *2166:A3 0
2 *2134:Y 0.00019677
3 *462:10 0.00019677
4 *462:10 *2517:RESET_B 2.49836e-05
5 *462:10 *496:6 3.34874e-05
6 *462:10 *711:10 0.000137788
7 *462:10 *738:133 8.4047e-05
*RES
1 *2134:Y *462:10 41.48 
2 *462:10 *2166:A3 38 
*END

*D_NET *463 0.000407864
*CONN
*I *2138:B I *D sky130_fd_sc_hd__nor3_1
*I *2136:X O *D sky130_fd_sc_hd__and2_1
*CAP
1 *2138:B 0
2 *2136:X 0.000135963
3 *463:10 0.000135963
4 *463:10 *464:10 0
5 *195:77 *463:10 4.08537e-05
6 *196:48 *463:10 3.83778e-05
7 *457:53 *463:10 5.67058e-05
*RES
1 *2136:X *463:10 40.175 
2 *463:10 *2138:B 38 
*END

*D_NET *464 0.00160654
*CONN
*I *2139:B I *D sky130_fd_sc_hd__nor2_1
*I *2138:C I *D sky130_fd_sc_hd__nor3_1
*I *2137:X O *D sky130_fd_sc_hd__and3_1
*CAP
1 *2139:B 0.000116494
2 *2138:C 0.000200816
3 *2137:X 0.000259821
4 *464:10 0.000577131
5 *2138:C *705:126 5.3304e-05
6 *2139:B *2141:A 0
7 *2139:B *2519:CLK 0
8 *2139:B *2519:RESET_B 1.95685e-05
9 *2139:B *471:23 0
10 *464:10 *2138:A 0
11 *464:10 *2518:CLK 0
12 *464:10 *2519:RESET_B 9.21347e-06
13 *464:10 *752:103 6.38844e-05
14 *196:36 *464:10 0.000141052
15 *197:61 *2138:C 0
16 *210:10 *2138:C 6.53943e-05
17 *210:23 *2138:C 1.58102e-05
18 *210:23 *464:10 8.4047e-05
19 *463:10 *464:10 0
*RES
1 *2137:X *464:10 42.5364 
2 *464:10 *2138:C 41.9979 
3 *464:10 *2139:B 39.9057 
*END

*D_NET *465 0.000211353
*CONN
*I *2141:B I *D sky130_fd_sc_hd__nor3_1
*I *2139:Y O *D sky130_fd_sc_hd__nor2_1
*CAP
1 *2141:B 2.01853e-05
2 *2139:Y 2.01853e-05
3 *2141:B *466:16 5.67058e-05
4 *2141:B *466:20 1.40958e-05
5 *197:61 *2141:B 0.00010018
*RES
1 *2139:Y *2141:B 47.0979 
*END

*D_NET *466 0.0050255
*CONN
*I *2141:C I *D sky130_fd_sc_hd__nor3_1
*I *2142:B I *D sky130_fd_sc_hd__nor2_1
*I *2143:B I *D sky130_fd_sc_hd__and2_1
*I *2146:C I *D sky130_fd_sc_hd__and3_1
*I *2140:X O *D sky130_fd_sc_hd__and4_1
*CAP
1 *2141:C 0
2 *2142:B 2.34823e-05
3 *2143:B 0
4 *2146:C 0
5 *2140:X 0.000160215
6 *466:41 0.000300421
7 *466:24 0.000486607
8 *466:20 0.000745021
9 *466:16 0.000698128
10 *466:10 0.00032299
11 *2142:B *2148:A 0
12 *2142:B *467:20 0
13 *466:10 *2138:A 0.00018842
14 *466:10 *705:126 0.000139346
15 *466:20 *2148:A 8.85386e-05
16 *466:20 *2174:A1 9.67842e-05
17 *466:20 *2520:CLK 0.000132031
18 *466:20 *492:8 5.50106e-05
19 *466:24 *2520:CLK 1.03836e-05
20 *466:24 *467:20 0.000169582
21 *466:41 *2144:C 4.2573e-05
22 *466:41 *2521:RESET_B 0.000151657
23 *466:41 *467:20 2.39868e-05
24 *466:41 *468:6 5.50049e-05
25 *466:41 *470:8 4.6909e-05
26 *466:41 *716:10 0
27 *466:41 *716:18 0
28 *466:41 *763:14 0.000263878
29 *2141:B *466:16 5.67058e-05
30 *2141:B *466:20 1.40958e-05
31 *2142:A *2142:B 0
32 *2519:D *466:16 1.59094e-05
33 *2519:D *466:20 0
34 *197:61 *466:10 0.000182249
35 *197:61 *466:16 0.00011056
36 *197:61 *466:20 7.00542e-05
37 *198:26 *466:41 0.000182832
38 *199:29 *466:41 0
39 *211:6 *466:16 9.14693e-05
40 *211:6 *466:20 1.32314e-05
41 *211:21 *466:10 8.74263e-05
*RES
1 *2140:X *466:10 42.1843 
2 *466:10 *466:16 18.9771 
3 *466:16 *466:20 10.1707 
4 *466:20 *466:24 2.88964 
5 *466:24 *2146:C 23 
6 *466:24 *466:41 37.4468 
7 *466:41 *2143:B 23 
8 *466:20 *2142:B 23.4971 
9 *466:16 *2141:C 23 
*END

*D_NET *467 0.00201723
*CONN
*I *2144:B I *D sky130_fd_sc_hd__nor3_1
*I *2142:Y O *D sky130_fd_sc_hd__nor2_1
*CAP
1 *2144:B 7.88836e-05
2 *2142:Y 0.000440831
3 *467:20 0.000519715
4 *2144:B *729:8 4.66655e-05
5 *2144:B *738:114 0.000155375
6 *2144:B *761:18 1.47563e-05
7 *467:20 *2520:CLK 0.000108831
8 *2142:A *467:20 0.000226259
9 *2142:B *467:20 0
10 *2181:B *2144:B 3.70187e-05
11 *212:8 *2144:B 0.000195331
12 *466:24 *467:20 0.000169582
13 *466:41 *467:20 2.39868e-05
*RES
1 *2142:Y *467:20 46.7414 
2 *467:20 *2144:B 41.3143 
*END

*D_NET *468 0.00109947
*CONN
*I *2144:C I *D sky130_fd_sc_hd__nor3_1
*I *2145:B I *D sky130_fd_sc_hd__nor2_1
*I *2143:X O *D sky130_fd_sc_hd__and2_1
*CAP
1 *2144:C 7.35705e-05
2 *2145:B 0
3 *2143:X 1.50079e-05
4 *468:12 0.00016666
5 *468:6 0.000255238
6 *2144:C *2521:RESET_B 0.000182832
7 *468:6 *2521:RESET_B 5.50049e-05
8 *468:12 *761:18 8.05077e-05
9 *468:12 *763:14 0
10 *2145:A *468:12 3.82352e-05
11 *198:18 *2144:C 2.93845e-05
12 *198:26 *2144:C 4.6595e-05
13 *198:26 *468:12 1.7992e-05
14 *199:8 *468:12 4.08641e-05
15 *466:41 *2144:C 4.2573e-05
16 *466:41 *468:6 5.50049e-05
*RES
1 *2143:X *468:6 23.6214 
2 *468:6 *468:12 33.6664 
3 *468:12 *2145:B 23 
4 *468:6 *2144:C 25.5479 
*END

*D_NET *469 0.000442976
*CONN
*I *2147:B I *D sky130_fd_sc_hd__or3_1
*I *2145:Y O *D sky130_fd_sc_hd__nor2_1
*CAP
1 *2147:B 0
2 *2145:Y 0.000120624
3 *469:8 0.000120624
4 *469:8 *470:27 8.94487e-05
5 *469:8 *761:18 0
6 *469:8 *763:14 4.83941e-05
7 *2147:A *469:8 6.38845e-05
*RES
1 *2145:Y *469:8 40.9621 
2 *469:8 *2147:B 38 
*END

*D_NET *470 0.00769334
*CONN
*I *2151:A2 I *D sky130_fd_sc_hd__a21oi_1
*I *2149:A2 I *D sky130_fd_sc_hd__a21oi_1
*I *2150:A2 I *D sky130_fd_sc_hd__o21a_1
*I *2152:C I *D sky130_fd_sc_hd__and3_1
*I *2156:D I *D sky130_fd_sc_hd__and4_1
*I *2147:C I *D sky130_fd_sc_hd__or3_1
*I *2146:X O *D sky130_fd_sc_hd__and3_1
*CAP
1 *2151:A2 0.00016541
2 *2149:A2 0
3 *2150:A2 4.55235e-05
4 *2152:C 0.000297469
5 *2156:D 8.06874e-05
6 *2147:C 0
7 *2146:X 0.000150579
8 *470:52 0.000435613
9 *470:39 0.000253536
10 *470:35 0.000284678
11 *470:27 0.00138897
12 *470:12 0.0011454
13 *470:8 0.000276863
14 *2152:C *472:10 9.168e-05
15 *2152:C *708:35 0
16 *2152:C *716:18 0
17 *2152:C *716:20 0.000185428
18 *2156:D *761:102 6.45243e-05
19 *470:8 *763:14 3.71198e-05
20 *470:12 *471:8 5.41385e-05
21 *470:12 *736:31 0.000144221
22 *470:27 *499:22 0.000286808
23 *470:27 *708:29 2.85696e-05
24 *470:27 *708:96 5.31437e-05
25 *470:27 *736:31 2.02872e-05
26 *470:27 *761:18 1.69668e-05
27 *470:27 *763:14 3.52294e-05
28 *470:27 *763:20 0.000510247
29 *470:35 *1980:A 5.67058e-05
30 *470:35 *761:18 0
31 *470:35 *761:102 0.000112203
32 *470:39 *761:69 0
33 *470:39 *761:102 1.62848e-05
34 *470:52 *472:10 7.48331e-05
35 *470:52 *738:145 2.05503e-05
36 *2147:A *470:27 0.000105072
37 *2149:A1 *470:39 2.32101e-05
38 *2152:A *2150:A2 2.93845e-05
39 *2152:A *2152:C 1.76557e-05
40 *2152:B *470:52 1.74872e-05
41 *2185:A1 *2156:D 0.000144739
42 *2185:A1 *470:35 1.22822e-05
43 *2185:A1 *470:39 0.000170394
44 *188:12 *2151:A2 9.67842e-05
45 *188:12 *470:27 0
46 *199:29 *470:8 0.000112644
47 *200:10 *2152:C 4.18957e-05
48 *200:30 *2152:C 2.60152e-05
49 *200:30 *470:52 4.82922e-05
50 *200:32 *470:39 4.05745e-05
51 *200:38 *2156:D 2.93747e-05
52 *200:38 *470:39 6.17437e-06
53 *214:8 *2152:C 2.36853e-05
54 *317:10 *470:27 9.86551e-06
55 *435:10 *470:27 0.000181504
56 *436:10 *470:27 8.62783e-05
57 *466:41 *470:8 4.6909e-05
58 *469:8 *470:27 8.94487e-05
*RES
1 *2146:X *470:8 41.3143 
2 *470:8 *470:12 18.0036 
3 *470:12 *2147:C 23 
4 *470:12 *470:27 36.605 
5 *470:27 *470:35 18.8529 
6 *470:35 *470:39 2.54786 
7 *470:39 *2156:D 25.5479 
8 *470:39 *470:52 16.9057 
9 *470:52 *2152:C 43.4686 
10 *470:52 *2150:A2 38.6214 
11 *470:35 *2149:A2 23 
12 *470:27 *2151:A2 41.0036 
*END

*D_NET *471 0.0035449
*CONN
*I *2148:A I *D sky130_fd_sc_hd__inv_2
*I *2174:A2 I *D sky130_fd_sc_hd__o21ai_1
*I *2173:A2 I *D sky130_fd_sc_hd__a221o_1
*I *2147:X O *D sky130_fd_sc_hd__or3_1
*CAP
1 *2148:A 0.000124392
2 *2174:A2 0
3 *2173:A2 0.000198776
4 *2147:X 0.000610239
5 *471:23 0.000205723
6 *471:8 0.000890346
7 *2148:A *2174:A1 9.67842e-05
8 *2148:A *2520:CLK 0.000231427
9 *2173:A2 *492:16 0.000110962
10 *2173:A2 *708:109 0.000482051
11 *2173:A2 *752:101 0.000141869
12 *471:8 *736:31 3.98818e-05
13 *471:8 *736:35 0.000109854
14 *471:23 *492:16 2.11887e-05
15 *471:23 *708:109 0.000138727
16 *2139:B *471:23 0
17 *2142:B *2148:A 0
18 *197:61 *2148:A 0
19 *466:20 *2148:A 8.85386e-05
20 *470:12 *471:8 5.41385e-05
*RES
1 *2147:X *471:8 46.2443 
2 *471:8 *2173:A2 44.6545 
3 *471:8 *471:23 16.9057 
4 *471:23 *2174:A2 23 
5 *471:23 *2148:A 26.9979 
*END

*D_NET *472 0.000683227
*CONN
*I *2150:B1 I *D sky130_fd_sc_hd__o21a_1
*I *2149:Y O *D sky130_fd_sc_hd__a21oi_1
*CAP
1 *2150:B1 0
2 *2149:Y 0.000168395
3 *472:10 0.000168395
4 *472:10 *716:18 0
5 *2152:B *472:10 8.4047e-05
6 *2152:C *472:10 9.168e-05
7 *2185:A1 *472:10 9.5877e-05
8 *470:52 *472:10 7.48331e-05
*RES
1 *2149:Y *472:10 41.3557 
2 *472:10 *2150:B1 38 
*END

*D_NET *473 0.000181714
*CONN
*I *2153:B I *D sky130_fd_sc_hd__or3_1
*I *2151:Y O *D sky130_fd_sc_hd__a21oi_1
*CAP
1 *2153:B 8.36254e-05
2 *2151:Y 8.36254e-05
3 *2153:B *2153:C 2.45549e-06
4 *2151:B1 *2153:B 4.04598e-06
5 *330:16 *2153:B 7.96152e-06
*RES
1 *2151:Y *2153:B 47.0979 
*END

*D_NET *474 0.00194373
*CONN
*I *2153:C I *D sky130_fd_sc_hd__or3_1
*I *2155:B I *D sky130_fd_sc_hd__nor2_1
*I *2152:X O *D sky130_fd_sc_hd__and3_1
*CAP
1 *2153:C 0.000104575
2 *2155:B 0.000142254
3 *2152:X 0.000177919
4 *474:10 0.000246829
5 *474:8 0.000177919
6 *2155:B *759:52 6.75295e-05
7 *474:8 *477:10 0.000105252
8 *474:8 *501:12 4.80423e-06
9 *474:8 *708:35 8.33951e-06
10 *474:8 *761:102 0.000110913
11 *2153:A *2153:C 9.41704e-05
12 *2153:A *2155:B 9.67842e-05
13 *2153:B *2153:C 2.45549e-06
14 *2183:A1 *474:8 6.10781e-05
15 *2183:A2 *474:8 8.18131e-05
16 *189:35 *2155:B 5.8147e-05
17 *214:21 *474:8 7.14436e-05
18 *330:16 *2153:C 0.000163466
19 *330:16 *2155:B 5.3304e-05
20 *330:20 *474:8 8.4047e-05
21 *451:57 *474:8 3.06852e-05
*RES
1 *2152:X *474:8 42.3707 
2 *474:8 *474:10 15 
3 *474:10 *2155:B 26.1693 
4 *474:10 *2153:C 25.5479 
*END

*D_NET *475 0.00332556
*CONN
*I *2175:A2 I *D sky130_fd_sc_hd__a221o_1
*I *2154:A I *D sky130_fd_sc_hd__inv_2
*I *2153:X O *D sky130_fd_sc_hd__or3_1
*CAP
1 *2175:A2 0.000176312
2 *2154:A 7.05678e-05
3 *2153:X 0.000158944
4 *475:20 0.000622201
5 *475:8 0.000886888
6 *2175:A2 *2175:A1 9.8933e-05
7 *2175:A2 *499:22 0.000115946
8 *2175:A2 *716:18 0
9 *2175:A2 *759:27 2.07642e-05
10 *2175:A2 *759:31 5.92738e-07
11 *475:8 *708:35 4.30802e-05
12 *475:8 *716:18 0
13 *475:8 *759:31 2.47097e-05
14 *475:8 *761:102 9.28078e-06
15 *475:20 *492:16 4.07505e-05
16 *475:20 *494:12 3.28952e-05
17 *475:20 *496:12 0.000223532
18 *475:20 *498:8 0.0001607
19 *202:6 *2154:A 5.3304e-05
20 *204:23 *475:20 7.29306e-05
21 *320:66 *475:20 4.6318e-06
22 *437:16 *2154:A 2.02872e-05
23 *438:16 *475:20 0.000435854
24 *451:74 *475:8 5.24537e-05
*RES
1 *2153:X *475:8 40.9621 
2 *475:8 *475:20 40.7507 
3 *475:20 *2154:A 39.0979 
4 *475:8 *2175:A2 41.2521 
*END

*D_NET *476 0.00100229
*CONN
*I *2157:B I *D sky130_fd_sc_hd__or3_1
*I *2155:Y O *D sky130_fd_sc_hd__nor2_1
*CAP
1 *2157:B 0
2 *2155:Y 0.000186053
3 *476:10 0.000186053
4 *476:10 *752:73 0.000284219
5 *476:10 *759:52 5.3304e-05
6 *189:10 *476:10 0.000292662
*RES
1 *2155:Y *476:10 42.64 
2 *476:10 *2157:B 38 
*END

*D_NET *477 0.00556786
*CONN
*I *2157:C I *D sky130_fd_sc_hd__or3_1
*I *2160:B I *D sky130_fd_sc_hd__and2_1
*I *2159:B I *D sky130_fd_sc_hd__nor2_1
*I *2156:X O *D sky130_fd_sc_hd__and4_1
*CAP
1 *2157:C 0
2 *2160:B 0
3 *2159:B 4.3208e-05
4 *2156:X 0.000186059
5 *477:45 0.00041043
6 *477:24 0.00104849
7 *477:14 0.000728389
8 *477:10 0.000319596
9 *2159:B *759:52 0
10 *2159:B *759:66 5.50049e-05
11 *2159:B *761:114 6.17437e-06
12 *2159:B *761:122 1.21972e-05
13 *477:10 *752:73 0
14 *477:10 *761:102 2.98648e-05
15 *477:24 *2185:B1 4.15283e-06
16 *477:24 *494:12 2.17445e-05
17 *477:24 *502:10 0.000109377
18 *477:24 *759:52 3.44001e-05
19 *477:24 *759:54 0.000137651
20 *477:24 *759:66 0.000137651
21 *477:24 *759:102 0
22 *477:24 *761:102 4.17736e-05
23 *477:24 *761:114 0.000243559
24 *477:45 *2161:C 2.41378e-06
25 *477:45 *2163:A2 6.10445e-05
26 *477:45 *2186:A1 0.000116467
27 *477:45 *480:15 2.18409e-05
28 *477:45 *480:30 2.02872e-05
29 *477:45 *481:10 0.000193247
30 *477:45 *482:10 0.000264553
31 *477:45 *761:122 5.09165e-05
32 *477:45 *761:126 0
33 *477:45 *761:139 0
34 *2159:A *2159:B 1.97956e-05
35 *2161:A *477:45 5.50106e-05
36 *2177:A *477:10 2.45549e-06
37 *2183:A2 *477:10 2.64616e-05
38 *2185:A1 *477:10 0.000178517
39 *2522:D *477:10 3.3123e-05
40 *189:10 *477:24 0.000145634
41 *189:50 *477:24 5.11569e-05
42 *205:38 *477:24 0.000256441
43 *214:21 *477:10 8.68016e-06
44 *215:12 *477:45 5.06321e-05
45 *451:44 *477:24 5.12254e-05
46 *451:44 *477:45 0
47 *451:57 *477:10 0.000132925
48 *451:57 *477:14 0.000126847
49 *451:57 *477:24 2.32101e-05
50 *474:8 *477:10 0.000105252
*RES
1 *2156:X *477:10 42.6607 
2 *477:10 *477:14 18.0036 
3 *477:14 *477:24 42.615 
4 *477:24 *2159:B 24.1186 
5 *477:24 *477:45 39.3421 
6 *477:45 *2160:B 23 
7 *477:14 *2157:C 23 
*END

*D_NET *478 0.000997646
*CONN
*I *2184:B I *D sky130_fd_sc_hd__xnor2_1
*I *2158:A I *D sky130_fd_sc_hd__inv_2
*I *2157:X O *D sky130_fd_sc_hd__or3_1
*CAP
1 *2184:B 0
2 *2158:A 0
3 *2157:X 0.000124501
4 *478:16 0.000192802
5 *478:8 0.000317304
6 *478:8 *759:102 5.3304e-05
7 *478:16 *752:37 5.50049e-05
8 *478:16 *759:102 3.47781e-05
9 *2157:A *478:8 4.00259e-06
10 *189:10 *478:16 0
11 *205:21 *478:16 3.3123e-05
12 *451:44 *478:8 0.000182826
*RES
1 *2157:X *478:8 26.2521 
2 *478:8 *478:16 33.5836 
3 *478:16 *2158:A 23 
4 *478:8 *2184:B 23 
*END

*D_NET *479 0.000954042
*CONN
*I *2161:B I *D sky130_fd_sc_hd__or3_1
*I *2159:Y O *D sky130_fd_sc_hd__nor2_1
*CAP
1 *2161:B 0
2 *2159:Y 0.000273125
3 *479:10 0.000273125
4 *479:10 *480:30 0.000109898
5 *479:10 *482:10 3.55303e-05
6 *479:10 *759:66 9.88574e-06
7 *2101:B *479:10 6.02707e-05
8 *2159:A *479:10 4.16446e-05
9 *451:27 *479:10 0.000136486
10 *451:44 *479:10 1.40759e-05
*RES
1 *2159:Y *479:10 43.0129 
2 *479:10 *2161:B 38 
*END

*D_NET *480 0.0014188
*CONN
*I *2164:A2 I *D sky130_fd_sc_hd__o21a_1
*I *2161:C I *D sky130_fd_sc_hd__or3_1
*I *2163:A2 I *D sky130_fd_sc_hd__a21oi_1
*I *2160:X O *D sky130_fd_sc_hd__and2_1
*CAP
1 *2164:A2 0
2 *2161:C 1.63773e-05
3 *2163:A2 6.47744e-05
4 *2160:X 0
5 *480:30 0.000127315
6 *480:15 0.000160575
7 *480:4 8.16567e-05
8 *2163:A2 *482:10 5.29672e-05
9 *480:30 *482:10 8.15327e-05
10 *2101:B *480:30 0.000242563
11 *191:36 *480:30 3.92407e-05
12 *215:12 *2161:C 0
13 *215:12 *2163:A2 0.000228001
14 *215:12 *480:15 5.50049e-05
15 *215:12 *480:30 5.3304e-05
16 *477:45 *2161:C 2.41378e-06
17 *477:45 *2163:A2 6.10445e-05
18 *477:45 *480:15 2.18409e-05
19 *477:45 *480:30 2.02872e-05
20 *479:10 *480:30 0.000109898
*RES
1 *2160:X *480:4 23 
2 *480:4 *2163:A2 26.0243 
3 *480:4 *480:15 0.621429 
4 *480:15 *2161:C 23.4971 
5 *480:15 *480:30 34.2879 
6 *480:30 *2164:A2 23 
*END

*D_NET *481 0.00375608
*CONN
*I *2175:B1 I *D sky130_fd_sc_hd__a221o_1
*I *2162:A I *D sky130_fd_sc_hd__inv_2
*I *2161:X O *D sky130_fd_sc_hd__or3_1
*CAP
1 *2175:B1 0
2 *2162:A 2.01521e-05
3 *2161:X 0.000568358
4 *481:35 0.000356625
5 *481:10 0.000945135
6 *481:10 *2186:A1 1.22822e-05
7 *481:10 *2186:C1 2.4754e-05
8 *481:10 *483:10 5.80963e-05
9 *481:10 *494:12 5.50049e-05
10 *481:10 *759:66 6.16439e-05
11 *481:10 *759:102 0
12 *481:10 *761:114 7.76364e-06
13 *481:10 *761:139 0
14 *481:35 *2175:A1 3.84128e-05
15 *481:35 *2525:RESET_B 0.000539604
16 *481:35 *499:22 8.79295e-05
17 *481:35 *752:101 0.000114922
18 *2525:D *2162:A 9.84851e-05
19 *204:23 *481:35 0.000117021
20 *205:21 *481:10 7.98809e-05
21 *317:14 *481:35 0.000278273
22 *438:16 *2162:A 9.84851e-05
23 *451:27 *481:35 0
24 *451:44 *481:10 0
25 *477:45 *481:10 0.000193247
*RES
1 *2161:X *481:10 47.8393 
2 *481:10 *2162:A 39.0979 
3 *481:10 *481:35 35.6462 
4 *481:35 *2175:B1 23 
*END

*D_NET *482 0.00136724
*CONN
*I *2164:B1 I *D sky130_fd_sc_hd__o21a_1
*I *2163:Y O *D sky130_fd_sc_hd__a21oi_1
*CAP
1 *2164:B1 0
2 *2163:Y 0.000378794
3 *482:10 0.000378794
4 *2163:A2 *482:10 5.29672e-05
5 *205:21 *482:10 0
6 *215:12 *482:10 3.46673e-05
7 *451:44 *482:10 0.0001404
8 *477:45 *482:10 0.000264553
9 *479:10 *482:10 3.55303e-05
10 *480:30 *482:10 8.15327e-05
*RES
1 *2163:Y *482:10 46.4721 
2 *482:10 *2164:B1 38 
*END

*D_NET *483 0.000458117
*CONN
*I *2186:A2 I *D sky130_fd_sc_hd__a211oi_1
*I *2165:Y O *D sky130_fd_sc_hd__inv_2
*CAP
1 *2186:A2 0
2 *2165:Y 0.000130648
3 *483:10 0.000130648
4 *483:10 *759:52 1.24376e-05
5 *483:10 *759:54 1.56665e-05
6 *483:10 *759:102 5.561e-05
7 *483:10 *761:114 5.50106e-05
8 *481:10 *483:10 5.80963e-05
*RES
1 *2165:Y *483:10 40.6514 
2 *483:10 *2186:A2 38 
*END

*D_NET *484 0.000460904
*CONN
*I *2170:C1 I *D sky130_fd_sc_hd__a221o_1
*I *2166:X O *D sky130_fd_sc_hd__o31a_1
*CAP
1 *2170:C1 7.55993e-05
2 *2166:X 5.34775e-05
3 *484:8 0.000129077
4 *2170:C1 *488:14 2.02517e-05
5 *2170:C1 *496:6 1.94693e-05
6 *484:8 *716:78 3.56433e-05
7 *2170:A1 *2170:C1 1.32939e-05
8 *445:20 *484:8 0.000114092
*RES
1 *2166:X *484:8 39.5536 
2 *484:8 *2170:C1 39.595 
*END

*D_NET *485 0.000760862
*CONN
*I *2171:A I *D sky130_fd_sc_hd__or4b_1
*I *2167:X O *D sky130_fd_sc_hd__and2_1
*CAP
1 *2171:A 0.000120923
2 *2167:X 0.000120923
3 *2171:A *2171:D_N 9.75779e-05
4 *2171:A *738:57 2.36126e-05
5 *2167:A *2171:A 8.71791e-05
6 *457:23 *2171:A 0.000310647
*RES
1 *2167:X *2171:A 49.9771 
*END

*D_NET *486 0.000942368
*CONN
*I *2171:B I *D sky130_fd_sc_hd__or4b_1
*I *2168:Y O *D sky130_fd_sc_hd__o22ai_1
*CAP
1 *2171:B 0.000229914
2 *2168:Y 6.55145e-05
3 *486:8 0.000295428
4 *486:8 *487:8 0
5 *209:22 *486:8 4.08641e-05
6 *457:23 *2171:B 0.000310647
*RES
1 *2168:Y *486:8 39.2014 
2 *486:8 *2171:B 41.48 
*END

*D_NET *487 0.00138413
*CONN
*I *2171:D_N I *D sky130_fd_sc_hd__or4b_1
*I *2169:Y O *D sky130_fd_sc_hd__nand2_1
*CAP
1 *2171:D_N 0.000103438
2 *2169:Y 0.000103813
3 *487:8 0.000207252
4 *2171:D_N *738:57 0.000199412
5 *2167:A *2171:D_N 0.000196467
6 *2170:B1 *487:8 6.16439e-05
7 *2171:A *2171:D_N 9.75779e-05
8 *456:23 *487:8 8.4047e-05
9 *457:23 *2171:D_N 0.000330475
10 *486:8 *487:8 0
*RES
1 *2169:Y *487:8 39.9057 
2 *487:8 *2171:D_N 43.5514 
*END

*D_NET *488 0.00133076
*CONN
*I *2171:C I *D sky130_fd_sc_hd__or4b_1
*I *2170:X O *D sky130_fd_sc_hd__a221o_1
*CAP
1 *2171:C 0
2 *2170:X 0.00034506
3 *488:14 0.00034506
4 *488:14 *716:78 1.37349e-05
5 *2167:A *488:14 0.000184282
6 *2170:A1 *488:14 4.82843e-05
7 *2170:B1 *488:14 0.000187299
8 *2170:C1 *488:14 2.02517e-05
9 *320:46 *488:14 0.000186788
*RES
1 *2170:X *488:14 45.3121 
2 *488:14 *2171:C 38 
*END

*D_NET *489 0.00467387
*CONN
*I *2173:C1 I *D sky130_fd_sc_hd__a221o_1
*I *2171:X O *D sky130_fd_sc_hd__or4b_1
*CAP
1 *2173:C1 0
2 *2171:X 0.0011447
3 *489:22 7.95621e-05
4 *489:16 0.00122427
5 *489:16 *729:24 0.00136023
6 *489:16 *738:57 9.58444e-05
7 *489:16 *738:121 8.264e-05
8 *489:16 *738:131 0.000135037
9 *489:16 *752:101 0.000137651
10 *489:22 *716:18 0
11 *489:22 *758:33 6.70363e-05
12 *489:22 *759:27 0.000169674
13 *195:77 *489:16 5.67058e-05
14 *457:23 *489:16 5.62507e-05
15 *457:53 *489:16 6.42666e-05
*RES
1 *2171:X *489:16 44.9364 
2 *489:16 *489:22 32.2579 
3 *489:22 *2173:C1 23 
*END

*D_NET *490 0.000856283
*CONN
*I *2174:B1 I *D sky130_fd_sc_hd__o21ai_1
*I *2172:Y O *D sky130_fd_sc_hd__xnor2_1
*CAP
1 *2174:B1 0
2 *2172:Y 0.000219542
3 *490:10 0.000219542
4 *490:10 *2521:CLK 3.71136e-05
5 *490:10 *708:109 9.4537e-06
6 *490:10 *716:50 0.000315852
7 *490:10 *759:12 5.47808e-05
*RES
1 *2172:Y *490:10 43.7379 
2 *490:10 *2174:B1 38 
*END

*D_NET *491 0.000470636
*CONN
*I *2176:B1 I *D sky130_fd_sc_hd__a211o_1
*I *2173:X O *D sky130_fd_sc_hd__a221o_1
*CAP
1 *2176:B1 0
2 *2173:X 8.5753e-05
3 *491:8 8.5753e-05
4 *491:8 *492:16 0.000157049
5 *491:8 *493:10 1.14452e-05
6 *491:8 *752:101 0.000130636
*RES
1 *2173:X *491:8 40.2579 
2 *491:8 *2176:B1 38 
*END

*D_NET *492 0.00319205
*CONN
*I *2175:C1 I *D sky130_fd_sc_hd__a221o_1
*I *2174:Y O *D sky130_fd_sc_hd__o21ai_1
*CAP
1 *2175:C1 0
2 *2174:Y 4.24857e-05
3 *492:16 0.00062856
4 *492:8 0.000671046
5 *492:16 *2182:C 1.14154e-05
6 *492:16 *2519:RESET_B 9.98044e-05
7 *492:16 *493:10 2.24151e-05
8 *492:16 *496:12 7.75329e-06
9 *492:16 *498:8 0.000479218
10 *492:16 *499:22 5.50049e-05
11 *492:16 *752:101 0.000108559
12 *492:16 *752:103 0.000323812
13 *492:16 *760:55 2.02517e-05
14 *2173:A2 *492:16 0.000110962
15 *204:23 *492:16 0.000336767
16 *210:23 *492:16 0
17 *324:20 *492:16 0
18 *466:20 *492:8 5.50106e-05
19 *471:23 *492:16 2.11887e-05
20 *475:20 *492:16 4.07505e-05
21 *491:8 *492:16 0.000157049
*RES
1 *2174:Y *492:8 38.6214 
2 *492:8 *492:16 32.11 
3 *492:16 *2175:C1 23 
*END

*D_NET *493 0.00154214
*CONN
*I *2176:C1 I *D sky130_fd_sc_hd__a211o_1
*I *2175:X O *D sky130_fd_sc_hd__a221o_1
*CAP
1 *2176:C1 0
2 *2175:X 0.000373822
3 *493:10 0.000373822
4 *493:10 *499:22 8.66983e-05
5 *493:10 *752:101 0.000339937
6 *493:10 *760:55 4.9662e-05
7 *204:23 *493:10 0.000284337
8 *491:8 *493:10 1.14452e-05
9 *492:16 *493:10 2.24151e-05
*RES
1 *2175:X *493:10 45.7264 
2 *493:10 *2176:C1 38 
*END

*D_NET *494 0.00303412
*CONN
*I *2186:B1 I *D sky130_fd_sc_hd__a211oi_1
*I *2176:X O *D sky130_fd_sc_hd__a211o_1
*CAP
1 *2186:B1 0
2 *2176:X 0
3 *494:12 0.000842409
4 *494:6 0.000842409
5 *494:12 *2185:B1 4.93359e-05
6 *494:12 *2186:C1 0.000181919
7 *494:12 *496:12 0.00037293
8 *494:12 *500:8 0.000128291
9 *494:12 *752:73 0
10 *494:12 *759:102 0.000237619
11 *494:12 *761:114 2.24973e-05
12 *189:50 *494:12 0
13 *205:21 *494:12 4.21281e-05
14 *205:38 *494:12 6.07929e-05
15 *319:34 *494:12 0
16 *320:56 *494:12 1.69605e-05
17 *320:66 *494:12 0.000127181
18 *427:10 *494:12 0
19 *429:10 *494:12 0
20 *475:20 *494:12 3.28952e-05
21 *477:24 *494:12 2.17445e-05
22 *481:10 *494:12 5.50049e-05
*RES
1 *2176:X *494:6 38 
2 *494:6 *494:12 31.8821 
3 *494:12 *2186:B1 23 
*END

*D_NET *495 0.000409243
*CONN
*I *2183:B1 I *D sky130_fd_sc_hd__a211o_1
*I *2177:Y O *D sky130_fd_sc_hd__nor2_1
*CAP
1 *2183:B1 0.000113071
2 *2177:Y 0.000113071
3 *2183:B1 *2185:C1 1.00493e-05
4 *2177:A *2183:B1 3.90329e-05
5 *2185:A1 *2183:B1 0.000134019
*RES
1 *2177:Y *2183:B1 49.2107 
*END

*D_NET *496 0.00393585
*CONN
*I *2182:A I *D sky130_fd_sc_hd__or4_1
*I *2178:Y O *D sky130_fd_sc_hd__nor2_1
*CAP
1 *2182:A 0
2 *2178:Y 0.000686381
3 *496:12 0.000349502
4 *496:6 0.00103588
5 *496:12 *498:8 0.000151182
6 *2170:A1 *496:6 0.000139352
7 *2170:C1 *496:6 1.94693e-05
8 *319:6 *496:6 9.5877e-05
9 *319:23 *496:6 2.93747e-05
10 *319:34 *496:6 0.000694105
11 *319:34 *496:12 0
12 *324:20 *496:12 9.70232e-05
13 *462:10 *496:6 3.34874e-05
14 *475:20 *496:12 0.000223532
15 *492:16 *496:12 7.75329e-06
16 *494:12 *496:12 0.00037293
*RES
1 *2178:Y *496:6 37.9143 
2 *496:6 *496:12 38.2443 
3 *496:12 *2182:A 23 
*END

*D_NET *497 0.0013705
*CONN
*I *2182:B I *D sky130_fd_sc_hd__or4_1
*I *2179:Y O *D sky130_fd_sc_hd__xnor2_1
*CAP
1 *2182:B 0.000468648
2 *2179:Y 4.41879e-05
3 *497:8 0.000512836
4 *497:8 *731:22 3.62323e-05
5 *2094:A_N *497:8 8.62876e-05
6 *320:46 *2182:B 0.000212162
7 *451:27 *497:8 1.01436e-05
*RES
1 *2179:Y *497:8 39.2014 
2 *497:8 *2182:B 44.3386 
*END

*D_NET *498 0.00163319
*CONN
*I *2182:C I *D sky130_fd_sc_hd__or4_1
*I *2180:Y O *D sky130_fd_sc_hd__xnor2_1
*CAP
1 *2182:C 7.65253e-05
2 *2180:Y 0.000338814
3 *498:8 0.00041534
4 *475:20 *498:8 0.0001607
5 *492:16 *2182:C 1.14154e-05
6 *492:16 *498:8 0.000479218
7 *496:12 *498:8 0.000151182
*RES
1 *2180:Y *498:8 44.8357 
2 *498:8 *2182:C 39.4914 
*END

*D_NET *499 0.00489137
*CONN
*I *2182:D I *D sky130_fd_sc_hd__or4_1
*I *2181:Y O *D sky130_fd_sc_hd__xnor2_1
*CAP
1 *2182:D 0
2 *2181:Y 3.6231e-05
3 *499:22 0.00114479
4 *499:8 0.00118102
5 *499:8 *736:31 5.3304e-05
6 *499:22 *2016:A_N 0.00010018
7 *499:22 *2175:A1 2.82601e-05
8 *499:22 *760:55 0.000105248
9 *499:22 *761:18 0.000871475
10 *499:22 *763:20 9.5877e-05
11 *1984:A *499:22 0.000137651
12 *2175:A2 *499:22 0.000115946
13 *337:10 *499:22 0.000219422
14 *435:10 *499:22 0.000285519
15 *470:27 *499:22 0.000286808
16 *481:35 *499:22 8.79295e-05
17 *492:16 *499:22 5.50049e-05
18 *493:10 *499:22 8.66983e-05
*RES
1 *2181:Y *499:8 38.6214 
2 *499:8 *499:22 42.8193 
3 *499:22 *2182:D 23 
*END

*D_NET *500 0.00254997
*CONN
*I *2183:C1 I *D sky130_fd_sc_hd__a211o_1
*I *2182:X O *D sky130_fd_sc_hd__or4_1
*CAP
1 *2183:C1 0
2 *2182:X 0.000107975
3 *500:16 0.000389969
4 *500:8 0.000497944
5 *500:16 *776:DIODE 0.000134981
6 *500:16 *752:73 0.00015409
7 *500:16 *752:101 2.12234e-05
8 *500:16 *759:31 0.000276324
9 *187:64 *500:16 9.16459e-05
10 *204:23 *500:16 0.000267167
11 *214:31 *500:16 1.05441e-05
12 *320:56 *500:8 3.56604e-05
13 *438:16 *500:16 0.000434159
14 *494:12 *500:8 0.000128291
*RES
1 *2182:X *500:8 39.9057 
2 *500:8 *500:16 40.6886 
3 *500:16 *2183:C1 38 
*END

*D_NET *501 0.00196475
*CONN
*I *2185:B1 I *D sky130_fd_sc_hd__a211o_1
*I *2183:X O *D sky130_fd_sc_hd__a211o_1
*CAP
1 *2185:B1 0.000152081
2 *2183:X 0.000353417
3 *501:12 0.000505498
4 *2185:B1 *2185:C1 7.06518e-06
5 *501:12 *708:35 2.26406e-05
6 *501:12 *731:36 9.48514e-05
7 *501:12 *738:145 0.000646004
8 *2177:A *2185:B1 4.58904e-06
9 *2183:A2 *501:12 9.28078e-06
10 *2185:A1 *2185:B1 1.4691e-05
11 *205:38 *2185:B1 9.6339e-05
12 *474:8 *501:12 4.80423e-06
13 *477:24 *2185:B1 4.15283e-06
14 *494:12 *2185:B1 4.93359e-05
*RES
1 *2183:X *501:12 47.5792 
2 *501:12 *2185:B1 48.6204 
*END

*D_NET *502 0.000872747
*CONN
*I *2185:C1 I *D sky130_fd_sc_hd__a211o_1
*I *2184:Y O *D sky130_fd_sc_hd__xnor2_1
*CAP
1 *2185:C1 2.53757e-05
2 *2184:Y 0.000186727
3 *502:10 0.000212103
4 *2177:A *2185:C1 3.27338e-06
5 *2183:B1 *2185:C1 1.00493e-05
6 *2185:A1 *2185:C1 2.48712e-05
7 *2185:B1 *2185:C1 7.06518e-06
8 *189:10 *502:10 0.000109377
9 *451:44 *502:10 0.000184527
10 *477:24 *502:10 0.000109377
*RES
1 *2184:Y *502:10 41.6043 
2 *502:10 *2185:C1 38.7975 
*END

*D_NET *503 0.0005325
*CONN
*I *2186:C1 I *D sky130_fd_sc_hd__a211oi_1
*I *2185:X O *D sky130_fd_sc_hd__a211o_1
*CAP
1 *2186:C1 6.52789e-05
2 *2185:X 6.52789e-05
3 *2186:C1 *2186:A1 9.67842e-05
4 *205:21 *2186:C1 9.84851e-05
5 *481:10 *2186:C1 2.4754e-05
6 *494:12 *2186:C1 0.000181919
*RES
1 *2185:X *2186:C1 48.5271 
*END

*D_NET *504 0.00498465
*CONN
*I *2193:B I *D sky130_fd_sc_hd__or2_1
*I *2188:A2 I *D sky130_fd_sc_hd__o21bai_1
*I *2384:B1 I *D sky130_fd_sc_hd__a2bb2o_1
*I *2187:Y O *D sky130_fd_sc_hd__nand2b_1
*CAP
1 *2193:B 0
2 *2188:A2 0
3 *2384:B1 0
4 *2187:Y 0.00041216
5 *504:44 0.00034312
6 *504:28 0.000857512
7 *504:16 0.000514391
8 *504:14 0.00041216
9 *504:14 *506:10 1.9163e-05
10 *504:28 *2192:A 0.000228362
11 *504:28 *2192:B 9.5877e-05
12 *504:28 *2528:RESET_B 0.000262858
13 *504:28 *505:16 0.000164282
14 *504:28 *508:10 9.41704e-05
15 *504:28 *704:112 7.34709e-05
16 *504:44 *2194:B 4.93812e-05
17 *504:44 *2384:B2 5.56279e-05
18 *504:44 *505:16 0.000142173
19 *504:44 *508:10 0.000281817
20 *504:44 *508:16 3.72803e-06
21 *504:44 *704:12 1.50445e-05
22 *2191:B2 *504:14 0.000189002
23 *2530:D *504:28 5.56356e-05
24 *158:8 *504:28 0.000357939
25 *159:8 *504:44 6.07306e-05
26 *162:10 *504:28 4.39607e-05
27 *174:10 *504:28 1.37246e-05
28 *316:18 *504:14 1.00084e-05
29 *316:18 *504:28 9.94357e-05
30 *447:33 *504:14 7.47881e-05
31 *447:41 *504:28 5.41288e-05
*RES
1 *2187:Y *504:14 44.38 
2 *504:14 *504:16 15 
3 *504:16 *504:28 43.485 
4 *504:28 *504:44 38.5343 
5 *504:44 *2384:B1 23 
6 *504:28 *2188:A2 23 
7 *504:16 *2193:B 23 
*END

*D_NET *505 0.00391761
*CONN
*I *2192:A I *D sky130_fd_sc_hd__nand2_1
*I *2194:A I *D sky130_fd_sc_hd__nand2_1
*I *2189:X O *D sky130_fd_sc_hd__or4b_1
*CAP
1 *2192:A 0.000172992
2 *2194:A 0
3 *2189:X 6.27375e-05
4 *505:16 0.000652939
5 *505:8 0.000888668
6 *2192:A *704:112 5.67058e-05
7 *505:16 *2194:B 9.86003e-05
8 *505:16 *2384:B2 2.31687e-05
9 *505:16 *2528:RESET_B 0.000141888
10 *505:16 *508:10 0
11 *505:16 *699:10 0
12 *505:16 *704:12 0.000403015
13 *2190:C *2192:A 4.21594e-06
14 *110:14 *505:16 0
15 *110:43 *505:16 0.000142173
16 *163:30 *2192:A 0.000275473
17 *163:30 *505:16 1.01436e-05
18 *173:40 *505:16 0.000123924
19 *174:10 *2192:A 2.04774e-05
20 *174:10 *505:16 0.00011624
21 *294:10 *505:16 0.00014196
22 *447:41 *505:16 4.74706e-05
23 *504:28 *2192:A 0.000228362
24 *504:28 *505:16 0.000164282
25 *504:44 *505:16 0.000142173
*RES
1 *2189:X *505:8 38.6214 
2 *505:8 *505:16 32.2343 
3 *505:16 *2194:A 23 
4 *505:8 *2192:A 42.9093 
*END

*D_NET *506 0.000782039
*CONN
*I *2191:B1 I *D sky130_fd_sc_hd__o2bb2a_1
*I *2190:X O *D sky130_fd_sc_hd__or4b_1
*CAP
1 *2191:B1 0
2 *2190:X 0.000228127
3 *506:10 0.000228127
4 *2190:B *506:10 2.98648e-05
5 *2191:A2_N *506:10 5.3304e-05
6 *2191:B2 *506:10 2.07484e-05
7 *161:23 *506:10 1.37702e-05
8 *163:30 *506:10 1.24376e-05
9 *447:14 *506:10 0.000176497
10 *504:14 *506:10 1.9163e-05
*RES
1 *2190:X *506:10 28.3029 
2 *506:10 *2191:B1 23 
*END

*D_NET *507 0.000729895
*CONN
*I *2192:B I *D sky130_fd_sc_hd__nand2_1
*I *2191:X O *D sky130_fd_sc_hd__o2bb2a_1
*CAP
1 *2192:B 3.69657e-05
2 *2191:X 6.95969e-05
3 *507:8 0.000106563
4 *2192:B *704:112 9.41704e-05
5 *2190:B *507:8 0.000163361
6 *163:30 *507:8 0.000163361
7 *504:28 *2192:B 9.5877e-05
*RES
1 *2191:X *507:8 40.2579 
2 *507:8 *2192:B 39.0979 
*END

*D_NET *508 0.00368013
*CONN
*I *2384:A2_N I *D sky130_fd_sc_hd__a2bb2o_1
*I *2194:B I *D sky130_fd_sc_hd__nand2_1
*I *2193:X O *D sky130_fd_sc_hd__or2_1
*CAP
1 *2384:A2_N 0
2 *2194:B 0.000446103
3 *2193:X 0.000413054
4 *508:16 0.000484458
5 *508:10 0.000451409
6 *2194:B *2384:B2 9.88259e-05
7 *2194:B *704:12 2.60593e-05
8 *508:10 *2528:RESET_B 0
9 *508:10 *699:10 0.000216006
10 *508:10 *704:12 0
11 *508:16 *699:10 3.30843e-07
12 *2190:B *508:10 2.13834e-05
13 *110:14 *508:10 0.000367707
14 *110:43 *2194:B 7.87243e-05
15 *159:8 *508:10 0.000428682
16 *160:10 *2194:B 3.56477e-05
17 *447:33 *508:10 8.4047e-05
18 *504:28 *508:10 9.41704e-05
19 *504:44 *2194:B 4.93812e-05
20 *504:44 *508:10 0.000281817
21 *504:44 *508:16 3.72803e-06
22 *505:16 *2194:B 9.86003e-05
23 *505:16 *508:10 0
*RES
1 *2193:X *508:10 49.7968 
2 *508:10 *508:16 15.7768 
3 *508:16 *2194:B 31.4307 
4 *508:16 *2384:A2_N 23 
*END

*D_NET *509 0.00162315
*CONN
*I *2221:A_N I *D sky130_fd_sc_hd__nand2b_1
*I *2213:A1 I *D sky130_fd_sc_hd__o21ai_1
*I *2195:Y O *D sky130_fd_sc_hd__nor2_1
*CAP
1 *2221:A_N 0.000284435
2 *2213:A1 4.55333e-05
3 *2195:Y 0.000283003
4 *509:10 0.000612971
5 *2213:A1 *2213:A2 1.14452e-05
6 *2221:A_N *2213:B1 5.67058e-05
7 *2221:A_N *2215:A 5.29672e-05
8 *2221:A_N *2221:B 8.79362e-05
9 *2221:A_N *510:6 9.84851e-05
10 *509:10 *2215:B 0
11 *146:29 *509:10 2.38288e-05
12 *146:35 *2213:A1 2.11827e-05
13 *146:35 *509:10 3.14274e-05
14 *359:89 *509:10 1.32289e-05
*RES
1 *2195:Y *509:10 42.0807 
2 *509:10 *2213:A1 38.8493 
3 *509:10 *2221:A_N 44.235 
*END

*D_NET *510 0.00145506
*CONN
*I *2213:B1 I *D sky130_fd_sc_hd__o21ai_1
*I *2221:B I *D sky130_fd_sc_hd__nand2b_1
*I *2196:Y O *D sky130_fd_sc_hd__nand2_1
*CAP
1 *2213:B1 4.54099e-06
2 *2221:B 0.000370886
3 *2196:Y 0.000152946
4 *510:6 0.000528373
5 *2213:B1 *2215:A 7.53384e-06
6 *2221:B *2215:A 0.000147657
7 *2221:A_N *2213:B1 5.67058e-05
8 *2221:A_N *2221:B 8.79362e-05
9 *2221:A_N *510:6 9.84851e-05
*RES
1 *2196:Y *510:6 26.0036 
2 *510:6 *2221:B 30.4002 
3 *510:6 *2213:B1 23.6214 
*END

*D_NET *511 0.00165378
*CONN
*I *2212:A1 I *D sky130_fd_sc_hd__a21boi_1
*I *2254:A I *D sky130_fd_sc_hd__and3_1
*I *2255:A1 I *D sky130_fd_sc_hd__a21oi_1
*I *2197:X O *D sky130_fd_sc_hd__or2_1
*CAP
1 *2212:A1 0
2 *2254:A 9.92449e-05
3 *2255:A1 0.000151326
4 *2197:X 0.000385446
5 *511:23 9.92449e-05
6 *511:10 0.000536772
7 *2254:A *2254:C 5.3304e-05
8 *2254:A *512:15 2.02872e-05
9 *2255:A1 *512:25 5.67058e-05
10 *2255:A1 *525:21 0.000138727
11 *511:10 *2225:A 8.65442e-05
12 *511:10 *512:25 1.22803e-05
13 *511:10 *525:21 1.14452e-05
14 *2197:B *2255:A1 0
15 *2197:B *511:10 2.45549e-06
16 *2198:A *2254:A 0
17 *143:17 *2255:A1 0
*RES
1 *2197:X *511:10 43.7379 
2 *511:10 *2255:A1 40.5271 
3 *511:10 *511:23 15 
4 *511:23 *2254:A 24.595 
5 *511:23 *2212:A1 23 
*END

*D_NET *512 0.00168764
*CONN
*I *2254:B I *D sky130_fd_sc_hd__and3_1
*I *2255:A2 I *D sky130_fd_sc_hd__a21oi_1
*I *2212:B1_N I *D sky130_fd_sc_hd__a21boi_1
*I *2198:Y O *D sky130_fd_sc_hd__nand2_1
*CAP
1 *2254:B 8.30376e-05
2 *2255:A2 0
3 *2212:B1_N 0
4 *2198:Y 5.1937e-05
5 *512:25 0.000266975
6 *512:15 0.000498519
7 *512:8 0.000200444
8 *2254:B *2254:C 8.60475e-05
9 *2254:B *2256:C 0
10 *512:8 *526:10 5.67058e-05
11 *512:15 *2254:C 5.3304e-05
12 *512:15 *526:10 4.95081e-05
13 *512:25 *2331:S 0
14 *512:25 *525:21 0.000164291
15 *512:25 *568:10 1.94812e-05
16 *2198:A *512:8 6.81213e-05
17 *2254:A *512:15 2.02872e-05
18 *2255:A1 *512:25 5.67058e-05
19 *511:10 *512:25 1.22803e-05
*RES
1 *2198:Y *512:8 24.595 
2 *512:8 *2212:B1_N 23 
3 *512:8 *512:15 3.00357 
4 *512:15 *512:25 35.1579 
5 *512:25 *2255:A2 23 
6 *512:15 *2254:B 24.9471 
*END

*D_NET *513 0.00236395
*CONN
*I *2211:A1 I *D sky130_fd_sc_hd__o21ai_1
*I *2229:A_N I *D sky130_fd_sc_hd__and2b_1
*I *2199:Y O *D sky130_fd_sc_hd__nor2_1
*CAP
1 *2211:A1 0.000390023
2 *2229:A_N 0
3 *2199:Y 0.000132579
4 *513:12 0.000605529
5 *513:8 0.000348085
6 *2211:A1 *2211:A2 4.2573e-05
7 *2211:A1 *2211:B1 4.40457e-05
8 *2211:A1 *2230:A 0.000272377
9 *2211:A1 *2230:B 5.70419e-05
10 *2211:A1 *2231:B1 1.76557e-05
11 *513:8 *624:12 0.000212621
12 *513:8 *650:31 2.1199e-05
13 *513:8 *650:37 1.19692e-05
14 *513:8 *701:193 0.000114083
15 *513:12 *753:92 9.41704e-05
*RES
1 *2199:Y *513:8 40.9621 
2 *513:8 *513:12 18.48 
3 *513:12 *2229:A_N 23 
4 *513:12 *2211:A1 31.265 
*END

*D_NET *514 0.00195329
*CONN
*I *2211:B1 I *D sky130_fd_sc_hd__o21ai_1
*I *2229:B I *D sky130_fd_sc_hd__and2b_1
*I *2200:Y O *D sky130_fd_sc_hd__nand2_1
*CAP
1 *2211:B1 0.000125387
2 *2229:B 0
3 *2200:Y 0.000324415
4 *514:12 0.000125387
5 *514:10 0.000324415
6 *2211:B1 *2230:A 0.000230604
7 *2211:B1 *2230:B 0.00010018
8 *2211:B1 *2231:B1 5.67058e-05
9 *2211:B1 *525:10 0.000235137
10 *514:10 *2561:A 4.17736e-05
11 *514:10 *624:12 0
12 *514:10 *701:193 0.000315857
13 *514:10 *753:92 0
14 *2200:A *514:10 2.93845e-05
15 *2211:A1 *2211:B1 4.40457e-05
*RES
1 *2200:Y *514:10 44.9186 
2 *514:10 *514:12 15 
3 *514:12 *2229:B 23 
4 *514:12 *2211:B1 28.5514 
*END

*D_NET *515 0.00103787
*CONN
*I *2244:A I *D sky130_fd_sc_hd__nor2_1
*I *2201:Y O *D sky130_fd_sc_hd__nor2_1
*CAP
1 *2244:A 0.000262348
2 *2201:Y 3.93847e-05
3 *515:8 0.000301732
4 *2244:A *517:8 6.29487e-05
5 *2203:A *2244:A 0.000141052
6 *136:12 *515:8 0.000116314
7 *139:25 *515:8 0.000114092
*RES
1 *2201:Y *515:8 39.5536 
2 *515:8 *2244:A 42.93 
*END

*D_NET *516 0.0012495
*CONN
*I *2205:C1 I *D sky130_fd_sc_hd__o211a_1
*I *2206:A3 I *D sky130_fd_sc_hd__a311o_1
*I *2202:X O *D sky130_fd_sc_hd__or2_1
*CAP
1 *2205:C1 0
2 *2206:A3 0
3 *2202:X 8.71911e-05
4 *516:19 0.00015817
5 *516:6 0.000245361
6 *516:19 *2205:A1 0.000203407
7 *516:19 *517:19 1.01436e-05
8 *516:19 *518:23 9.21347e-06
9 *2204:A *516:19 5.67058e-05
10 *2204:B *516:6 2.93845e-05
11 *2204:B *516:19 2.32004e-05
12 *2205:B1 *516:19 0.000104133
13 *2206:A2 *516:6 5.50106e-05
14 *2206:A2 *516:19 4.17736e-05
15 *2206:C1 *516:19 9.67842e-05
16 *134:16 *516:6 9.74625e-05
17 *134:16 *516:19 1.56762e-05
18 *137:21 *516:19 1.58805e-05
*RES
1 *2202:X *516:6 25.5271 
2 *516:6 *2206:A3 23 
3 *516:6 *516:19 34.8886 
4 *516:19 *2205:C1 23 
*END

*D_NET *517 0.0020755
*CONN
*I *2205:A1 I *D sky130_fd_sc_hd__o211a_1
*I *2206:B1 I *D sky130_fd_sc_hd__a311o_1
*I *2244:B I *D sky130_fd_sc_hd__nor2_1
*I *2203:X O *D sky130_fd_sc_hd__and2_1
*CAP
1 *2205:A1 0.000259473
2 *2206:B1 0
3 *2244:B 0
4 *2203:X 0.000117759
5 *517:19 0.000458844
6 *517:8 0.00031713
7 *2205:A1 *557:10 0.000215782
8 *2205:A1 *559:10 0.000115
9 *517:8 *557:10 1.41077e-05
10 *517:19 *557:10 0.000237907
11 *517:19 *757:67 0
12 *2244:A *517:8 6.29487e-05
13 *2246:B *2205:A1 1.24376e-05
14 *137:21 *517:19 5.05552e-05
15 *516:19 *2205:A1 0.000203407
16 *516:19 *517:19 1.01436e-05
*RES
1 *2203:X *517:8 25.5479 
2 *517:8 *2244:B 23 
3 *517:8 *517:19 19.6607 
4 *517:19 *2206:B1 38 
5 *517:19 *2205:A1 43.9864 
*END

*D_NET *518 0.0024164
*CONN
*I *2247:A I *D sky130_fd_sc_hd__or3b_1
*I *2245:A I *D sky130_fd_sc_hd__xnor2_1
*I *2205:A2 I *D sky130_fd_sc_hd__o211a_1
*I *2204:X O *D sky130_fd_sc_hd__and2_1
*CAP
1 *2247:A 0.000260619
2 *2245:A 0
3 *2205:A2 0
4 *2204:X 0.00013564
5 *518:23 0.000352213
6 *518:14 0.000280168
7 *518:6 0.000507403
8 *2247:A *2247:B 1.59094e-05
9 *2247:A *520:8 0
10 *2247:A *559:10 5.3656e-05
11 *2247:A *757:67 0
12 *518:14 *520:8 2.84912e-05
13 *518:23 *557:10 0.000141879
14 *518:23 *757:67 0
15 *2204:B *518:6 8.6949e-05
16 *2204:B *518:14 0.000263657
17 *2205:B1 *518:14 0.000166522
18 *2246:B *518:14 0.000114083
19 *516:19 *518:23 9.21347e-06
*RES
1 *2204:X *518:6 25.0507 
2 *518:6 *518:14 35.2614 
3 *518:14 *2205:A2 23 
4 *518:6 *518:23 17.2579 
5 *518:23 *2245:A 38 
6 *518:23 *2247:A 42.6607 
*END

*D_NET *519 0.000930485
*CONN
*I *2232:A_N I *D sky130_fd_sc_hd__and2b_1
*I *2207:B I *D sky130_fd_sc_hd__or2_1
*I *2205:X O *D sky130_fd_sc_hd__o211a_1
*CAP
1 *2232:A_N 0
2 *2207:B 2.32701e-05
3 *2205:X 0.000236868
4 *519:12 2.32701e-05
5 *519:10 0.000236868
6 *519:10 *559:10 0.00010018
7 *2236:A *2207:B 5.3304e-05
8 *2386:A1 *2207:B 5.3304e-05
9 *2386:A1 *519:10 3.83778e-05
10 *134:6 *519:10 5.41288e-05
11 *139:25 *519:10 0.000110913
*RES
1 *2205:X *519:10 42.0807 
2 *519:10 *519:12 15 
3 *519:12 *2207:B 23.6214 
4 *519:12 *2232:A_N 23 
*END

*D_NET *520 0.00171628
*CONN
*I *2208:A1 I *D sky130_fd_sc_hd__a21o_1
*I *2209:B I *D sky130_fd_sc_hd__and3_1
*I *2232:B I *D sky130_fd_sc_hd__and2b_1
*I *2206:X O *D sky130_fd_sc_hd__a311o_1
*CAP
1 *2208:A1 0.00011211
2 *2209:B 0
3 *2232:B 7.15921e-05
4 *2206:X 0.000305326
5 *520:21 0.000209704
6 *520:8 0.000474511
7 *2208:A1 *2209:C 0.000122332
8 *2208:A1 *521:14 3.61695e-05
9 *2232:B *2236:B 9.84794e-05
10 *520:21 *550:8 0
11 *2236:A *2232:B 2.4754e-05
12 *2246:B *520:8 0.000114083
13 *2247:A *520:8 0
14 *2386:A1 *520:8 0
15 *134:16 *520:8 0
16 *139:25 *520:8 0
17 *139:25 *520:21 0
18 *139:35 *2208:A1 0.000118731
19 *518:14 *520:8 2.84912e-05
*RES
1 *2206:X *520:8 43.4271 
2 *520:8 *2232:B 39.5743 
3 *520:8 *520:21 16.5536 
4 *520:21 *2209:B 23 
5 *520:21 *2208:A1 26.3971 
*END

*D_NET *521 0.00144274
*CONN
*I *2209:C I *D sky130_fd_sc_hd__and3_1
*I *2208:A2 I *D sky130_fd_sc_hd__a21o_1
*I *2207:X O *D sky130_fd_sc_hd__or2_1
*CAP
1 *2209:C 4.94565e-05
2 *2208:A2 0
3 *2207:X 9.40726e-05
4 *521:14 0.00017314
5 *521:8 0.000217756
6 *2209:C *753:22 5.90675e-06
7 *2209:C *753:26 0.000101784
8 *521:8 *522:10 3.24466e-05
9 *521:8 *753:28 6.88552e-05
10 *521:14 *522:10 1.21972e-05
11 *521:14 *753:26 0.000400204
12 *2208:A1 *2209:C 0.000122332
13 *2208:A1 *521:14 3.61695e-05
14 *139:25 *521:8 0
15 *139:25 *521:14 9.84851e-05
16 *139:35 *521:14 2.9938e-05
*RES
1 *2207:X *521:8 40.61 
2 *521:8 *521:14 19.93 
3 *521:14 *2208:A2 23 
4 *521:14 *2209:C 25.2993 
*END

*D_NET *522 0.00105191
*CONN
*I *2251:B I *D sky130_fd_sc_hd__nor2_1
*I *2210:A2 I *D sky130_fd_sc_hd__a21oi_1
*I *2208:X O *D sky130_fd_sc_hd__a21o_1
*CAP
1 *2251:B 4.16985e-05
2 *2210:A2 0
3 *2208:X 0.000225004
4 *522:14 5.66789e-05
5 *522:10 0.000239984
6 *2251:B *2210:B1 3.22879e-05
7 *522:10 *2535:SET_B 0
8 *522:10 *753:28 0
9 *2210:A1 *2251:B 4.34745e-05
10 *2210:A1 *522:14 5.50106e-05
11 *139:25 *522:10 7.09886e-05
12 *139:35 *522:10 0
13 *140:30 *2251:B 0.000187129
14 *140:30 *522:14 5.50106e-05
15 *521:8 *522:10 3.24466e-05
16 *521:14 *522:10 1.21972e-05
*RES
1 *2208:X *522:10 41.9357 
2 *522:10 *522:14 15.6214 
3 *522:14 *2210:A2 23 
4 *522:14 *2251:B 25.0507 
*END

*D_NET *523 0.00245991
*CONN
*I *2250:A2 I *D sky130_fd_sc_hd__a21oi_1
*I *2210:B1 I *D sky130_fd_sc_hd__a21oi_1
*I *2209:X O *D sky130_fd_sc_hd__and3_1
*CAP
1 *2250:A2 0.000297455
2 *2210:B1 0.000282277
3 *2209:X 0.000125798
4 *523:10 0.000705531
5 *2210:B1 *2252:A 6.17437e-06
6 *2210:B1 *2252:D 0.000143655
7 *2250:A2 *533:41 0.000213551
8 *2250:A2 *548:27 0
9 *2250:A2 *550:8 1.19796e-05
10 *2250:A2 *563:10 0.000141869
11 *2250:A2 *707:106 0.0002246
12 *523:10 *550:8 2.29192e-05
13 *523:10 *753:22 5.67058e-05
14 *2251:B *2210:B1 3.22879e-05
15 *140:30 *2210:B1 1.22822e-05
16 *140:47 *2250:A2 0.000182826
*RES
1 *2209:X *523:10 39.8229 
2 *523:10 *2210:B1 42.4536 
3 *523:10 *2250:A2 44.6907 
*END

*D_NET *524 0.00219116
*CONN
*I *2211:A2 I *D sky130_fd_sc_hd__o21ai_1
*I *2230:A I *D sky130_fd_sc_hd__xnor2_1
*I *2250:B1 I *D sky130_fd_sc_hd__a21oi_1
*I *2210:Y O *D sky130_fd_sc_hd__a21oi_1
*CAP
1 *2211:A2 1.53034e-05
2 *2230:A 4.3528e-05
3 *2250:B1 0.000228142
4 *2210:Y 0.000122535
5 *524:21 0.000211159
6 *524:8 0.000503004
7 *2211:A2 *2231:B1 2.93845e-05
8 *2230:A *2231:B1 2.18409e-05
9 *2250:B1 *707:12 2.98648e-05
10 *524:8 *533:41 0
11 *524:8 *707:12 0
12 *524:21 *533:41 0
13 *2211:A1 *2211:A2 4.2573e-05
14 *2211:A1 *2230:A 0.000272377
15 *2211:B1 *2230:A 0.000230604
16 *140:47 *2250:B1 0.00035673
17 *140:47 *524:8 8.41115e-05
*RES
1 *2210:Y *524:8 40.61 
2 *524:8 *2250:B1 42.9093 
3 *524:8 *524:21 17.2579 
4 *524:21 *2230:A 26.0036 
5 *524:21 *2211:A2 23.6214 
*END

*D_NET *525 0.00200178
*CONN
*I *2254:C I *D sky130_fd_sc_hd__and3_1
*I *2212:A2 I *D sky130_fd_sc_hd__a21boi_1
*I *2255:B1 I *D sky130_fd_sc_hd__a21oi_1
*I *2211:Y O *D sky130_fd_sc_hd__o21ai_1
*CAP
1 *2254:C 8.99333e-05
2 *2212:A2 0
3 *2255:B1 0
4 *2211:Y 0.00039552
5 *525:21 0.00018415
6 *525:10 0.000489737
7 *2254:C *2256:A 0
8 *525:10 *2231:B1 0.00010018
9 *525:10 *568:10 0
10 *525:21 *568:10 0
11 *2211:B1 *525:10 0.000235137
12 *2254:A *2254:C 5.3304e-05
13 *2254:B *2254:C 8.60475e-05
14 *2255:A1 *525:21 0.000138727
15 *511:10 *525:21 1.14452e-05
16 *512:15 *2254:C 5.3304e-05
17 *512:25 *525:21 0.000164291
*RES
1 *2211:Y *525:10 44.6907 
2 *525:10 *2255:B1 38 
3 *525:10 *525:21 17.61 
4 *525:21 *2212:A2 23 
5 *525:21 *2254:C 25.2993 
*END

*D_NET *526 0.00133555
*CONN
*I *2213:A2 I *D sky130_fd_sc_hd__o21ai_1
*I *2225:A I *D sky130_fd_sc_hd__xnor2_1
*I *2212:Y O *D sky130_fd_sc_hd__a21boi_1
*CAP
1 *2213:A2 0.000174039
2 *2225:A 0.000141611
3 *2212:Y 0.000201833
4 *526:10 0.000517482
5 *2213:A2 *2432:S 0
6 *2213:A2 *529:8 0
7 *2213:A2 *701:193 0
8 *2197:B *2213:A2 1.22803e-05
9 *2197:B *526:10 8.41012e-05
10 *2213:A1 *2213:A2 1.14452e-05
11 *511:10 *2225:A 8.65442e-05
12 *512:8 *526:10 5.67058e-05
13 *512:15 *526:10 4.95081e-05
*RES
1 *2212:Y *526:10 41.8321 
2 *526:10 *2225:A 41.0036 
3 *526:10 *2213:A2 40.61 
*END

*D_NET *527 0.00029937
*CONN
*I *2215:A I *D sky130_fd_sc_hd__xnor2_1
*I *2213:Y O *D sky130_fd_sc_hd__o21ai_1
*CAP
1 *2215:A 4.56059e-05
2 *2213:Y 4.56059e-05
3 *2213:B1 *2215:A 7.53384e-06
4 *2221:A_N *2215:A 5.29672e-05
5 *2221:B *2215:A 0.000147657
*RES
1 *2213:Y *2215:A 48.0714 
*END

*D_NET *528 0.0022015
*CONN
*I *2215:B I *D sky130_fd_sc_hd__xnor2_1
*I *2214:X O *D sky130_fd_sc_hd__xor2_1
*CAP
1 *2215:B 0.000333311
2 *2214:X 0.000610749
3 *528:8 0.00094406
4 *2039:A1 *2215:B 9.03784e-05
5 *2039:A1 *528:8 0.000102375
6 *2039:A2 *528:8 2.4754e-05
7 *2039:B1 *528:8 9.58714e-05
8 *146:35 *2215:B 0
9 *509:10 *2215:B 0
*RES
1 *2214:X *528:8 49.5793 
2 *528:8 *2215:B 43.7793 
*END

*D_NET *529 0.0011435
*CONN
*I *2258:A1 I *D sky130_fd_sc_hd__o31ai_1
*I *2215:Y O *D sky130_fd_sc_hd__xnor2_1
*CAP
1 *2258:A1 0.000256082
2 *2215:Y 0.000116031
3 *529:8 0.000372114
4 *2258:A1 *2225:B 0.000228903
5 *2258:A1 *539:10 0.000170365
6 *529:8 *535:8 0
7 *2213:A2 *529:8 0
*RES
1 *2215:Y *529:8 39.9057 
2 *529:8 *2258:A1 44.3386 
*END

*D_NET *530 0.00284771
*CONN
*I *2240:A2 I *D sky130_fd_sc_hd__o211a_1
*I *2237:A1 I *D sky130_fd_sc_hd__o21a_1
*I *2216:X O *D sky130_fd_sc_hd__and2_1
*CAP
1 *2240:A2 0
2 *2237:A1 2.70317e-05
3 *2216:X 0.000278724
4 *530:29 0.000240091
5 *530:14 0.000483261
6 *530:10 0.000494863
7 *530:10 *2238:A1 0.000133563
8 *530:10 *2267:A0 3.70187e-05
9 *530:10 *531:10 3.3746e-05
10 *530:10 *532:8 1.14452e-05
11 *530:10 *574:47 5.08795e-05
12 *530:29 *2451:CLK 0.000156379
13 *530:29 *541:53 0
14 *530:29 *707:119 0.000212621
15 *2233:A *2237:A1 3.22879e-05
16 *2233:A *530:14 7.53384e-06
17 *2240:A1 *530:29 0.000172656
18 *157:14 *530:10 7.59794e-05
19 *248:27 *530:10 9.3813e-05
20 *249:10 *530:10 3.47781e-05
21 *249:14 *530:14 0.000221992
22 *249:23 *530:14 2.25809e-05
23 *253:10 *530:14 2.64616e-05
*RES
1 *2216:X *530:10 44.6493 
2 *530:10 *530:14 18.9564 
3 *530:14 *2237:A1 23.6214 
4 *530:14 *530:29 35.5721 
5 *530:29 *2240:A2 23 
*END

*D_NET *531 0.00710516
*CONN
*I *2223:A I *D sky130_fd_sc_hd__or2_1
*I *2219:A I *D sky130_fd_sc_hd__nand2_2
*I *2265:S I *D sky130_fd_sc_hd__mux2_1
*I *2235:B2 I *D sky130_fd_sc_hd__o22a_1
*I *2228:A I *D sky130_fd_sc_hd__nor2_1
*I *2238:A1 I *D sky130_fd_sc_hd__o21ai_1
*I *2217:Y O *D sky130_fd_sc_hd__nand2_2
*CAP
1 *2223:A 0.000193805
2 *2219:A 2.34823e-05
3 *2265:S 0
4 *2235:B2 0
5 *2228:A 4.79567e-05
6 *2238:A1 0.000347901
7 *2217:Y 0.00013742
8 *531:62 0.000130333
9 *531:47 0.000468391
10 *531:39 0.000384458
11 *531:37 0.000188753
12 *531:31 0.000826767
13 *531:10 0.00104737
14 *2219:A *536:10 0
15 *2223:A *2223:B 7.80354e-05
16 *2223:A *2264:A 7.75329e-06
17 *2223:A *532:39 9.4713e-05
18 *2228:A *2266:A 5.41288e-05
19 *2228:A *541:8 9.84794e-05
20 *2238:A1 *2234:B 0
21 *2238:A1 *2238:A2 2.3375e-05
22 *2238:A1 *2451:CLK 0
23 *2238:A1 *548:10 0.000503515
24 *2238:A1 *757:93 9.88574e-06
25 *2238:A1 *757:102 0
26 *531:10 *2451:CLK 0
27 *531:10 *532:8 1.01436e-05
28 *531:31 *536:6 0.00014196
29 *531:37 *2223:B 1.83667e-05
30 *531:37 *2237:A2 1.58805e-05
31 *531:37 *536:6 5.50049e-05
32 *531:39 *2257:A1 2.64616e-05
33 *531:39 *533:8 2.64616e-05
34 *531:39 *536:6 4.2573e-05
35 *531:39 *536:10 0.000135037
36 *531:47 *2235:A1 1.58805e-05
37 *531:47 *2237:A2 1.69668e-05
38 *531:47 *2239:B 9.67842e-05
39 *531:47 *2242:B1 0.000169674
40 *531:47 *2266:A 2.02872e-05
41 *531:47 *2266:B 3.66893e-05
42 *531:47 *532:52 0.000105165
43 *531:47 *532:54 0.000119921
44 *531:47 *538:10 5.24393e-05
45 *531:47 *541:8 0.000126914
46 *531:62 *2235:A1 0.000163343
47 *531:62 *541:12 0
48 *531:62 *541:38 0
49 *531:62 *548:31 1.14452e-05
50 *2222:A_N *531:31 0.000139774
51 *2222:B *2219:A 0
52 *2227:A *531:47 0
53 *157:14 *2223:A 0.000182826
54 *157:14 *531:10 5.41288e-05
55 *248:27 *531:31 3.71251e-05
56 *248:31 *531:31 3.86893e-05
57 *249:10 *2238:A1 0.000379403
58 *250:25 *2223:A 0
59 *250:29 *2223:A 0
60 *250:35 *531:31 2.18409e-05
61 *250:35 *531:37 1.01436e-05
62 *530:10 *2238:A1 0.000133563
63 *530:10 *531:10 3.3746e-05
*RES
1 *2217:Y *531:10 40.2993 
2 *531:10 *2238:A1 48.2121 
3 *531:10 *531:31 37.7679 
4 *531:31 *531:37 16.4707 
5 *531:37 *531:39 2.05071 
6 *531:39 *531:47 38.0579 
7 *531:47 *2228:A 24.595 
8 *531:47 *531:62 32.2579 
9 *531:62 *2235:B2 23 
10 *531:39 *2265:S 23 
11 *531:37 *2219:A 23.4971 
12 *531:31 *2223:A 42.6607 
*END

*D_NET *532 0.00700394
*CONN
*I *2226:A I *D sky130_fd_sc_hd__nor2_1
*I *2239:B I *D sky130_fd_sc_hd__nand2_1
*I *2235:A1 I *D sky130_fd_sc_hd__o22a_1
*I *2224:A1 I *D sky130_fd_sc_hd__o21a_1
*I *2219:B I *D sky130_fd_sc_hd__nand2_2
*I *2218:X O *D sky130_fd_sc_hd__or2_2
*CAP
1 *2226:A 0.000190587
2 *2239:B 7.57474e-05
3 *2235:A1 0.000145926
4 *2224:A1 5.24162e-05
5 *2219:B 0.000152697
6 *2218:X 9.39728e-05
7 *532:54 0.000332405
8 *532:52 0.000598159
9 *532:39 0.000645279
10 *532:20 0.000882714
11 *532:8 0.000527968
12 *2224:A1 *533:27 0.000144173
13 *2224:A1 *537:6 5.67058e-05
14 *2226:A *541:53 0.000224605
15 *2235:A1 *2235:A2 5.67058e-05
16 *2235:A1 *2266:B 0
17 *2235:A1 *541:38 0
18 *2235:A1 *548:27 5.41385e-05
19 *2235:A1 *575:10 6.07611e-06
20 *2235:A1 *707:106 2.4754e-05
21 *2239:B *2266:A 5.50106e-05
22 *2239:B *2266:B 3.17634e-05
23 *2239:B *541:8 7.1349e-05
24 *2239:B *576:12 2.93747e-05
25 *532:8 *2451:CLK 0
26 *532:8 *574:47 2.7003e-05
27 *532:20 *534:10 5.50106e-05
28 *532:39 *533:27 3.44001e-05
29 *532:39 *537:6 9.75779e-05
30 *532:39 *538:10 0.000140259
31 *532:52 *2265:A0 0.00017194
32 *532:52 *538:10 4.73585e-05
33 *532:52 *575:10 6.32688e-05
34 *532:54 *575:10 0.000116321
35 *2012:C *532:20 2.3529e-05
36 *2217:A *532:20 0.000182826
37 *2222:A_N *2219:B 4.17736e-05
38 *2223:A *532:39 9.4713e-05
39 *157:14 *2224:A1 4.75206e-05
40 *157:14 *532:20 0.000222378
41 *157:14 *532:39 0.000182642
42 *247:30 *532:8 1.62015e-05
43 *248:98 *2219:B 9.04083e-05
44 *248:98 *532:20 1.83667e-05
45 *250:25 *532:20 6.38845e-05
46 *250:29 *2219:B 0.000164291
47 *250:29 *532:20 2.68751e-05
48 *250:35 *2219:B 0.00010018
49 *530:10 *532:8 1.14452e-05
50 *531:10 *532:8 1.01436e-05
51 *531:47 *2235:A1 1.58805e-05
52 *531:47 *2239:B 9.67842e-05
53 *531:47 *532:52 0.000105165
54 *531:47 *532:54 0.000119921
55 *531:62 *2235:A1 0.000163343
*RES
1 *2218:X *532:8 39.9057 
2 *532:8 *532:20 37.7057 
3 *532:20 *2219:B 42.1843 
4 *532:20 *532:39 21.9807 
5 *532:39 *2224:A1 25.0507 
6 *532:39 *532:52 21.0486 
7 *532:52 *532:54 3.31429 
8 *532:54 *2235:A1 41.7079 
9 *532:54 *2239:B 40.5271 
10 *532:52 *2226:A 41.9564 
*END

*D_NET *533 0.00822821
*CONN
*I *2264:A I *D sky130_fd_sc_hd__nor2_1
*I *2258:A2 I *D sky130_fd_sc_hd__o31ai_1
*I *2256:A I *D sky130_fd_sc_hd__or4_1
*I *2241:A1 I *D sky130_fd_sc_hd__o21bai_1
*I *2248:A1 I *D sky130_fd_sc_hd__o31a_1
*I *2252:A I *D sky130_fd_sc_hd__or4_1
*I *2242:A3 I *D sky130_fd_sc_hd__o31a_1
*I *2219:Y O *D sky130_fd_sc_hd__nand2_2
*CAP
1 *2264:A 0.000186313
2 *2258:A2 0
3 *2256:A 0.000114298
4 *2241:A1 0.000195576
5 *2248:A1 0
6 *2252:A 2.7121e-05
7 *2242:A3 5.31808e-05
8 *2219:Y 4.54044e-05
9 *533:58 9.06705e-05
10 *533:52 0.000638279
11 *533:41 0.000986731
12 *533:33 0.000850484
13 *533:27 0.000561198
14 *533:19 0.00069633
15 *533:8 0.000176013
16 *2241:A1 *2241:A2 5.90675e-06
17 *2241:A1 *2249:A2 0
18 *2241:A1 *2249:B1 8.49154e-05
19 *2241:A1 *2249:C1 3.27248e-05
20 *2242:A3 *2237:A2 0.000169674
21 *2242:A3 *2242:B1 0.000169674
22 *2242:A3 *538:10 1.01436e-05
23 *2252:A *541:24 5.3304e-05
24 *2256:A *2256:B 0.000313249
25 *2256:A *2256:C 2.02517e-05
26 *2256:A *2257:A2 9.67842e-05
27 *2256:A *2257:C1 6.29487e-05
28 *2264:A *2223:B 8.9458e-05
29 *2264:A *534:24 6.48142e-05
30 *2264:A *534:30 0
31 *2264:A *537:14 0
32 *2264:A *538:10 2.46345e-05
33 *533:19 *2223:B 0.000101708
34 *533:19 *2237:A2 8.72173e-05
35 *533:19 *538:10 0.000178782
36 *533:27 *2258:A3 0.000356724
37 *533:27 *538:10 0.000140259
38 *533:33 *2256:B 9.48381e-06
39 *533:33 *539:10 5.97612e-05
40 *533:33 *570:8 0
41 *533:41 *2226:B 7.66085e-05
42 *533:41 *2256:B 6.7177e-06
43 *533:41 *539:10 1.58805e-05
44 *533:41 *540:10 0.000163352
45 *533:41 *541:24 0
46 *533:41 *541:53 0
47 *533:41 *562:8 0
48 *533:41 *565:10 0
49 *533:41 *566:10 0.000257453
50 *533:52 *2249:A2 0.000272383
51 *533:52 *2249:B1 1.94693e-05
52 *533:52 *541:24 2.80394e-05
53 *533:58 *2248:A2 0.000138708
54 *533:58 *550:8 0
55 *2210:B1 *2252:A 6.17437e-06
56 *2223:A *2264:A 7.75329e-06
57 *2224:A1 *533:27 0.000144173
58 *2250:A2 *533:41 0.000213551
59 *2251:A *533:52 0
60 *2254:C *2256:A 0
61 *140:47 *533:41 0
62 *157:14 *533:27 6.30728e-05
63 *524:8 *533:41 0
64 *524:21 *533:41 0
65 *531:39 *533:8 2.64616e-05
66 *532:39 *533:27 3.44001e-05
*RES
1 *2219:Y *533:8 38.6214 
2 *533:8 *2242:A3 40.2579 
3 *533:8 *533:19 2.61 
4 *533:19 *533:27 24.1246 
5 *533:27 *533:33 17.2889 
6 *533:33 *533:41 27.8843 
7 *533:41 *2252:A 23.6214 
8 *533:41 *533:52 5.75857 
9 *533:52 *533:58 31.9057 
10 *533:58 *2248:A1 23 
11 *533:52 *2241:A1 26.6664 
12 *533:33 *2256:A 42.3293 
13 *533:27 *2258:A2 23 
14 *533:19 *2264:A 41.6664 
*END

*D_NET *534 0.00400075
*CONN
*I *2259:B I *D sky130_fd_sc_hd__and2_1
*I *2268:A1 I *D sky130_fd_sc_hd__a21oi_1
*I *2265:A0 I *D sky130_fd_sc_hd__mux2_1
*I *2224:A2 I *D sky130_fd_sc_hd__o21a_1
*I *2258:A3 I *D sky130_fd_sc_hd__o31ai_1
*I *2220:X O *D sky130_fd_sc_hd__or3b_2
*CAP
1 *2259:B 0
2 *2268:A1 0
3 *2265:A0 0.000243038
4 *2224:A2 0
5 *2258:A3 0.000238933
6 *2220:X 0.000240297
7 *534:32 0.000238933
8 *534:30 0.000502562
9 *534:24 0.000660719
10 *534:12 0.000401196
11 *534:10 0.000240297
12 *2265:A0 *2226:B 0
13 *2265:A0 *2256:B 0
14 *2265:A0 *2257:A1 5.50049e-05
15 *2265:A0 *536:14 5.3304e-05
16 *2265:A0 *570:8 0
17 *534:24 *2264:B 1.32314e-05
18 *534:24 *537:14 6.17437e-06
19 *534:24 *571:23 4.6595e-05
20 *534:24 *574:24 0.000183113
21 *534:30 *537:14 9.62334e-05
22 *534:30 *570:8 0
23 *2264:A *534:24 6.48142e-05
24 *2264:A *534:30 0
25 *157:14 *534:10 6.82416e-05
26 *250:25 *534:10 6.4393e-05
27 *532:20 *534:10 5.50106e-05
28 *532:52 *2265:A0 0.00017194
29 *533:27 *2258:A3 0.000356724
*RES
1 *2220:X *534:10 41.9564 
2 *534:10 *534:12 15 
3 *534:12 *534:24 36.525 
4 *534:24 *534:30 19.06 
5 *534:30 *534:32 15 
6 *534:32 *2258:A3 26.9564 
7 *534:32 *2224:A2 23 
8 *534:30 *2265:A0 42.4536 
9 *534:24 *2268:A1 23 
10 *534:12 *2259:B 23 
*END

*D_NET *535 0.000876293
*CONN
*I *2225:B I *D sky130_fd_sc_hd__xnor2_1
*I *2221:Y O *D sky130_fd_sc_hd__nand2b_1
*CAP
1 *2225:B 9.38212e-05
2 *2221:Y 0.000136309
3 *535:8 0.00023013
4 *2225:B *539:10 0.000187129
5 *2258:A1 *2225:B 0.000228903
6 *529:8 *535:8 0
*RES
1 *2221:Y *535:8 40.2579 
2 *535:8 *2225:B 41.48 
*END

*D_NET *536 0.00546522
*CONN
*I *2223:B I *D sky130_fd_sc_hd__or2_1
*I *2237:A2 I *D sky130_fd_sc_hd__o21a_1
*I *2265:A1 I *D sky130_fd_sc_hd__mux2_1
*I *2256:B I *D sky130_fd_sc_hd__or4_1
*I *2226:B I *D sky130_fd_sc_hd__nor2_1
*I *2222:Y O *D sky130_fd_sc_hd__nand3b_2
*CAP
1 *2223:B 7.9024e-05
2 *2237:A2 0.000406882
3 *2265:A1 0
4 *2256:B 0.000366719
5 *2226:B 0.000160513
6 *2222:Y 8.42451e-05
7 *536:43 0.000485906
8 *536:14 0.00076632
9 *536:10 0.000385004
10 *536:6 0.000230161
11 *2226:B *540:10 2.30292e-05
12 *2226:B *575:10 0
13 *2237:A2 *541:53 0.000352426
14 *2237:A2 *551:10 0.000137651
15 *2237:A2 *555:10 5.3304e-05
16 *2256:B *2257:A1 2.47702e-05
17 *2256:B *570:8 1.01436e-05
18 *536:10 *2257:A1 1.03836e-05
19 *536:14 *2257:A1 0.000267847
20 *2219:A *536:10 0
21 *2223:A *2223:B 7.80354e-05
22 *2227:A *2237:A2 2.8936e-05
23 *2233:A *2237:A2 2.98648e-05
24 *2242:A3 *2237:A2 0.000169674
25 *2256:A *2256:B 0.000313249
26 *2264:A *2223:B 8.9458e-05
27 *2265:A0 *2226:B 0
28 *2265:A0 *2256:B 0
29 *2265:A0 *536:14 5.3304e-05
30 *250:35 *2237:A2 5.23561e-05
31 *250:35 *536:6 9.84851e-05
32 *531:31 *536:6 0.00014196
33 *531:37 *2223:B 1.83667e-05
34 *531:37 *2237:A2 1.58805e-05
35 *531:37 *536:6 5.50049e-05
36 *531:39 *536:6 4.2573e-05
37 *531:39 *536:10 0.000135037
38 *531:47 *2237:A2 1.69668e-05
39 *533:19 *2223:B 0.000101708
40 *533:19 *2237:A2 8.72173e-05
41 *533:33 *2256:B 9.48381e-06
42 *533:41 *2226:B 7.66085e-05
43 *533:41 *2256:B 6.7177e-06
*RES
1 *2222:Y *536:6 25.5271 
2 *536:6 *536:10 2.54786 
3 *536:10 *536:14 20.8621 
4 *536:14 *2226:B 41.5836 
5 *536:14 *2256:B 43.7586 
6 *536:10 *2265:A1 23 
7 *536:6 *536:43 15 
8 *536:43 *2237:A2 46.9279 
9 *536:43 *2223:B 40.61 
*END

*D_NET *537 0.000761827
*CONN
*I *2224:B1 I *D sky130_fd_sc_hd__o21a_1
*I *2268:A2 I *D sky130_fd_sc_hd__a21oi_1
*I *2223:X O *D sky130_fd_sc_hd__or2_1
*CAP
1 *2224:B1 0
2 *2268:A2 0
3 *2223:X 3.38564e-05
4 *537:14 0.000179265
5 *537:6 0.000213121
6 *2224:A1 *537:6 5.67058e-05
7 *2264:A *537:14 0
8 *157:14 *537:6 7.88926e-05
9 *532:39 *537:6 9.75779e-05
10 *534:24 *537:14 6.17437e-06
11 *534:30 *537:14 9.62334e-05
*RES
1 *2223:X *537:6 24.5743 
2 *537:6 *537:14 33.2314 
3 *537:14 *2268:A2 23 
4 *537:6 *2224:B1 23 
*END

*D_NET *538 0.00255427
*CONN
*I *2257:A1 I *D sky130_fd_sc_hd__o211a_1
*I *2242:B1 I *D sky130_fd_sc_hd__o31a_1
*I *2224:X O *D sky130_fd_sc_hd__o21a_1
*CAP
1 *2257:A1 0.000378213
2 *2242:B1 5.04181e-05
3 *2224:X 0.00013471
4 *538:10 0.000563341
5 *2257:A1 *2257:A2 1.14154e-05
6 *2257:A1 *2257:C1 0
7 *2257:A1 *575:10 9.84794e-05
8 *2242:A3 *2242:B1 0.000169674
9 *2242:A3 *538:10 1.01436e-05
10 *2256:B *2257:A1 2.47702e-05
11 *2264:A *538:10 2.46345e-05
12 *2265:A0 *2257:A1 5.50049e-05
13 *531:39 *2257:A1 2.64616e-05
14 *531:47 *2242:B1 0.000169674
15 *531:47 *538:10 5.24393e-05
16 *532:39 *538:10 0.000140259
17 *532:52 *538:10 4.73585e-05
18 *533:19 *538:10 0.000178782
19 *533:27 *538:10 0.000140259
20 *536:10 *2257:A1 1.03836e-05
21 *536:14 *2257:A1 0.000267847
*RES
1 *2224:X *538:10 42.5364 
2 *538:10 *2242:B1 40.2579 
3 *538:10 *2257:A1 46.265 
*END

*D_NET *539 0.00140643
*CONN
*I *2257:A2 I *D sky130_fd_sc_hd__o211a_1
*I *2225:Y O *D sky130_fd_sc_hd__xnor2_1
*CAP
1 *2257:A2 7.48504e-05
2 *2225:Y 0.000357698
3 *539:10 0.000432549
4 *2257:A2 *2257:C1 0
5 *2225:B *539:10 0.000187129
6 *2256:A *2257:A2 9.67842e-05
7 *2257:A1 *2257:A2 1.14154e-05
8 *2258:A1 *539:10 0.000170365
9 *533:33 *539:10 5.97612e-05
10 *533:41 *539:10 1.58805e-05
*RES
1 *2225:Y *539:10 45.6436 
2 *539:10 *2257:A2 39.595 
*END

*D_NET *540 0.000781776
*CONN
*I *2231:A1 I *D sky130_fd_sc_hd__o21ai_1
*I *2226:Y O *D sky130_fd_sc_hd__nor2_1
*CAP
1 *2231:A1 0
2 *2226:Y 0.000254554
3 *540:10 0.000254554
4 *540:10 *566:10 8.62876e-05
5 *2226:B *540:10 2.30292e-05
6 *533:41 *540:10 0.000163352
*RES
1 *2226:Y *540:10 42.3086 
2 *540:10 *2231:A1 38 
*END

*D_NET *541 0.00547064
*CONN
*I *2237:B1 I *D sky130_fd_sc_hd__o21a_1
*I *2228:B I *D sky130_fd_sc_hd__nor2_1
*I *2235:A2 I *D sky130_fd_sc_hd__o22a_1
*I *2252:B I *D sky130_fd_sc_hd__or4_1
*I *2227:X O *D sky130_fd_sc_hd__or3b_1
*CAP
1 *2237:B1 0
2 *2228:B 0
3 *2235:A2 8.41646e-05
4 *2252:B 0
5 *2227:X 0.000414039
6 *541:53 0.000513544
7 *541:38 0.000559527
8 *541:24 0.000284569
9 *541:12 0.000469296
10 *541:8 0.000560585
11 *2235:A2 *548:27 3.17634e-05
12 *2235:A2 *707:106 0.000258245
13 *541:8 *2231:A2 1.94812e-05
14 *541:8 *2266:A 1.22822e-05
15 *541:8 *552:22 0.00010018
16 *541:8 *576:12 7.44161e-06
17 *541:12 *548:31 1.19796e-05
18 *541:12 *565:10 5.19048e-05
19 *541:24 *2249:A2 0.000103647
20 *541:24 *548:31 0
21 *541:24 *549:10 0.000141888
22 *541:24 *565:10 0.000353661
23 *541:24 *707:106 9.84851e-05
24 *541:38 *562:8 0
25 *541:38 *575:10 4.21594e-06
26 *541:53 *562:8 0
27 *541:53 *575:10 7.30978e-05
28 *2226:A *541:53 0.000224605
29 *2228:A *541:8 9.84794e-05
30 *2233:A *541:53 2.18409e-05
31 *2235:A1 *2235:A2 5.67058e-05
32 *2235:A1 *541:38 0
33 *2237:A2 *541:53 0.000352426
34 *2239:B *541:8 7.1349e-05
35 *2242:A1 *541:53 0.000268873
36 *2242:A2 *541:53 1.41077e-05
37 *2251:A *541:24 0
38 *2252:A *541:24 5.3304e-05
39 *530:29 *541:53 0
40 *531:47 *541:8 0.000126914
41 *531:62 *541:12 0
42 *531:62 *541:38 0
43 *533:41 *541:24 0
44 *533:41 *541:53 0
45 *533:52 *541:24 2.80394e-05
*RES
1 *2227:X *541:8 44.3386 
2 *541:8 *541:12 17.2579 
3 *541:12 *541:24 38.0371 
4 *541:24 *2252:B 23 
5 *541:12 *2235:A2 26.0036 
6 *541:8 *541:38 0.849286 
7 *541:38 *2228:B 38 
8 *541:38 *541:53 27.18 
9 *541:53 *2237:B1 23 
*END

*D_NET *542 0.00115232
*CONN
*I *2266:A I *D sky130_fd_sc_hd__or3b_1
*I *2231:A2 I *D sky130_fd_sc_hd__o21ai_1
*I *2228:Y O *D sky130_fd_sc_hd__nor2_1
*CAP
1 *2266:A 0.000122682
2 *2231:A2 0.000225745
3 *2228:Y 0
4 *542:4 0.000348427
5 *2231:A2 *545:6 0.000196652
6 *2231:A2 *566:10 9.76261e-05
7 *2228:A *2266:A 5.41288e-05
8 *2239:B *2266:A 5.50106e-05
9 *531:47 *2266:A 2.02872e-05
10 *541:8 *2231:A2 1.94812e-05
11 *541:8 *2266:A 1.22822e-05
*RES
1 *2228:Y *542:4 23 
2 *542:4 *2231:A2 28.3857 
3 *542:4 *2266:A 25.5271 
*END

*D_NET *543 0.000186828
*CONN
*I *2230:B I *D sky130_fd_sc_hd__xnor2_1
*I *2229:X O *D sky130_fd_sc_hd__and2b_1
*CAP
1 *2230:B 1.48031e-05
2 *2229:X 1.48031e-05
3 *2211:A1 *2230:B 5.70419e-05
4 *2211:B1 *2230:B 0.00010018
*RES
1 *2229:X *2230:B 47.0979 
*END

*D_NET *544 0.000572905
*CONN
*I *2231:B1 I *D sky130_fd_sc_hd__o21ai_1
*I *2230:Y O *D sky130_fd_sc_hd__xnor2_1
*CAP
1 *2231:B1 0.000170882
2 *2230:Y 0.000170882
3 *2231:B1 *545:6 5.37348e-06
4 *2211:A1 *2231:B1 1.76557e-05
5 *2211:A2 *2231:B1 2.93845e-05
6 *2211:B1 *2231:B1 5.67058e-05
7 *2230:A *2231:B1 2.18409e-05
8 *525:10 *2231:B1 0.00010018
*RES
1 *2230:Y *2231:B1 49.9771 
*END

*D_NET *545 0.000733479
*CONN
*I *2253:A I *D sky130_fd_sc_hd__and3_1
*I *2231:Y O *D sky130_fd_sc_hd__o21ai_1
*CAP
1 *2253:A 0
2 *2231:Y 0.000235521
3 *545:6 0.000235521
4 *545:6 *2253:C 6.04112e-05
5 *2231:A2 *545:6 0.000196652
6 *2231:B1 *545:6 5.37348e-06
*RES
1 *2231:Y *545:6 27.9093 
2 *545:6 *2253:A 23 
*END

*D_NET *546 0.000321154
*CONN
*I *2236:B I *D sky130_fd_sc_hd__xnor2_1
*I *2232:X O *D sky130_fd_sc_hd__and2b_1
*CAP
1 *2236:B 4.08113e-05
2 *2232:X 4.08113e-05
3 *2232:B *2236:B 9.84794e-05
4 *2236:A *2236:B 0.000141052
*RES
1 *2232:X *2236:B 47.5743 
*END

*D_NET *547 0.00171131
*CONN
*I *2234:B I *D sky130_fd_sc_hd__nand2_1
*I *2240:B1 I *D sky130_fd_sc_hd__o211a_1
*I *2233:Y O *D sky130_fd_sc_hd__nor2_1
*CAP
1 *2234:B 0.000160566
2 *2240:B1 0.000183254
3 *2233:Y 0
4 *547:6 0.00034382
5 *2234:B *2451:CLK 0.000262178
6 *2234:B *548:10 6.43253e-05
7 *2240:B1 *2238:B1 5.50106e-05
8 *2240:B1 *2451:CLK 0.000138727
9 *2240:B1 *548:10 3.95159e-06
10 *2240:B1 *552:22 0.000133316
11 *2240:B1 *707:119 0.00021039
12 *2238:A1 *2234:B 0
13 *253:10 *2234:B 6.07611e-06
14 *253:10 *2240:B1 9.63918e-05
15 *254:6 *2240:B1 5.3304e-05
*RES
1 *2233:Y *547:6 38 
2 *547:6 *2240:B1 43.3443 
3 *547:6 *2234:B 41.6664 
*END

*D_NET *548 0.00576406
*CONN
*I *2235:B1 I *D sky130_fd_sc_hd__o22a_1
*I *2241:A2 I *D sky130_fd_sc_hd__o21bai_1
*I *2248:A2 I *D sky130_fd_sc_hd__o31a_1
*I *2238:A2 I *D sky130_fd_sc_hd__o21ai_1
*I *2234:Y O *D sky130_fd_sc_hd__nand2_1
*CAP
1 *2235:B1 0
2 *2241:A2 0.000179886
3 *2248:A2 0.000216391
4 *2238:A2 5.15522e-05
5 *2234:Y 0.000263017
6 *548:31 0.000551811
7 *548:27 0.00100109
8 *548:10 0.00116013
9 *2238:A2 *552:22 2.96051e-05
10 *2238:A2 *757:93 2.30292e-05
11 *2241:A2 *2249:B1 0.000227208
12 *2241:A2 *554:10 1.32314e-05
13 *2248:A2 *2247:C_N 0
14 *2248:A2 *549:10 0
15 *2248:A2 *560:8 0
16 *2248:A2 *561:8 0.000163352
17 *2248:A2 *753:22 3.71251e-05
18 *2248:A2 *757:67 6.17437e-06
19 *548:10 *552:22 3.3746e-05
20 *548:27 *707:106 4.39152e-05
21 *548:27 *757:93 3.58084e-06
22 *548:31 *2266:B 0
23 *548:31 *549:10 0
24 *548:31 *556:8 0
25 *2234:B *548:10 6.43253e-05
26 *2235:A1 *548:27 5.41385e-05
27 *2235:A2 *548:27 3.17634e-05
28 *2238:A1 *2238:A2 2.3375e-05
29 *2238:A1 *548:10 0.000503515
30 *2240:B1 *548:10 3.95159e-06
31 *2241:A1 *2241:A2 5.90675e-06
32 *2243:A *548:27 0.0002263
33 *2250:A2 *548:27 0
34 *248:27 *548:10 2.18409e-05
35 *248:31 *548:10 1.32314e-05
36 *249:10 *2238:A2 2.60152e-05
37 *253:10 *548:10 0.000192077
38 *254:6 *548:27 0.000430644
39 *531:62 *548:31 1.14452e-05
40 *533:58 *2248:A2 0.000138708
41 *541:12 *548:31 1.19796e-05
42 *541:24 *548:31 0
*RES
1 *2234:Y *548:10 45.4571 
2 *548:10 *2238:A2 39.4707 
3 *548:10 *548:27 27.4286 
4 *548:27 *548:31 17.61 
5 *548:31 *2248:A2 42.7643 
6 *548:31 *2241:A2 41.8529 
7 *548:27 *2235:B1 23 
*END

*D_NET *549 0.000588009
*CONN
*I *2249:A1 I *D sky130_fd_sc_hd__o211a_1
*I *2235:X O *D sky130_fd_sc_hd__o22a_1
*CAP
1 *2249:A1 0
2 *2235:X 0.000173818
3 *549:10 0.000173818
4 *549:10 *707:106 9.84851e-05
5 *2248:A2 *549:10 0
6 *541:24 *549:10 0.000141888
7 *548:31 *549:10 0
*RES
1 *2235:X *549:10 41.3557 
2 *549:10 *2249:A1 38 
*END

*D_NET *550 0.00116826
*CONN
*I *2249:A2 I *D sky130_fd_sc_hd__o211a_1
*I *2236:Y O *D sky130_fd_sc_hd__xnor2_1
*CAP
1 *2249:A2 8.64026e-05
2 *2236:Y 0.000286557
3 *550:8 0.00037296
4 *2249:A2 *2249:B1 1.14154e-05
5 *550:8 *559:10 0
6 *550:8 *560:8 0
7 *2241:A1 *2249:A2 0
8 *2250:A2 *550:8 1.19796e-05
9 *139:35 *550:8 0
10 *520:21 *550:8 0
11 *523:10 *550:8 2.29192e-05
12 *533:52 *2249:A2 0.000272383
13 *533:58 *550:8 0
14 *541:24 *2249:A2 0.000103647
*RES
1 *2236:Y *550:8 42.7229 
2 *550:8 *2249:A2 41.5007 
*END

*D_NET *551 0.00201087
*CONN
*I *2238:B1 I *D sky130_fd_sc_hd__o21ai_1
*I *2237:X O *D sky130_fd_sc_hd__o21a_1
*CAP
1 *2238:B1 6.70743e-05
2 *2237:X 0.000370803
3 *551:10 0.000437877
4 *2238:B1 *707:106 0.000185428
5 *2238:B1 *757:93 7.27182e-05
6 *551:10 *555:10 0
7 *551:10 *707:119 0
8 *2237:A2 *551:10 0.000137651
9 *2239:A *551:10 6.16531e-05
10 *2240:A1 *2238:B1 5.67058e-05
11 *2240:A1 *551:10 0.000338964
12 *2240:B1 *2238:B1 5.50106e-05
13 *248:48 *551:10 8.62783e-05
14 *249:48 *551:10 6.7177e-06
15 *254:6 *2238:B1 0.000111779
16 *254:21 *551:10 2.22079e-05
*RES
1 *2237:X *551:10 44.6493 
2 *551:10 *2238:B1 41.48 
*END

*D_NET *552 0.00173131
*CONN
*I *2240:C1 I *D sky130_fd_sc_hd__o211a_1
*I *2239:Y O *D sky130_fd_sc_hd__nand2_1
*CAP
1 *2240:C1 0
2 *2239:Y 0.000503766
3 *552:22 0.000503766
4 *552:22 *2452:CLK 5.19675e-05
5 *552:22 *576:12 2.32683e-05
6 *2227:A *552:22 9.75779e-05
7 *2238:A2 *552:22 2.96051e-05
8 *2239:A *552:22 4.19743e-05
9 *2240:B1 *552:22 0.000133316
10 *2452:D *552:22 9.41704e-05
11 *249:48 *552:22 0.000117976
12 *541:8 *552:22 0.00010018
13 *548:10 *552:22 3.3746e-05
*RES
1 *2239:Y *552:22 48.6471 
2 *552:22 *2240:C1 38 
*END

*D_NET *553 0.00204774
*CONN
*I *2241:B1_N I *D sky130_fd_sc_hd__o21bai_1
*I *2247:C_N I *D sky130_fd_sc_hd__or3b_1
*I *2240:X O *D sky130_fd_sc_hd__o211a_1
*CAP
1 *2241:B1_N 0
2 *2247:C_N 0.000614099
3 *2240:X 0.000251411
4 *553:10 0.00086551
5 *2247:C_N *554:10 4.6318e-06
6 *2247:C_N *556:8 0
7 *2247:C_N *561:8 0
8 *2247:C_N *757:67 0
9 *2247:C_N *757:78 0
10 *553:10 *2266:B 6.07611e-06
11 *553:10 *554:10 3.62323e-05
12 *553:10 *707:106 0.000269781
13 *2248:A2 *2247:C_N 0
14 *254:21 *2247:C_N 0
15 *254:21 *553:10 0
*RES
1 *2240:X *553:10 42.205 
2 *553:10 *2247:C_N 48.7921 
3 *553:10 *2241:B1_N 38 
*END

*D_NET *554 0.00121787
*CONN
*I *2266:B I *D sky130_fd_sc_hd__or3b_1
*I *2243:B I *D sky130_fd_sc_hd__or3b_1
*I *2241:Y O *D sky130_fd_sc_hd__o21bai_1
*CAP
1 *2266:B 0.000388373
2 *2243:B 0
3 *2241:Y 9.38542e-05
4 *554:10 0.000482227
5 *2266:B *555:10 0
6 *2266:B *576:12 5.50049e-05
7 *554:10 *556:8 4.334e-05
8 *2227:A *2266:B 2.64506e-05
9 *2235:A1 *2266:B 0
10 *2239:B *2266:B 3.17634e-05
11 *2241:A2 *554:10 1.32314e-05
12 *2247:C_N *554:10 4.6318e-06
13 *254:21 *2266:B 0
14 *531:47 *2266:B 3.66893e-05
15 *548:31 *2266:B 0
16 *553:10 *2266:B 6.07611e-06
17 *553:10 *554:10 3.62323e-05
*RES
1 *2241:Y *554:10 39.8229 
2 *554:10 *2243:B 38 
3 *554:10 *2266:B 44.2971 
*END

*D_NET *555 0.0008847
*CONN
*I *2243:C_N I *D sky130_fd_sc_hd__or3b_1
*I *2242:X O *D sky130_fd_sc_hd__o31a_1
*CAP
1 *2243:C_N 0
2 *2242:X 0.000288139
3 *555:10 0.000288139
4 *2227:A *555:10 0.000161121
5 *2237:A2 *555:10 5.3304e-05
6 *2266:B *555:10 0
7 *249:48 *555:10 7.56417e-05
8 *254:21 *555:10 1.83564e-05
9 *551:10 *555:10 0
*RES
1 *2242:X *555:10 43.3443 
2 *555:10 *2243:C_N 38 
*END

*D_NET *556 0.00097154
*CONN
*I *2249:B1 I *D sky130_fd_sc_hd__o211a_1
*I *2243:X O *D sky130_fd_sc_hd__or3b_1
*CAP
1 *2249:B1 0.000136978
2 *2243:X 0.000128966
3 *556:8 0.000265944
4 *2249:B1 *2249:C1 5.3304e-05
5 *2241:A1 *2249:B1 8.49154e-05
6 *2241:A2 *2249:B1 0.000227208
7 *2247:C_N *556:8 0
8 *2249:A2 *2249:B1 1.14154e-05
9 *533:52 *2249:B1 1.94693e-05
10 *548:31 *556:8 0
11 *554:10 *556:8 4.334e-05
*RES
1 *2243:X *556:8 39.9057 
2 *556:8 *2249:B1 41.9771 
*END

*D_NET *557 0.00153106
*CONN
*I *2245:B I *D sky130_fd_sc_hd__xnor2_1
*I *2244:Y O *D sky130_fd_sc_hd__nor2_1
*CAP
1 *2245:B 0
2 *2244:Y 0.000460691
3 *557:10 0.000460691
4 *557:10 *757:67 0
5 *2205:A1 *557:10 0.000215782
6 *517:8 *557:10 1.41077e-05
7 *517:19 *557:10 0.000237907
8 *518:23 *557:10 0.000141879
*RES
1 *2244:Y *557:10 45.7264 
2 *557:10 *2245:B 38 
*END

*D_NET *558 0.00065157
*CONN
*I *2248:A3 I *D sky130_fd_sc_hd__o31a_1
*I *2245:Y O *D sky130_fd_sc_hd__xnor2_1
*CAP
1 *2248:A3 0
2 *2245:Y 0.000140845
3 *558:8 0.000140845
4 *558:8 *559:10 0.000222113
5 *558:8 *560:8 5.20202e-05
6 *558:8 *757:67 9.57467e-05
*RES
1 *2245:Y *558:8 42.3707 
2 *558:8 *2248:A3 38 
*END

*D_NET *559 0.00172086
*CONN
*I *2247:B I *D sky130_fd_sc_hd__or3b_1
*I *2246:Y O *D sky130_fd_sc_hd__nor2_1
*CAP
1 *2247:B 5.67095e-05
2 *2246:Y 0.000512936
3 *559:10 0.000569645
4 *559:10 *560:8 1.14452e-05
5 *559:10 *757:67 0
6 *2205:A1 *559:10 0.000115
7 *2246:B *559:10 6.32658e-05
8 *2247:A *2247:B 1.59094e-05
9 *2247:A *559:10 5.3656e-05
10 *519:10 *559:10 0.00010018
11 *550:8 *559:10 0
12 *558:8 *559:10 0.000222113
*RES
1 *2246:Y *559:10 48.6057 
2 *559:10 *2247:B 38.6214 
*END

*D_NET *560 0.00035909
*CONN
*I *2248:B1 I *D sky130_fd_sc_hd__o31a_1
*I *2247:X O *D sky130_fd_sc_hd__or3b_1
*CAP
1 *2248:B1 3.09382e-05
2 *2247:X 0.000102182
3 *560:8 0.00013312
4 *2248:B1 *753:22 2.93845e-05
5 *2248:A2 *560:8 0
6 *550:8 *560:8 0
7 *558:8 *560:8 5.20202e-05
8 *559:10 *560:8 1.14452e-05
*RES
1 *2247:X *560:8 40.2579 
2 *560:8 *2248:B1 38.6214 
*END

*D_NET *561 0.000587989
*CONN
*I *2249:C1 I *D sky130_fd_sc_hd__o211a_1
*I *2248:X O *D sky130_fd_sc_hd__o31a_1
*CAP
1 *2249:C1 2.66831e-05
2 *2248:X 0.000142621
3 *561:8 0.000169304
4 *2241:A1 *2249:C1 3.27248e-05
5 *2247:C_N *561:8 0
6 *2248:A2 *561:8 0.000163352
7 *2249:B1 *2249:C1 5.3304e-05
*RES
1 *2248:X *561:8 40.2579 
2 *561:8 *2249:C1 38.6214 
*END

*D_NET *562 0.000937069
*CONN
*I *2253:B I *D sky130_fd_sc_hd__and3_1
*I *2249:X O *D sky130_fd_sc_hd__o211a_1
*CAP
1 *2253:B 0
2 *2249:X 0.000320526
3 *562:8 0.000320526
4 *562:8 *565:10 0.000296017
5 *533:41 *562:8 0
6 *541:38 *562:8 0
7 *541:53 *562:8 0
*RES
1 *2249:X *562:8 43.7793 
2 *562:8 *2253:B 38 
*END

*D_NET *563 0.000674084
*CONN
*I *2252:C I *D sky130_fd_sc_hd__or4_1
*I *2250:Y O *D sky130_fd_sc_hd__a21oi_1
*CAP
1 *2252:C 0
2 *2250:Y 0.000197736
3 *563:10 0.000197736
4 *563:10 *707:106 0.000136743
5 *2250:A2 *563:10 0.000141869
6 *140:47 *563:10 0
*RES
1 *2250:Y *563:10 41.48 
2 *563:10 *2252:C 38 
*END

*D_NET *564 0.000268411
*CONN
*I *2252:D I *D sky130_fd_sc_hd__or4_1
*I *2251:Y O *D sky130_fd_sc_hd__nor2_1
*CAP
1 *2252:D 3.54428e-05
2 *2251:Y 3.54428e-05
3 *2210:B1 *2252:D 0.000143655
4 *2251:A *2252:D 5.38706e-05
*RES
1 *2251:Y *2252:D 47.5743 
*END

*D_NET *565 0.00130306
*CONN
*I *2253:C I *D sky130_fd_sc_hd__and3_1
*I *2252:X O *D sky130_fd_sc_hd__or4_1
*CAP
1 *2253:C 5.65784e-05
2 *2252:X 0.000213956
3 *565:10 0.000270534
4 *533:41 *565:10 0
5 *541:12 *565:10 5.19048e-05
6 *541:24 *565:10 0.000353661
7 *545:6 *2253:C 6.04112e-05
8 *562:8 *565:10 0.000296017
*RES
1 *2252:X *565:10 44.4214 
2 *565:10 *2253:C 38.7043 
*END

*D_NET *566 0.00110392
*CONN
*I *2257:B1 I *D sky130_fd_sc_hd__o211a_1
*I *2253:X O *D sky130_fd_sc_hd__and3_1
*CAP
1 *2257:B1 0
2 *2253:X 0.000331278
3 *566:10 0.000331278
4 *566:10 *568:10 0
5 *2231:A2 *566:10 9.76261e-05
6 *533:41 *566:10 0.000257453
7 *540:10 *566:10 8.62876e-05
*RES
1 *2253:X *566:10 44.7736 
2 *566:10 *2257:B1 38 
*END

*D_NET *567 0.000250789
*CONN
*I *2256:C I *D sky130_fd_sc_hd__or4_1
*I *2254:X O *D sky130_fd_sc_hd__and3_1
*CAP
1 *2256:C 0.000115268
2 *2254:X 0.000115268
3 *2254:B *2256:C 0
4 *2256:A *2256:C 2.02517e-05
*RES
1 *2254:X *2256:C 48.0714 
*END

*D_NET *568 0.000774017
*CONN
*I *2256:D I *D sky130_fd_sc_hd__or4_1
*I *2255:Y O *D sky130_fd_sc_hd__a21oi_1
*CAP
1 *2256:D 0
2 *2255:Y 0.000377268
3 *568:10 0.000377268
4 *512:25 *568:10 1.94812e-05
5 *525:10 *568:10 0
6 *525:21 *568:10 0
7 *566:10 *568:10 0
*RES
1 *2255:Y *568:10 44.4421 
2 *568:10 *2256:D 38 
*END

*D_NET *569 0.00021919
*CONN
*I *2257:C1 I *D sky130_fd_sc_hd__o211a_1
*I *2256:X O *D sky130_fd_sc_hd__or4_1
*CAP
1 *2257:C1 7.81208e-05
2 *2256:X 7.81208e-05
3 *2256:A *2257:C1 6.29487e-05
4 *2257:A1 *2257:C1 0
5 *2257:A2 *2257:C1 0
*RES
1 *2256:X *2257:C1 47.9471 
*END

*D_NET *570 0.000280776
*CONN
*I *2258:B1 I *D sky130_fd_sc_hd__o31ai_1
*I *2257:X O *D sky130_fd_sc_hd__o211a_1
*CAP
1 *2258:B1 0
2 *2257:X 0.000135316
3 *570:8 0.000135316
4 *2256:B *570:8 1.01436e-05
5 *2265:A0 *570:8 0
6 *533:33 *570:8 0
7 *534:30 *570:8 0
*RES
1 *2257:X *570:8 40.2579 
2 *570:8 *2258:B1 38 
*END

*D_NET *571 0.0031676
*CONN
*I *2263:B I *D sky130_fd_sc_hd__nor3_1
*I *2260:B1 I *D sky130_fd_sc_hd__o21ai_1
*I *2264:B I *D sky130_fd_sc_hd__nor2_1
*I *2259:X O *D sky130_fd_sc_hd__and2_1
*CAP
1 *2263:B 0
2 *2260:B1 0
3 *2264:B 6.54768e-05
4 *2259:X 0
5 *571:36 0.000208174
6 *571:23 0.000854219
7 *571:4 0.000711521
8 *2264:B *574:24 2.4754e-05
9 *571:23 *574:24 1.5769e-05
10 *571:23 *574:47 0
11 *571:36 *2451:RESET_B 3.70187e-05
12 *571:36 *574:47 0.00021673
13 *571:36 *754:24 0.000178782
14 *2012:A *571:23 2.18506e-05
15 *2012:D *571:23 0.000182826
16 *2013:A *571:36 0.000121021
17 *247:30 *571:23 0.000277714
18 *249:96 *571:23 0.000170394
19 *252:10 *571:23 2.15261e-05
20 *534:24 *2264:B 1.32314e-05
21 *534:24 *571:23 4.6595e-05
*RES
1 *2259:X *571:4 23 
2 *571:4 *2264:B 24.6157 
3 *571:4 *571:23 40.9579 
4 *571:23 *2260:B1 23 
5 *571:23 *571:36 35.4893 
6 *571:36 *2263:B 23 
*END

*D_NET *572 0.000625987
*CONN
*I *2261:D I *D sky130_fd_sc_hd__and4bb_1
*I *2260:Y O *D sky130_fd_sc_hd__o21ai_1
*CAP
1 *2261:D 0
2 *2260:Y 0.000175169
3 *572:10 0.000175169
4 *572:10 *574:14 8.85189e-05
5 *572:10 *574:47 0
6 *2013:A *572:10 0.000187129
*RES
1 *2260:Y *572:10 41.2521 
2 *572:10 *2261:D 38 
*END

*D_NET *573 0.00143899
*CONN
*I *2262:B1 I *D sky130_fd_sc_hd__a21o_1
*I *2269:A2 I *D sky130_fd_sc_hd__a21o_1
*I *2261:X O *D sky130_fd_sc_hd__and4bb_1
*CAP
1 *2262:B1 0
2 *2269:A2 0
3 *2261:X 6.24794e-05
4 *573:14 0.000198106
5 *573:6 0.000260586
6 *573:6 *2454:RESET_B 4.56504e-05
7 *573:6 *574:6 5.50106e-05
8 *573:6 *754:36 1.56665e-05
9 *2014:B *573:14 0.000228903
10 *2261:C *573:6 5.50106e-05
11 *2261:C *573:14 9.27917e-05
12 *2269:A1 *573:14 2.4754e-05
13 *250:23 *573:14 7.27752e-05
14 *359:100 *573:14 0.000143655
15 *360:10 *573:14 4.6318e-06
16 *361:6 *573:14 0.000139352
17 *361:23 *573:14 3.96156e-05
*RES
1 *2261:X *573:6 24.5743 
2 *573:6 *573:14 36.5664 
3 *573:14 *2269:A2 23 
4 *573:6 *2262:B1 23 
*END

*D_NET *574 0.00566442
*CONN
*I *2263:C I *D sky130_fd_sc_hd__nor3_1
*I *2267:S I *D sky130_fd_sc_hd__mux2_1
*I *2268:B1 I *D sky130_fd_sc_hd__a21oi_1
*I *2262:X O *D sky130_fd_sc_hd__a21o_1
*CAP
1 *2263:C 0
2 *2267:S 0
3 *2268:B1 0
4 *2262:X 5.99915e-05
5 *574:47 0.00060792
6 *574:33 0.000771616
7 *574:24 0.000264063
8 *574:14 0.000681926
9 *574:6 0.000641551
10 *574:24 *577:10 5.70419e-05
11 *574:33 *754:36 0.000289598
12 *574:47 *2451:RESET_B 0.000107146
13 *574:47 *757:106 0
14 *2014:B *574:14 6.17437e-06
15 *2261:B_N *574:33 9.84794e-05
16 *2261:C *574:6 1.56665e-05
17 *2261:C *574:14 8.51329e-05
18 *2261:C *574:33 0.00010018
19 *2264:B *574:24 2.4754e-05
20 *157:22 *574:47 0.000215411
21 *246:31 *574:47 3.81927e-05
22 *247:10 *574:47 0.000138727
23 *247:30 *574:14 0
24 *247:30 *574:47 0
25 *247:40 *574:14 0.000137651
26 *248:14 *574:47 1.14452e-05
27 *248:27 *574:47 0.000225265
28 *249:96 *574:14 2.76611e-06
29 *250:23 *574:24 0.000126343
30 *250:25 *574:24 1.01436e-05
31 *252:10 *574:24 0.000185428
32 *360:10 *574:14 4.08641e-05
33 *361:6 *574:14 8.39179e-05
34 *530:10 *574:47 5.08795e-05
35 *532:8 *574:47 2.7003e-05
36 *534:24 *574:24 0.000183113
37 *571:23 *574:24 1.5769e-05
38 *571:23 *574:47 0
39 *571:36 *574:47 0.00021673
40 *572:10 *574:14 8.85189e-05
41 *572:10 *574:47 0
42 *573:6 *574:6 5.50106e-05
*RES
1 *2262:X *574:6 24.0979 
2 *574:6 *574:14 36.7943 
3 *574:14 *574:24 37.3121 
4 *574:24 *2268:B1 23 
5 *574:6 *574:33 4.93 
6 *574:33 *574:47 45.7636 
7 *574:47 *2267:S 23 
8 *574:33 *2263:C 23 
*END

*D_NET *575 0.000913445
*CONN
*I *2266:C_N I *D sky130_fd_sc_hd__or3b_1
*I *2265:X O *D sky130_fd_sc_hd__mux2_1
*CAP
1 *2266:C_N 0
2 *2265:X 0.000275993
3 *575:10 0.000275993
4 *2226:B *575:10 0
5 *2235:A1 *575:10 6.07611e-06
6 *2257:A1 *575:10 9.84794e-05
7 *532:52 *575:10 6.32688e-05
8 *532:54 *575:10 0.000116321
9 *541:38 *575:10 4.21594e-06
10 *541:53 *575:10 7.30978e-05
*RES
1 *2265:X *575:10 44.1729 
2 *575:10 *2266:C_N 38 
*END

*D_NET *576 0.00245608
*CONN
*I *2267:A0 I *D sky130_fd_sc_hd__mux2_1
*I *2266:X O *D sky130_fd_sc_hd__or3b_1
*CAP
1 *2267:A0 6.28754e-05
2 *2266:X 0.000769286
3 *576:12 0.000832162
4 *576:12 *2452:CLK 7.77758e-05
5 *2239:A *576:12 0.000222791
6 *2239:B *576:12 2.93747e-05
7 *2266:B *576:12 5.50049e-05
8 *2452:D *576:12 2.94414e-05
9 *248:14 *2267:A0 0.000141879
10 *248:14 *576:12 6.17437e-06
11 *248:27 *2267:A0 2.77955e-05
12 *249:10 *2267:A0 6.32688e-05
13 *249:48 *576:12 7.05242e-05
14 *530:10 *2267:A0 3.70187e-05
15 *541:8 *576:12 7.44161e-06
16 *552:22 *576:12 2.32683e-05
*RES
1 *2266:X *576:12 49.2686 
2 *576:12 *2267:A0 40.2579 
*END

*D_NET *577 0.000483772
*CONN
*I *2269:B1 I *D sky130_fd_sc_hd__a21o_1
*I *2268:Y O *D sky130_fd_sc_hd__a21oi_1
*CAP
1 *2269:B1 0
2 *2268:Y 0.000213365
3 *577:10 0.000213365
4 *250:23 *577:10 0
5 *361:23 *577:10 0
6 *362:10 *577:10 0
7 *574:24 *577:10 5.70419e-05
*RES
1 *2268:Y *577:10 41.3557 
2 *577:10 *2269:B1 38 
*END

*D_NET *578 0.000500941
*CONN
*I *2366:B I *D sky130_fd_sc_hd__nor2_1
*I *2280:A_N I *D sky130_fd_sc_hd__and3b_1
*I *2279:Y O *D sky130_fd_sc_hd__nand2b_1
*CAP
1 *2366:B 1.49804e-05
2 *2280:A_N 0
3 *2279:Y 0.000170426
4 *578:12 1.49804e-05
5 *578:10 0.000170426
6 *2366:B *636:35 5.50106e-05
7 *2366:B *641:6 5.50106e-05
8 *578:10 *650:29 1.73399e-05
9 *2280:C *578:10 0
10 *347:89 *578:10 2.76611e-06
*RES
1 *2279:Y *578:10 40.5271 
2 *578:10 *578:12 15 
3 *578:12 *2280:A_N 23 
4 *578:12 *2366:B 23.6214 
*END

*D_NET *579 0.00648567
*CONN
*I *2574:A I *D sky130_fd_sc_hd__buf_2
*I *2367:C1 I *D sky130_fd_sc_hd__a2111oi_1
*I *2280:X O *D sky130_fd_sc_hd__and3b_1
*CAP
1 *2574:A 0.000226315
2 *2367:C1 0
3 *2280:X 0
4 *579:27 0.00157355
5 *579:12 0.000263422
6 *579:4 0.00161066
7 *579:12 *632:26 0.000435193
8 *579:12 *636:35 0.000476058
9 *579:12 *651:10 0.000138444
10 *579:12 *742:90 0.000110922
11 *579:27 *2436:A2 0.000139357
12 *579:27 *2436:B2 2.93845e-05
13 *579:27 *636:35 0.000431241
14 *579:27 *637:10 0.000358425
15 *579:27 *691:8 0
16 *579:27 *692:10 0
17 *579:27 *697:24 3.87221e-06
18 *579:27 *719:10 0.000365586
19 *579:27 *733:83 0
20 *579:27 *739:141 3.32677e-05
21 *579:27 *752:14 0.000113125
22 *802:DIODE *579:27 0.000120285
23 *2555:A *579:27 4.73716e-05
24 *127:113 *579:27 0
25 *302:10 *579:27 0
26 *351:14 *579:12 9.19684e-06
*RES
1 *2280:X *579:4 23 
2 *579:4 *579:12 38.3686 
3 *579:12 *2367:C1 23 
4 *579:4 *579:27 41.0586 
5 *579:27 *2574:A 41.9564 
*END

*D_NET *580 0.00660649
*CONN
*I *2282:A1 I *D sky130_fd_sc_hd__mux2_1
*I *2284:C I *D sky130_fd_sc_hd__and3_1
*I *2307:C_N I *D sky130_fd_sc_hd__or4bb_1
*I *2281:X O *D sky130_fd_sc_hd__and2_1
*CAP
1 *2282:A1 0
2 *2284:C 0.000112889
3 *2307:C_N 0
4 *2281:X 0
5 *580:42 0.00081081
6 *580:23 0.00114572
7 *580:12 0.000445271
8 *580:4 0.000667295
9 *2284:C *2286:B 0.000257256
10 *2284:C *582:19 0.000185434
11 *580:12 *2291:A1 6.22475e-05
12 *580:12 *2292:A 1.83564e-05
13 *580:12 *582:10 0.000135403
14 *580:12 *589:8 0.000215791
15 *580:12 *601:10 1.17049e-05
16 *580:12 *740:30 0.000134279
17 *580:23 *2286:A 2.03909e-05
18 *580:23 *2294:A 3.83778e-05
19 *580:23 *740:30 0
20 *580:42 *2282:S 0.000684281
21 *580:42 *2286:A 1.09783e-05
22 *580:42 *616:10 0
23 *580:42 *624:8 0.000224605
24 *580:42 *707:35 6.28488e-05
25 *580:42 *740:30 0
26 *580:42 *740:46 0.000828043
27 *2281:B *580:12 5.50106e-05
28 *2283:A *580:12 3.97681e-05
29 *2283:A *580:23 2.4754e-05
30 *2283:B *580:23 3.53115e-05
31 *2322:A0 *580:42 1.01436e-05
32 *133:14 *580:42 5.67058e-05
33 *133:20 *580:42 0.000139357
34 *265:10 *580:42 0.000173452
*RES
1 *2281:X *580:4 23 
2 *580:4 *580:12 38.41 
3 *580:12 *2307:C_N 23 
4 *580:4 *580:23 18.7804 
5 *580:23 *2284:C 41.7804 
6 *580:23 *580:42 37.7754 
7 *580:42 *2282:A1 23 
*END

*D_NET *581 0.00184716
*CONN
*I *2307:B I *D sky130_fd_sc_hd__or4bb_1
*I *2283:Y O *D sky130_fd_sc_hd__nand2_1
*CAP
1 *2307:B 0.000310004
2 *2283:Y 0.00029524
3 *581:8 0.000605244
4 *2307:B *585:8 0.000139346
5 *2307:B *585:15 4.75206e-05
6 *2307:B *587:36 3.46673e-05
7 *581:8 *2291:A1 1.44813e-05
8 *581:8 *2292:A 2.99716e-05
9 *581:8 *2292:B 0.000142808
10 *581:8 *582:10 4.13418e-05
11 *581:8 *586:21 0.000123172
12 *581:8 *590:8 0
13 *581:8 *601:10 6.33614e-05
*RES
1 *2283:Y *581:8 43.7793 
2 *581:8 *2307:B 42.4329 
*END

*D_NET *582 0.00199968
*CONN
*I *2286:A I *D sky130_fd_sc_hd__nor2_1
*I *2294:A I *D sky130_fd_sc_hd__xnor2_1
*I *2306:A1 I *D sky130_fd_sc_hd__a31o_1
*I *2284:X O *D sky130_fd_sc_hd__and3_1
*CAP
1 *2286:A 4.09835e-05
2 *2294:A 0.000159537
3 *2306:A1 0
4 *2284:X 0
5 *582:19 0.000432302
6 *582:10 0.00030743
7 *582:4 0.000539212
8 *582:10 *590:8 0
9 *582:10 *601:10 1.14452e-05
10 *582:10 *740:30 0
11 *582:19 *2286:B 2.18409e-05
12 *582:19 *584:6 5.50049e-05
13 *2284:C *582:19 0.000185434
14 *580:12 *582:10 0.000135403
15 *580:23 *2286:A 2.03909e-05
16 *580:23 *2294:A 3.83778e-05
17 *580:42 *2286:A 1.09783e-05
18 *581:8 *582:10 4.13418e-05
*RES
1 *2284:X *582:4 23 
2 *582:4 *582:10 35.075 
3 *582:10 *2306:A1 23 
4 *582:4 *582:19 18.48 
5 *582:19 *2294:A 41.0036 
6 *582:19 *2286:A 38.8493 
*END

*D_NET *583 0.00148372
*CONN
*I *2286:B I *D sky130_fd_sc_hd__nor2_1
*I *2285:Y O *D sky130_fd_sc_hd__a22oi_1
*CAP
1 *2286:B 0.000280736
2 *2285:Y 0.00012192
3 *583:8 0.000402656
4 *2284:A *2286:B 5.3304e-05
5 *2284:B *2286:B 8.46575e-05
6 *2284:B *583:8 0.000182873
7 *2284:C *2286:B 0.000257256
8 *118:110 *583:8 3.92407e-05
9 *121:41 *583:8 3.92407e-05
10 *582:19 *2286:B 2.18409e-05
*RES
1 *2285:Y *583:8 40.9621 
2 *583:8 *2286:B 44.3386 
*END

*D_NET *584 0.00103513
*CONN
*I *2287:A1 I *D sky130_fd_sc_hd__mux2_1
*I *2286:Y O *D sky130_fd_sc_hd__nor2_1
*CAP
1 *2287:A1 0
2 *2286:Y 0.000474745
3 *584:6 0.000474745
4 *266:10 *584:6 3.06338e-05
5 *582:19 *584:6 5.50049e-05
*RES
1 *2286:Y *584:6 31.2443 
2 *584:6 *2287:A1 23 
*END

*D_NET *585 0.00236922
*CONN
*I *2305:B1_N I *D sky130_fd_sc_hd__a21boi_1
*I *2291:A1 I *D sky130_fd_sc_hd__a21o_1
*I *2292:A I *D sky130_fd_sc_hd__nand3_1
*I *2307:D_N I *D sky130_fd_sc_hd__or4bb_1
*I *2288:Y O *D sky130_fd_sc_hd__nand4_1
*CAP
1 *2305:B1_N 0
2 *2291:A1 0.000227277
3 *2292:A 0.000186848
4 *2307:D_N 0
5 *2288:Y 0.00017245
6 *585:17 0.000414125
7 *585:15 4.85516e-05
8 *585:8 0.000221002
9 *2291:A1 *586:10 0.000137651
10 *2291:A1 *586:21 2.02872e-05
11 *2291:A1 *601:10 8.62783e-05
12 *2292:A *2292:B 5.67058e-05
13 *2292:A *2292:C 0
14 *2292:A *589:8 4.38375e-05
15 *2292:A *606:6 1.94693e-05
16 *585:8 *587:36 5.97178e-05
17 *585:8 *587:53 0
18 *585:8 *603:10 0.00010018
19 *585:15 *587:36 0.000137651
20 *2307:B *585:8 0.000139346
21 *2307:B *585:15 4.75206e-05
22 *118:84 *585:8 1.76557e-05
23 *122:83 *585:8 7.43025e-06
24 *123:71 *585:8 0.00010018
25 *580:12 *2291:A1 6.22475e-05
26 *580:12 *2292:A 1.83564e-05
27 *581:8 *2291:A1 1.44813e-05
28 *581:8 *2292:A 2.99716e-05
*RES
1 *2288:Y *585:8 27.8057 
2 *585:8 *2307:D_N 23 
3 *585:8 *585:15 1.57429 
4 *585:15 *585:17 15 
5 *585:17 *2292:A 41.9357 
6 *585:17 *2291:A1 41.9564 
7 *585:15 *2305:B1_N 23 
*END

*D_NET *586 0.002315
*CONN
*I *2305:A1 I *D sky130_fd_sc_hd__a21boi_1
*I *2292:B I *D sky130_fd_sc_hd__nand3_1
*I *2291:A2 I *D sky130_fd_sc_hd__a21o_1
*I *2289:X O *D sky130_fd_sc_hd__a22o_1
*CAP
1 *2305:A1 0
2 *2292:B 0.000382738
3 *2291:A2 0
4 *2289:X 0.000241285
5 *586:21 0.000478585
6 *586:10 0.000337132
7 *2292:B *587:53 2.96154e-05
8 *2292:B *606:6 6.30615e-05
9 *586:10 *2293:A 0
10 *586:10 *2293:B 1.03955e-05
11 *586:10 *2306:A2 9.30054e-05
12 *586:10 *589:12 5.3304e-05
13 *586:10 *602:10 1.94693e-05
14 *586:10 *733:39 5.61255e-06
15 *586:21 *2306:A2 5.3304e-05
16 *586:21 *587:53 6.6869e-05
17 *2291:A1 *586:10 0.000137651
18 *2291:A1 *586:21 2.02872e-05
19 *2292:A *2292:B 5.67058e-05
20 *581:8 *2292:B 0.000142808
21 *581:8 *586:21 0.000123172
*RES
1 *2289:X *586:10 27.9507 
2 *586:10 *2291:A2 23 
3 *586:10 *586:21 17.5271 
4 *586:21 *2292:B 45.3743 
5 *586:21 *2305:A1 38 
*END

*D_NET *587 0.00318197
*CONN
*I *2291:B1 I *D sky130_fd_sc_hd__a21o_1
*I *2305:A2 I *D sky130_fd_sc_hd__a21boi_1
*I *2307:A I *D sky130_fd_sc_hd__or4bb_1
*I *2292:C I *D sky130_fd_sc_hd__nand3_1
*I *2290:X O *D sky130_fd_sc_hd__and2_1
*CAP
1 *2291:B1 0
2 *2305:A2 0
3 *2307:A 0
4 *2292:C 0.000230831
5 *2290:X 0.000317645
6 *587:53 0.000172583
7 *587:36 0.000512279
8 *587:23 0.000339697
9 *587:10 0.000548476
10 *2292:C *602:10 0
11 *2292:C *603:10 0
12 *2292:C *604:10 0
13 *2292:C *740:30 0.000203783
14 *587:10 *602:10 5.61255e-06
15 *587:10 *740:30 1.59208e-05
16 *587:36 *601:10 9.84794e-05
17 *587:53 *590:8 0
18 *2288:C *587:36 0
19 *2289:A1 *587:10 5.3304e-05
20 *2292:A *2292:C 0
21 *2292:B *587:53 2.96154e-05
22 *2307:B *587:36 3.46673e-05
23 *117:45 *587:10 5.12254e-05
24 *118:84 *587:10 0.000108681
25 *121:41 *587:10 2.98648e-05
26 *122:83 *587:10 8.4047e-05
27 *122:83 *587:36 5.50106e-05
28 *123:71 *2292:C 1.83667e-05
29 *123:71 *587:10 7.64851e-06
30 *585:8 *587:36 5.97178e-05
31 *585:8 *587:53 0
32 *585:15 *587:36 0.000137651
33 *586:21 *587:53 6.6869e-05
*RES
1 *2290:X *587:10 42.9093 
2 *587:10 *2292:C 42.8886 
3 *587:10 *587:23 15 
4 *587:23 *2307:A 23 
5 *587:23 *587:36 6.88232 
6 *587:36 *2305:A2 23 
7 *587:36 *587:53 33.6354 
8 *587:53 *2291:B1 23 
*END

*D_NET *588 0.00096846
*CONN
*I *2293:A I *D sky130_fd_sc_hd__nand2_1
*I *2306:A2 I *D sky130_fd_sc_hd__a31o_1
*I *2291:X O *D sky130_fd_sc_hd__a21o_1
*CAP
1 *2293:A 3.04242e-05
2 *2306:A2 0.00013308
3 *2291:X 0
4 *588:4 0.000163505
5 *2293:A *2293:B 9.58444e-05
6 *2306:A2 *2293:B 0.000399297
7 *586:10 *2293:A 0
8 *586:10 *2306:A2 9.30054e-05
9 *586:21 *2306:A2 5.3304e-05
*RES
1 *2291:X *588:4 23 
2 *588:4 *2306:A2 27.4329 
3 *588:4 *2293:A 24.1186 
*END

*D_NET *589 0.00264948
*CONN
*I *2293:B I *D sky130_fd_sc_hd__nand2_1
*I *2306:A3 I *D sky130_fd_sc_hd__a31o_1
*I *2292:Y O *D sky130_fd_sc_hd__nand3_1
*CAP
1 *2293:B 0.000210276
2 *2306:A3 0
3 *2292:Y 0.000214364
4 *589:12 0.000237912
5 *589:8 0.000241999
6 *2293:B *733:39 0.000542093
7 *589:8 *740:30 0.00037217
8 *589:12 *733:39 1.21972e-05
9 *2292:A *589:8 4.38375e-05
10 *2293:A *2293:B 9.58444e-05
11 *2306:A2 *2293:B 0.000399297
12 *580:12 *589:8 0.000215791
13 *586:10 *2293:B 1.03955e-05
14 *586:10 *589:12 5.3304e-05
*RES
1 *2292:Y *589:8 43.075 
2 *589:8 *589:12 15.6214 
3 *589:12 *2306:A3 23 
4 *589:12 *2293:B 31.1821 
*END

*D_NET *590 0.000509459
*CONN
*I *2294:B I *D sky130_fd_sc_hd__xnor2_1
*I *2293:Y O *D sky130_fd_sc_hd__nand2_1
*CAP
1 *2294:B 0
2 *2293:Y 0.000254729
3 *590:8 0.000254729
4 *590:8 *2482:CLK 0
5 *268:10 *590:8 0
6 *581:8 *590:8 0
7 *582:10 *590:8 0
8 *587:53 *590:8 0
*RES
1 *2293:Y *590:8 41.3143 
2 *590:8 *2294:B 38 
*END

*D_NET *591 0.00230373
*CONN
*I *2295:A1 I *D sky130_fd_sc_hd__mux2_1
*I *2294:Y O *D sky130_fd_sc_hd__xnor2_1
*CAP
1 *2295:A1 0.000193221
2 *2294:Y 0.000844246
3 *591:8 0.00103747
4 *2295:A1 *2295:S 7.13587e-05
5 *591:8 *2479:CLK 0.000100733
6 *2295:A0 *2295:A1 5.67058e-05
7 *133:10 *2295:A1 0
8 *265:10 *2295:A1 0
*RES
1 *2294:Y *591:8 49.1029 
2 *591:8 *2295:A1 41.6043 
*END

*D_NET *592 0.00265465
*CONN
*I *2302:A I *D sky130_fd_sc_hd__and3_1
*I *2303:B1 I *D sky130_fd_sc_hd__a21oi_1
*I *2304:B1 I *D sky130_fd_sc_hd__a21o_1
*I *2296:Y O *D sky130_fd_sc_hd__nand2_1
*CAP
1 *2302:A 7.00571e-05
2 *2303:B1 0.000208045
3 *2304:B1 1.96884e-05
4 *2296:Y 0.000400722
5 *592:23 0.000379493
6 *592:10 0.0005218
7 *2302:A *614:12 2.47015e-05
8 *2303:B1 *2303:A1 0
9 *2303:B1 *596:10 0
10 *2303:B1 *599:8 0.000135547
11 *2303:B1 *614:12 2.81216e-05
12 *2304:B1 *2302:C 5.50106e-05
13 *2304:B1 *596:10 2.46922e-05
14 *2304:B1 *614:10 3.22879e-05
15 *592:10 *596:8 0.000301419
16 *592:10 *596:10 3.91923e-05
17 *592:10 *600:10 0.000140958
18 *592:10 *614:12 0
19 *2297:A *592:10 0
20 *117:45 *592:10 9.58714e-05
21 *118:67 *592:10 6.7177e-06
22 *119:64 *592:10 8.4047e-05
23 *122:68 *592:10 8.62783e-05
*RES
1 *2296:Y *592:10 46.4618 
2 *592:10 *2304:B1 38.9425 
3 *592:10 *592:23 1.57429 
4 *592:23 *2303:B1 42.1118 
5 *592:23 *2302:A 38.9425 
*END

*D_NET *593 0.00138053
*CONN
*I *2300:A I *D sky130_fd_sc_hd__or3_1
*I *2301:B1 I *D sky130_fd_sc_hd__o21ai_1
*I *2317:A1 I *D sky130_fd_sc_hd__o21ba_1
*I *2297:X O *D sky130_fd_sc_hd__and2_1
*CAP
1 *2300:A 8.96161e-05
2 *2301:B1 2.27777e-05
3 *2317:A1 0
4 *2297:X 0
5 *593:12 0.000166332
6 *593:4 0.00023317
7 *2300:A *2300:B 0.000185434
8 *2300:A *2300:C 0.00019547
9 *2300:A *594:14 5.3304e-05
10 *2301:B1 *2301:A1 4.7812e-06
11 *2301:B1 *2317:B1_N 7.0429e-05
12 *2301:B1 *597:10 2.4754e-05
13 *593:12 *2301:A1 1.01436e-05
14 *593:12 *2317:B1_N 2.18409e-05
15 *593:12 *594:10 3.70187e-05
16 *593:12 *594:18 0.000154147
17 *593:12 *595:10 3.47879e-05
18 *593:12 *597:10 5.67058e-05
19 *123:61 *2300:A 1.98161e-05
*RES
1 *2297:X *593:4 23 
2 *593:4 *593:12 33.2314 
3 *593:12 *2317:A1 23 
4 *593:12 *2301:B1 24.1186 
5 *593:4 *2300:A 26.5007 
*END

*D_NET *594 0.00249787
*CONN
*I *2300:B I *D sky130_fd_sc_hd__or3_1
*I *2317:A2 I *D sky130_fd_sc_hd__o21ba_1
*I *2301:A1 I *D sky130_fd_sc_hd__o21ai_1
*I *2298:X O *D sky130_fd_sc_hd__and4_1
*CAP
1 *2300:B 0.000114279
2 *2317:A2 0
3 *2301:A1 0.000270746
4 *2298:X 0.000169299
5 *594:18 0.000386004
6 *594:14 0.000317866
7 *594:10 0.000257627
8 *2301:A1 *2301:A2 2.03559e-05
9 *2301:A1 *596:8 0
10 *2301:A1 *597:10 0.000141954
11 *2301:A1 *612:10 4.6318e-06
12 *594:10 *595:10 6.48049e-05
13 *594:14 *2300:C 2.02872e-05
14 *594:18 *596:8 0
15 *2297:A *594:10 0
16 *2299:A2 *594:10 0
17 *2299:B1 *594:10 0.000108681
18 *2300:A *2300:B 0.000185434
19 *2300:A *594:14 5.3304e-05
20 *2301:B1 *2301:A1 4.7812e-06
21 *117:33 *594:10 1.22906e-05
22 *118:55 *594:10 5.3304e-05
23 *123:61 *594:10 0.000110913
24 *593:12 *2301:A1 1.01436e-05
25 *593:12 *594:10 3.70187e-05
26 *593:12 *594:18 0.000154147
*RES
1 *2298:X *594:10 41.5836 
2 *594:10 *594:14 16.0979 
3 *594:14 *594:18 17.2579 
4 *594:18 *2301:A1 42.8471 
5 *594:18 *2317:A2 38 
6 *594:14 *2300:B 25.0507 
*END

*D_NET *595 0.00180475
*CONN
*I *2300:C I *D sky130_fd_sc_hd__or3_1
*I *2317:B1_N I *D sky130_fd_sc_hd__o21ba_1
*I *2301:A2 I *D sky130_fd_sc_hd__o21ai_1
*I *2299:Y O *D sky130_fd_sc_hd__a22oi_1
*CAP
1 *2300:C 0.00011178
2 *2317:B1_N 0.000193772
3 *2301:A2 7.3768e-05
4 *2299:Y 0
5 *595:10 0.000373141
6 *595:4 0.000217381
7 *2317:B1_N *2318:A3 0
8 *2317:B1_N *597:10 0.000124672
9 *2300:A *2300:C 0.00019547
10 *2301:A1 *2301:A2 2.03559e-05
11 *2301:B1 *2317:B1_N 7.0429e-05
12 *117:18 *2300:C 5.3304e-05
13 *117:33 *2300:C 8.60475e-05
14 *123:61 *2300:C 0.000142908
15 *593:12 *2317:B1_N 2.18409e-05
16 *593:12 *595:10 3.47879e-05
17 *594:10 *595:10 6.48049e-05
18 *594:14 *2300:C 2.02872e-05
*RES
1 *2299:Y *595:4 23 
2 *595:4 *595:10 31.9057 
3 *595:10 *2301:A2 24.0979 
4 *595:10 *2317:B1_N 27.495 
5 *595:4 *2300:C 27.1221 
*END

*D_NET *596 0.00236725
*CONN
*I *2304:A1 I *D sky130_fd_sc_hd__a21o_1
*I *2302:B I *D sky130_fd_sc_hd__and3_1
*I *2303:A1 I *D sky130_fd_sc_hd__a21oi_1
*I *2300:X O *D sky130_fd_sc_hd__or3_1
*CAP
1 *2304:A1 0
2 *2302:B 0.000227896
3 *2303:A1 0.000170953
4 *2300:X 0.000169977
5 *596:10 0.000451675
6 *596:8 0.000222802
7 *2302:B *599:12 2.4754e-05
8 *2302:B *614:10 0.000267173
9 *2303:A1 *2303:A2 0.000175858
10 *2303:A1 *599:8 2.54046e-05
11 *596:8 *597:10 0.000102638
12 *596:10 *2303:A2 8.02348e-05
13 *596:10 *597:10 6.38845e-05
14 *596:10 *599:8 1.86973e-05
15 *2301:A1 *596:8 0
16 *2303:B1 *2303:A1 0
17 *2303:B1 *596:10 0
18 *2304:B1 *596:10 2.46922e-05
19 *592:10 *596:8 0.000301419
20 *592:10 *596:10 3.91923e-05
21 *594:18 *596:8 0
*RES
1 *2300:X *596:8 42.0186 
2 *596:8 *596:10 1.90571 
3 *596:10 *2303:A1 41.5836 
4 *596:10 *2302:B 41.48 
5 *596:8 *2304:A1 38 
*END

*D_NET *597 0.0028304
*CONN
*I *2302:C I *D sky130_fd_sc_hd__and3_1
*I *2304:A2 I *D sky130_fd_sc_hd__a21o_1
*I *2303:A2 I *D sky130_fd_sc_hd__a21oi_1
*I *2301:Y O *D sky130_fd_sc_hd__o21ai_1
*CAP
1 *2302:C 0.000244721
2 *2304:A2 0
3 *2303:A2 0.000191475
4 *2301:Y 0.000262736
5 *597:23 0.000244721
6 *597:10 0.000454211
7 *2302:C *2308:B1 1.37232e-05
8 *2302:C *599:12 0.000144587
9 *2302:C *600:10 0.00010018
10 *2302:C *614:10 3.66886e-05
11 *2303:A2 *613:8 3.70187e-05
12 *597:10 *612:10 0.00014196
13 *597:10 *613:8 0.000132665
14 *2301:A1 *597:10 0.000141954
15 *2301:B1 *597:10 2.4754e-05
16 *2303:A1 *2303:A2 0.000175858
17 *2304:B1 *2302:C 5.50106e-05
18 *2317:B1_N *597:10 0.000124672
19 *593:12 *597:10 5.67058e-05
20 *596:8 *597:10 0.000102638
21 *596:10 *2303:A2 8.02348e-05
22 *596:10 *597:10 6.38845e-05
*RES
1 *2301:Y *597:10 45.1671 
2 *597:10 *2303:A2 41.9357 
3 *597:10 *597:23 15 
4 *597:23 *2304:A2 23 
5 *597:23 *2302:C 28.8207 
*END

*D_NET *598 0.00160112
*CONN
*I *2309:A1 I *D sky130_fd_sc_hd__o211a_1
*I *2318:B1 I *D sky130_fd_sc_hd__a31o_1
*I *2308:B1 I *D sky130_fd_sc_hd__a211oi_1
*I *2302:X O *D sky130_fd_sc_hd__and3_1
*CAP
1 *2309:A1 8.74508e-05
2 *2318:B1 6.61356e-05
3 *2308:B1 8.21132e-05
4 *2302:X 0
5 *598:19 0.00026332
6 *598:4 0.000191847
7 *2308:B1 *599:12 9.84794e-05
8 *2308:B1 *604:10 9.75779e-05
9 *2309:A1 *2309:C1 0
10 *2309:A1 *2318:A2 5.3304e-05
11 *2309:A1 *603:23 6.82611e-05
12 *2318:B1 *2318:A2 0.000269775
13 *2318:B1 *2318:A3 0.000126847
14 *2318:B1 *603:23 2.93747e-05
15 *598:19 *2309:B1 3.70094e-05
16 *598:19 *599:18 6.32792e-05
17 *598:19 *614:12 5.26204e-05
18 *2302:C *2308:B1 1.37232e-05
*RES
1 *2302:X *598:4 23 
2 *598:4 *2308:B1 25.4236 
3 *598:4 *598:19 32.2579 
4 *598:19 *2318:B1 26.0036 
5 *598:19 *2309:A1 25.0714 
*END

*D_NET *599 0.00146145
*CONN
*I *2308:C1 I *D sky130_fd_sc_hd__a211oi_1
*I *2309:A2 I *D sky130_fd_sc_hd__o211a_1
*I *2303:Y O *D sky130_fd_sc_hd__a21oi_1
*CAP
1 *2308:C1 0
2 *2309:A2 0
3 *2303:Y 8.07369e-05
4 *599:18 0.000153986
5 *599:12 0.000297631
6 *599:8 0.000224382
7 *599:12 *614:10 0.000137651
8 *599:18 *2308:A1 4.48671e-05
9 *599:18 *2308:A2 0
10 *599:18 *2309:B1 1.14452e-05
11 *599:18 *614:12 0
12 *2302:B *599:12 2.4754e-05
13 *2302:C *599:12 0.000144587
14 *2303:A1 *599:8 2.54046e-05
15 *2303:B1 *599:8 0.000135547
16 *2308:B1 *599:12 9.84794e-05
17 *596:10 *599:8 1.86973e-05
18 *598:19 *599:18 6.32792e-05
*RES
1 *2303:Y *599:8 39.9057 
2 *599:8 *599:12 18.9564 
3 *599:12 *599:18 32.9621 
4 *599:18 *2309:A2 23 
5 *599:12 *2308:C1 23 
*END

*D_NET *600 0.000541977
*CONN
*I *2318:A1 I *D sky130_fd_sc_hd__a31o_1
*I *2304:X O *D sky130_fd_sc_hd__a21o_1
*CAP
1 *2318:A1 0
2 *2304:X 0.000150419
3 *600:10 0.000150419
4 *600:10 *614:12 0
5 *2302:C *600:10 0.00010018
6 *592:10 *600:10 0.000140958
*RES
1 *2304:X *600:10 41.0036 
2 *600:10 *2318:A1 38 
*END

*D_NET *601 0.000570536
*CONN
*I *2306:B1 I *D sky130_fd_sc_hd__a31o_1
*I *2305:Y O *D sky130_fd_sc_hd__a21boi_1
*CAP
1 *2306:B1 0
2 *2305:Y 0.000149634
3 *601:10 0.000149634
4 *2291:A1 *601:10 8.62783e-05
5 *580:12 *601:10 1.17049e-05
6 *581:8 *601:10 6.33614e-05
7 *582:10 *601:10 1.14452e-05
8 *587:36 *601:10 9.84794e-05
*RES
1 *2305:Y *601:10 41.0036 
2 *601:10 *2306:B1 38 
*END

*D_NET *602 0.00346065
*CONN
*I *2308:A1 I *D sky130_fd_sc_hd__a211oi_1
*I *2318:A2 I *D sky130_fd_sc_hd__a31o_1
*I *2309:B1 I *D sky130_fd_sc_hd__o211a_1
*I *2306:X O *D sky130_fd_sc_hd__a31o_1
*CAP
1 *2308:A1 8.14174e-05
2 *2318:A2 0.000264305
3 *2309:B1 2.3218e-05
4 *2306:X 0.000577072
5 *602:12 0.000428113
6 *602:10 0.000799079
7 *2308:A1 *2308:A2 0.000114083
8 *2308:A1 *603:10 6.85684e-05
9 *2318:A2 *2318:A3 2.63049e-05
10 *602:10 *603:10 0.000130212
11 *602:10 *614:12 0
12 *602:10 *733:39 0.000180218
13 *2288:A *602:10 8.93663e-05
14 *2289:A1 *602:10 3.3577e-05
15 *2292:C *602:10 0
16 *2309:A1 *2318:A2 5.3304e-05
17 *2318:B1 *2318:A2 0.000269775
18 *117:66 *602:10 2.24973e-05
19 *121:41 *602:10 0.000181131
20 *123:71 *602:10 0
21 *586:10 *602:10 1.94693e-05
22 *587:10 *602:10 5.61255e-06
23 *598:19 *2309:B1 3.70094e-05
24 *599:18 *2308:A1 4.48671e-05
25 *599:18 *2309:B1 1.14452e-05
*RES
1 *2306:X *602:10 48.3882 
2 *602:10 *602:12 2.05071 
3 *602:12 *2309:B1 38.6732 
4 *602:12 *2318:A2 43.2511 
5 *602:10 *2308:A1 40.4339 
*END

*D_NET *603 0.00240457
*CONN
*I *2309:C1 I *D sky130_fd_sc_hd__o211a_1
*I *2318:A3 I *D sky130_fd_sc_hd__a31o_1
*I *2308:A2 I *D sky130_fd_sc_hd__a211oi_1
*I *2307:X O *D sky130_fd_sc_hd__or4bb_1
*CAP
1 *2309:C1 2.34823e-05
2 *2318:A3 0.000253629
3 *2308:A2 8.13038e-05
4 *2307:X 0.000195147
5 *603:23 0.000491565
6 *603:10 0.000490905
7 *2308:A2 *604:10 0.000139657
8 *603:10 *604:10 3.70187e-05
9 *603:23 *2310:A2 6.17437e-06
10 *2292:C *603:10 0
11 *2308:A1 *2308:A2 0.000114083
12 *2308:A1 *603:10 6.85684e-05
13 *2309:A1 *2309:C1 0
14 *2309:A1 *603:23 6.82611e-05
15 *2317:B1_N *2318:A3 0
16 *2318:A2 *2318:A3 2.63049e-05
17 *2318:B1 *2318:A3 0.000126847
18 *2318:B1 *603:23 2.93747e-05
19 *123:71 *603:10 2.18506e-05
20 *585:8 *603:10 0.00010018
21 *599:18 *2308:A2 0
22 *602:10 *603:10 0.000130212
*RES
1 *2307:X *603:10 42.1843 
2 *603:10 *2308:A2 40.2579 
3 *603:10 *603:23 18.48 
4 *603:23 *2318:A3 27.4536 
5 *603:23 *2309:C1 23.4971 
*END

*D_NET *604 0.000819923
*CONN
*I *2310:A1 I *D sky130_fd_sc_hd__o21ai_1
*I *2308:Y O *D sky130_fd_sc_hd__a211oi_1
*CAP
1 *2310:A1 0
2 *2308:Y 0.000272835
3 *604:10 0.000272835
4 *2292:C *604:10 0
5 *2308:A2 *604:10 0.000139657
6 *2308:B1 *604:10 9.75779e-05
7 *603:10 *604:10 3.70187e-05
*RES
1 *2308:Y *604:10 43.2614 
2 *604:10 *2310:A1 38 
*END

*D_NET *605 0.000152368
*CONN
*I *2310:A2 I *D sky130_fd_sc_hd__o21ai_1
*I *2309:X O *D sky130_fd_sc_hd__o211a_1
*CAP
1 *2310:A2 7.30969e-05
2 *2309:X 7.30969e-05
3 *603:23 *2310:A2 6.17437e-06
*RES
1 *2309:X *2310:A2 47.0979 
*END

*D_NET *606 0.00270202
*CONN
*I *2311:B1 I *D sky130_fd_sc_hd__o21a_1
*I *2310:Y O *D sky130_fd_sc_hd__o21ai_1
*CAP
1 *2311:B1 0
2 *2310:Y 0.00112914
3 *606:12 0.000123839
4 *606:6 0.00125298
5 *606:6 *740:30 0.000102093
6 *606:12 *2311:A2 1.14452e-05
7 *2292:A *606:6 1.94693e-05
8 *2292:B *606:6 6.30615e-05
*RES
1 *2310:Y *606:6 38.3907 
2 *606:6 *606:12 32.2579 
3 *606:12 *2311:B1 23 
*END

*D_NET *607 0.00177727
*CONN
*I *2314:A_N I *D sky130_fd_sc_hd__and2b_1
*I *2325:B1 I *D sky130_fd_sc_hd__a31o_1
*I *2312:X O *D sky130_fd_sc_hd__and4_1
*CAP
1 *2314:A_N 0.000139423
2 *2325:B1 0.000139321
3 *2312:X 0.000146311
4 *607:8 0.000425055
5 *2314:A_N *608:12 0.000114083
6 *2325:B1 *2325:A3 0.000117611
7 *2325:B1 *608:12 0.000114798
8 *2325:B1 *733:49 6.94409e-05
9 *607:8 *608:12 1.14452e-05
10 *2313:B1 *2325:B1 7.99127e-05
11 *2325:A1 *2325:B1 2.36373e-06
12 *118:23 *2325:B1 5.90675e-06
13 *118:31 *607:8 8.41115e-05
14 *119:33 *2314:A_N 0.000141954
15 *119:35 *607:8 1.99391e-05
16 *123:102 *607:8 0.000165593
*RES
1 *2312:X *607:8 40.9621 
2 *607:8 *2325:B1 42.7798 
3 *607:8 *2314:A_N 41.1279 
*END

*D_NET *608 0.00144353
*CONN
*I *2325:A3 I *D sky130_fd_sc_hd__a31o_1
*I *2314:B I *D sky130_fd_sc_hd__and2b_1
*I *2313:X O *D sky130_fd_sc_hd__a22o_1
*CAP
1 *2325:A3 0.000124393
2 *2314:B 0
3 *2313:X 0
4 *608:12 0.000210791
5 *608:4 0.000335184
6 *2325:A3 *610:10 0.000136738
7 *2325:A3 *733:49 1.05775e-05
8 *2314:A_N *608:12 0.000114083
9 *2325:A1 *2325:A3 2.02872e-05
10 *2325:A2 *2325:A3 5.3304e-05
11 *2325:B1 *2325:A3 0.000117611
12 *2325:B1 *608:12 0.000114798
13 *119:35 *608:12 0.000114083
14 *119:95 *608:12 8.02348e-05
15 *607:8 *608:12 1.14452e-05
*RES
1 *2313:X *608:4 23 
2 *608:4 *608:12 34.1843 
3 *608:12 *2314:B 23 
4 *608:4 *2325:A3 26.9771 
*END

*D_NET *609 0.000236612
*CONN
*I *2316:A I *D sky130_fd_sc_hd__xnor2_1
*I *2314:X O *D sky130_fd_sc_hd__and2b_1
*CAP
1 *2316:A 0.000113835
2 *2314:X 0.000113835
3 *119:33 *2316:A 8.94207e-06
*RES
1 *2314:X *2316:A 48.0714 
*END

*D_NET *610 0.00111943
*CONN
*I *2316:B I *D sky130_fd_sc_hd__xnor2_1
*I *2315:Y O *D sky130_fd_sc_hd__nand2_1
*CAP
1 *2316:B 0
2 *2315:Y 0.000323924
3 *610:10 0.000323924
4 *2325:A2 *610:10 3.88863e-05
5 *2325:A3 *610:10 0.000136738
6 *119:35 *610:10 0
7 *119:95 *610:10 0
8 *122:43 *610:10 9.84794e-05
9 *124:14 *610:10 0.000197479
*RES
1 *2315:Y *610:10 44.09 
2 *610:10 *2316:B 38 
*END

*D_NET *611 0.00160081
*CONN
*I *2321:A I *D sky130_fd_sc_hd__xnor2_1
*I *2320:B I *D sky130_fd_sc_hd__nand2b_1
*I *2316:Y O *D sky130_fd_sc_hd__xnor2_1
*CAP
1 *2321:A 0.000205676
2 *2320:B 3.99273e-05
3 *2316:Y 0.000288166
4 *611:8 0.000533769
5 *2320:B *2321:B 0
6 *2320:B *733:73 6.48049e-05
7 *2321:A *2321:B 5.67058e-05
8 *2321:A *733:73 0.000187335
9 *611:8 *2326:A 0.000126847
10 *611:8 *620:10 9.75779e-05
*RES
1 *2316:Y *611:8 43.3857 
2 *611:8 *2320:B 38.9995 
3 *611:8 *2321:A 42.6607 
*END

*D_NET *612 0.00055755
*CONN
*I *2319:A I *D sky130_fd_sc_hd__xor2_1
*I *2317:X O *D sky130_fd_sc_hd__o21ba_1
*CAP
1 *2319:A 0
2 *2317:X 0.000205479
3 *612:10 0.000205479
4 *612:10 *613:8 0
5 *2301:A1 *612:10 4.6318e-06
6 *597:10 *612:10 0.00014196
*RES
1 *2317:X *612:10 41.48 
2 *612:10 *2319:A 38 
*END

*D_NET *613 0.000538782
*CONN
*I *2319:B I *D sky130_fd_sc_hd__xor2_1
*I *2318:X O *D sky130_fd_sc_hd__a31o_1
*CAP
1 *2319:B 8.6056e-05
2 *2318:X 9.18776e-05
3 *613:8 0.000177934
4 *2319:B *614:10 1.32314e-05
5 *2303:A2 *613:8 3.70187e-05
6 *597:10 *613:8 0.000132665
7 *612:10 *613:8 0
*RES
1 *2318:X *613:8 40.2579 
2 *613:8 *2319:B 39.5743 
*END

*D_NET *614 0.00330105
*CONN
*I *2321:B I *D sky130_fd_sc_hd__xnor2_1
*I *2320:A_N I *D sky130_fd_sc_hd__nand2b_1
*I *2319:X O *D sky130_fd_sc_hd__xor2_1
*CAP
1 *2321:B 0.000204519
2 *2320:A_N 9.37445e-05
3 *2319:X 0.000168409
4 *614:12 0.00115753
5 *614:10 0.00102767
6 *614:12 *733:73 0
7 *2296:B *614:12 0
8 *2302:A *614:12 2.47015e-05
9 *2302:B *614:10 0.000267173
10 *2302:C *614:10 3.66886e-05
11 *2303:B1 *614:12 2.81216e-05
12 *2304:B1 *614:10 3.22879e-05
13 *2319:B *614:10 1.32314e-05
14 *2320:B *2321:B 0
15 *2321:A *2321:B 5.67058e-05
16 *117:66 *614:12 0
17 *122:68 *614:12 0
18 *592:10 *614:12 0
19 *598:19 *614:12 5.26204e-05
20 *599:12 *614:10 0.000137651
21 *599:18 *614:12 0
22 *600:10 *614:12 0
23 *602:10 *614:12 0
*RES
1 *2319:X *614:10 42.4536 
2 *614:10 *614:12 14.5829 
3 *614:12 *2320:A_N 39.5743 
4 *614:12 *2321:B 41.7286 
*END

*D_NET *615 0.000341581
*CONN
*I *2326:A I *D sky130_fd_sc_hd__xnor2_1
*I *2320:Y O *D sky130_fd_sc_hd__nand2b_1
*CAP
1 *2326:A 0.000107367
2 *2320:Y 0.000107367
3 *611:8 *2326:A 0.000126847
*RES
1 *2320:Y *2326:A 48.5271 
*END

*D_NET *616 0.00125455
*CONN
*I *2322:A1 I *D sky130_fd_sc_hd__mux2_1
*I *2321:Y O *D sky130_fd_sc_hd__xnor2_1
*CAP
1 *2322:A1 0
2 *2321:Y 0.000584129
3 *616:10 0.000584129
4 *616:10 *740:30 8.62876e-05
5 *580:42 *616:10 0
*RES
1 *2321:Y *616:10 46.0164 
2 *616:10 *2322:A1 38 
*END

*D_NET *617 0.00138577
*CONN
*I *2332:A I *D sky130_fd_sc_hd__nand2_1
*I *2333:A1 I *D sky130_fd_sc_hd__o211a_1
*I *2323:Y O *D sky130_fd_sc_hd__nand2_1
*CAP
1 *2332:A 0
2 *2333:A1 0
3 *2323:Y 0.000407306
4 *617:21 0.000128645
5 *617:8 0.000535951
6 *617:8 *2333:A2 2.2903e-05
7 *617:8 *2333:C1 6.70005e-05
8 *617:21 *626:10 0.00014411
9 *617:21 *706:39 0
10 *617:21 *740:10 6.03737e-05
11 *2323:A *617:8 1.94812e-05
*RES
1 *2323:Y *617:8 28.6343 
2 *617:8 *2333:A1 23 
3 *617:8 *617:21 33.2314 
4 *617:21 *2332:A 23 
*END

*D_NET *618 0.00132284
*CONN
*I *2329:A I *D sky130_fd_sc_hd__nand2_1
*I *2333:B1 I *D sky130_fd_sc_hd__o211a_1
*I *2324:Y O *D sky130_fd_sc_hd__nand4_1
*CAP
1 *2329:A 0
2 *2333:B1 0
3 *2324:Y 0.000174766
4 *618:16 0.000148885
5 *618:8 0.000323651
6 *618:8 *2329:B 5.90675e-06
7 *618:8 *2330:A 0
8 *618:8 *2330:B 1.76557e-05
9 *618:8 *622:10 0.000139352
10 *618:16 *2333:A2 5.3304e-05
11 *618:16 *2333:C1 5.3304e-05
12 *618:16 *622:10 0.000242666
13 *618:16 *740:10 5.01986e-05
14 *618:16 *740:20 0.000113153
*RES
1 *2324:Y *618:8 25.9 
2 *618:8 *618:16 33.9357 
3 *618:16 *2333:B1 23 
4 *618:8 *2329:A 23 
*END

*D_NET *619 0.000273043
*CONN
*I *2326:B I *D sky130_fd_sc_hd__xnor2_1
*I *2325:X O *D sky130_fd_sc_hd__a31o_1
*CAP
1 *2326:B 0
2 *2325:X 6.34087e-05
3 *619:8 6.34087e-05
4 *120:23 *619:8 5.86165e-05
5 *122:24 *619:8 8.76088e-05
*RES
1 *2325:X *619:8 40.2579 
2 *619:8 *2326:B 38 
*END

*D_NET *620 0.00255502
*CONN
*I *2330:A I *D sky130_fd_sc_hd__xnor2_1
*I *2328:A I *D sky130_fd_sc_hd__nand2_1
*I *2326:Y O *D sky130_fd_sc_hd__xnor2_1
*CAP
1 *2330:A 0.000356147
2 *2328:A 0
3 *2326:Y 0.000301642
4 *620:10 0.000657789
5 *2330:A *2328:B 0.000178517
6 *2330:A *2329:B 0.000139357
7 *2330:A *2330:B 0.000182826
8 *2330:A *622:10 1.03836e-05
9 *2330:A *740:20 0.000143655
10 *2323:B *2330:A 5.01986e-05
11 *120:23 *620:10 8.4047e-05
12 *120:52 *620:10 0.000129513
13 *120:65 *2330:A 1.14452e-05
14 *120:65 *620:10 0.000128583
15 *122:24 *620:10 0
16 *123:39 *2330:A 2.04774e-05
17 *123:39 *620:10 6.28591e-05
18 *611:8 *620:10 9.75779e-05
19 *618:8 *2330:A 0
*RES
1 *2326:Y *620:10 43.8207 
2 *620:10 *2328:A 38 
3 *620:10 *2330:A 46.0371 
*END

*D_NET *621 0.00143429
*CONN
*I *2329:B I *D sky130_fd_sc_hd__nand2_1
*I *2328:B I *D sky130_fd_sc_hd__nand2_1
*I *2327:X O *D sky130_fd_sc_hd__a22o_1
*CAP
1 *2329:B 7.18428e-05
2 *2328:B 0.000145371
3 *2327:X 7.40541e-05
4 *621:10 0.000217213
5 *621:8 7.40541e-05
6 *2328:B *622:10 8.56254e-05
7 *2329:B *622:10 6.37845e-05
8 *621:8 *733:73 1.22803e-05
9 *2324:C *2328:B 5.50049e-05
10 *2327:A2 *621:8 0.000135547
11 *2330:A *2328:B 0.000178517
12 *2330:A *2329:B 0.000139357
13 *123:141 *621:8 0.000140958
14 *124:79 *621:8 3.47781e-05
15 *618:8 *2329:B 5.90675e-06
*RES
1 *2327:X *621:8 40.2579 
2 *621:8 *621:10 15 
3 *621:10 *2328:B 26.5007 
4 *621:10 *2329:B 25.0714 
*END

*D_NET *622 0.00252264
*CONN
*I *2332:B I *D sky130_fd_sc_hd__nand2_1
*I *2333:A2 I *D sky130_fd_sc_hd__o211a_1
*I *2328:Y O *D sky130_fd_sc_hd__nand2_1
*CAP
1 *2332:B 0.000165583
2 *2333:A2 0.000134225
3 *2328:Y 0.000450053
4 *622:10 0.000749861
5 *2332:B *625:8 5.37348e-06
6 *2332:B *733:73 4.41619e-05
7 *2332:B *740:10 7.03766e-05
8 *2333:A2 *2333:C1 2.42898e-05
9 *622:10 *2330:B 6.17437e-06
10 *622:10 *733:73 0.000120201
11 *622:10 *740:10 2.60152e-05
12 *2324:C *622:10 5.50049e-05
13 *2328:B *622:10 8.56254e-05
14 *2329:B *622:10 6.37845e-05
15 *2330:A *622:10 1.03836e-05
16 *119:114 *622:10 5.3304e-05
17 *124:75 *2333:A2 0
18 *617:8 *2333:A2 2.2903e-05
19 *618:8 *622:10 0.000139352
20 *618:16 *2333:A2 5.3304e-05
21 *618:16 *622:10 0.000242666
*RES
1 *2328:Y *622:10 46.8036 
2 *622:10 *2333:A2 40.5686 
3 *622:10 *2332:B 41.48 
*END

*D_NET *623 0.000339352
*CONN
*I *2330:B I *D sky130_fd_sc_hd__xnor2_1
*I *2329:Y O *D sky130_fd_sc_hd__nand2_1
*CAP
1 *2330:B 6.63481e-05
2 *2329:Y 6.63481e-05
3 *2330:A *2330:B 0.000182826
4 *618:8 *2330:B 1.76557e-05
5 *622:10 *2330:B 6.17437e-06
*RES
1 *2329:Y *2330:B 48.0507 
*END

*D_NET *624 0.00602936
*CONN
*I *2331:A1 I *D sky130_fd_sc_hd__mux2_1
*I *2330:Y O *D sky130_fd_sc_hd__xnor2_1
*CAP
1 *2331:A1 4.56369e-05
2 *2330:Y 0.000575699
3 *624:12 0.00103801
4 *624:8 0.00156807
5 *2331:A1 *2331:S 9.84851e-05
6 *624:8 *740:20 0.000179229
7 *624:8 *740:46 1.56665e-05
8 *624:12 *2535:SET_B 0
9 *624:12 *650:37 0
10 *624:12 *658:14 0
11 *624:12 *701:193 0.000122304
12 *624:12 *707:27 0.000137061
13 *624:12 *707:35 0.000131077
14 *624:12 *739:101 0.00080206
15 *624:12 *753:28 0
16 *624:12 *753:30 0
17 *624:12 *753:32 0
18 *624:12 *753:36 0
19 *624:12 *753:92 0.000450164
20 *2322:A0 *624:8 0.000359332
21 *138:12 *624:12 0
22 *295:8 *624:12 6.93449e-05
23 *513:8 *624:12 0.000212621
24 *514:10 *624:12 0
25 *580:42 *624:8 0.000224605
*RES
1 *2330:Y *624:8 35.5529 
2 *624:8 *624:12 40.8514 
3 *624:12 *2331:A1 39.0979 
*END

*D_NET *625 0.00378193
*CONN
*I *2334:B1 I *D sky130_fd_sc_hd__a2bb2o_1
*I *2332:Y O *D sky130_fd_sc_hd__nand2_1
*CAP
1 *2334:B1 0
2 *2332:Y 4.76846e-05
3 *625:12 0.000596316
4 *625:8 0.000644
5 *625:12 *2420:A2 0.000241616
6 *625:12 *626:10 3.04021e-05
7 *625:12 *676:10 0.000222113
8 *625:12 *733:83 0
9 *625:12 *739:51 0.000292089
10 *625:12 *739:55 9.69326e-05
11 *625:12 *739:69 0.000115392
12 *625:12 *740:10 0.00149001
13 *2332:B *625:8 5.37348e-06
*RES
1 *2332:Y *625:8 38.6214 
2 *625:8 *625:12 36.2736 
3 *625:12 *2334:B1 23 
*END

*D_NET *626 0.00621639
*CONN
*I *2335:B1_N I *D sky130_fd_sc_hd__o21ba_1
*I *2334:B2 I *D sky130_fd_sc_hd__a2bb2o_1
*I *2333:X O *D sky130_fd_sc_hd__o211a_1
*CAP
1 *2335:B1_N 0
2 *2334:B2 3.93039e-05
3 *2333:X 4.96719e-05
4 *626:27 0.000455586
5 *626:10 0.00152693
6 *626:8 0.00108171
7 *2334:B2 *2567:A 4.9662e-05
8 *2334:B2 *695:6 9.58714e-05
9 *626:10 *659:10 0
10 *626:10 *689:10 0.000169674
11 *626:10 *706:14 0
12 *626:10 *706:16 0
13 *626:10 *706:29 0
14 *626:10 *706:39 0
15 *626:10 *739:51 0.000821284
16 *626:10 *739:53 0.000133316
17 *626:10 *739:55 0.000300108
18 *626:10 *739:69 0.000241365
19 *626:10 *740:10 0
20 *626:27 *2335:A2 0.000127336
21 *626:27 *701:10 0.000367367
22 *626:27 *733:83 0
23 *626:27 *739:51 0.000230039
24 *271:10 *626:27 0.000352657
25 *617:21 *626:10 0.00014411
26 *625:12 *626:10 3.04021e-05
*RES
1 *2333:X *626:8 38.6214 
2 *626:8 *626:10 24.0907 
3 *626:10 *2334:B2 39.0979 
4 *626:10 *626:27 27.5321 
5 *626:27 *2335:B1_N 23 
*END

*D_NET *627 0.00476358
*CONN
*I *2353:B1 I *D sky130_fd_sc_hd__o31a_1
*I *2374:A1 I *D sky130_fd_sc_hd__o21ai_1
*I *2364:A3 I *D sky130_fd_sc_hd__o31ai_1
*I *2352:X O *D sky130_fd_sc_hd__or3b_1
*CAP
1 *2353:B1 0.00017766
2 *2374:A1 0.000563415
3 *2364:A3 0.000338942
4 *2352:X 0.000169603
5 *627:19 0.000741076
6 *627:6 0.000508545
7 *2353:B1 *742:40 0.000209216
8 *2364:A3 *2364:B1 1.89135e-05
9 *2364:A3 *647:10 5.50106e-05
10 *2374:A1 *2360:B1 0
11 *2374:A1 *2382:A1 3.3746e-05
12 *2374:A1 *2382:B1 7.15126e-05
13 *2374:A1 *629:35 2.64616e-05
14 *2374:A1 *635:10 2.17486e-05
15 *2374:A1 *742:40 9.88991e-05
16 *627:6 *638:14 1.40958e-05
17 *2003:A *2364:A3 1.32314e-05
18 *2003:A *627:6 0.000125213
19 *2352:A *627:6 9.76261e-05
20 *2361:A *2353:B1 1.79747e-05
21 *2361:A *2374:A1 0.000181589
22 *110:55 *2364:A3 6.17437e-06
23 *112:55 *2364:A3 0.000137651
24 *112:55 *627:6 0.000520201
25 *347:39 *627:6 5.61255e-06
26 *348:40 *2374:A1 6.07826e-05
27 *352:6 *2364:A3 0.000287729
28 *352:14 *2353:B1 0.000186521
29 *353:8 *2353:B1 0
30 *353:12 *627:6 7.44257e-05
*RES
1 *2352:X *627:6 28.8621 
2 *627:6 *2364:A3 29.0279 
3 *627:6 *627:19 15 
4 *627:19 *2374:A1 46.7 
5 *627:19 *2353:B1 41.9357 
*END

*D_NET *628 0.00243525
*CONN
*I *2381:B1 I *D sky130_fd_sc_hd__o22ai_1
*I *2372:B I *D sky130_fd_sc_hd__and3_1
*I *2355:B I *D sky130_fd_sc_hd__nor3b_1
*I *2353:X O *D sky130_fd_sc_hd__o31a_1
*CAP
1 *2381:B1 3.78492e-05
2 *2372:B 0
3 *2355:B 0.000357602
4 *2353:X 0.000314627
5 *628:14 0.000537666
6 *628:12 0.000217914
7 *628:10 0.000314627
8 *2355:B *2355:C_N 2.97374e-05
9 *2355:B *629:25 2.38387e-06
10 *2381:B1 *2381:B2 5.45064e-06
11 *2381:B1 *646:12 1.11037e-05
12 *628:10 *741:26 0.000276956
13 *628:14 *629:25 3.91858e-05
14 *628:14 *646:12 5.25022e-05
15 *2355:A *2355:B 3.85196e-05
16 *110:55 *2355:B 6.70361e-05
17 *110:55 *628:14 6.17437e-06
18 *111:22 *2355:B 1.93332e-05
19 *112:65 *628:10 2.58308e-05
20 *112:90 *628:10 7.11028e-05
21 *359:16 *628:10 9.64801e-06
*RES
1 *2353:X *628:10 43.1164 
2 *628:10 *628:12 15 
3 *628:12 *628:14 2.52714 
4 *628:14 *2355:B 27.8057 
5 *628:14 *2372:B 23 
6 *628:12 *2381:B1 23.8493 
*END

*D_NET *629 0.00234503
*CONN
*I *2381:B2 I *D sky130_fd_sc_hd__o22ai_1
*I *2374:A2 I *D sky130_fd_sc_hd__o21ai_1
*I *2355:C_N I *D sky130_fd_sc_hd__nor3b_1
*I *2354:Y O *D sky130_fd_sc_hd__nor2_1
*CAP
1 *2381:B2 4.84111e-05
2 *2374:A2 0
3 *2355:C_N 0.000186186
4 *2354:Y 0
5 *629:35 0.000140359
6 *629:25 0.000498314
7 *629:4 0.000495729
8 *2381:B2 *652:10 5.3304e-05
9 *629:25 *645:12 0.000122002
10 *629:25 *646:12 9.64943e-05
11 *629:25 *652:10 2.221e-05
12 *629:35 *635:10 2.64616e-05
13 *629:35 *647:10 0.000185635
14 *629:35 *741:26 0.000188805
15 *2355:A *2355:C_N 2.18888e-05
16 *2355:B *2355:C_N 2.97374e-05
17 *2355:B *629:25 2.38387e-06
18 *2372:A *2355:C_N 5.47983e-06
19 *2372:A *629:25 5.61507e-05
20 *2374:A1 *629:35 2.64616e-05
21 *2381:B1 *2381:B2 5.45064e-06
22 *110:55 *2355:C_N 0
23 *110:55 *629:25 3.87477e-05
24 *111:22 *2355:C_N 5.56279e-05
25 *628:14 *629:25 3.91858e-05
*RES
1 *2354:Y *629:4 23 
2 *629:4 *2355:C_N 26.9979 
3 *629:4 *629:25 6.19357 
4 *629:25 *629:35 33.48 
5 *629:35 *2374:A2 23 
6 *629:25 *2381:B2 24.1186 
*END

*D_NET *630 0.000436346
*CONN
*I *2360:C1 I *D sky130_fd_sc_hd__a221o_2
*I *2355:Y O *D sky130_fd_sc_hd__nor3b_1
*CAP
1 *2360:C1 1.87628e-05
2 *2355:Y 0.000122686
3 *630:8 0.000141449
4 *2360:C1 *762:54 2.93431e-05
5 *630:8 *718:12 0
6 *630:8 *762:54 9.5956e-06
7 *2441:A2 *2360:C1 5.56356e-05
8 *110:43 *630:8 4.08379e-06
9 *112:90 *630:8 5.47903e-05
*RES
1 *2355:Y *630:8 39.9057 
2 *630:8 *2360:C1 38.6214 
*END

*D_NET *631 0.00192246
*CONN
*I *2371:A3 I *D sky130_fd_sc_hd__a311oi_1
*I *2382:A3 I *D sky130_fd_sc_hd__a31o_1
*I *2356:Y O *D sky130_fd_sc_hd__nor2_1
*CAP
1 *2371:A3 0
2 *2382:A3 1.50079e-05
3 *2356:Y 0.000187042
4 *631:19 0.000121878
5 *631:6 0.000323928
6 *2382:A3 *2382:A2 5.50049e-05
7 *631:6 *2382:A2 4.08664e-05
8 *631:6 *742:22 0.000113312
9 *631:6 *742:32 0.000128401
10 *631:6 *743:92 6.82611e-05
11 *631:19 *2382:A1 3.98496e-05
12 *631:19 *742:40 1.4471e-05
13 *631:19 *743:59 1.14452e-05
14 *631:19 *743:68 0.000175959
15 *631:19 *743:85 2.40336e-05
16 *1998:A *631:6 5.50049e-05
17 *2361:B *631:19 1.01436e-05
18 *348:40 *2382:A3 5.50049e-05
19 *348:40 *631:6 0.000482844
20 *348:40 *631:19 0
*RES
1 *2356:Y *631:6 29.815 
2 *631:6 *2382:A3 23.6214 
3 *631:6 *631:19 32.9621 
4 *631:19 *2371:A3 23 
*END

*D_NET *632 0.00293898
*CONN
*I *2378:B I *D sky130_fd_sc_hd__or4b_1
*I *2358:B1 I *D sky130_fd_sc_hd__a31o_1
*I *2357:Y O *D sky130_fd_sc_hd__nor4_1
*CAP
1 *2378:B 0
2 *2358:B1 0
3 *2357:Y 0.000180003
4 *632:26 0.000567989
5 *632:12 0.000567989
6 *632:10 0.000180003
7 *632:10 *640:25 8.4047e-05
8 *632:10 *651:10 4.84303e-05
9 *632:10 *714:10 0.000110913
10 *632:26 *636:8 6.0392e-05
11 *632:26 *636:35 2.4754e-05
12 *632:26 *639:24 9.75795e-05
13 *632:26 *643:12 0.000178517
14 *632:26 *742:90 1.22803e-05
15 *2367:D1 *632:26 6.26138e-05
16 *2381:A2 *632:26 0
17 *114:14 *632:10 0.000296017
18 *315:21 *632:10 2.64616e-05
19 *351:14 *632:26 5.79413e-06
20 *579:12 *632:26 0.000435193
*RES
1 *2357:Y *632:10 42.64 
2 *632:10 *632:12 15 
3 *632:12 *632:26 40.1086 
4 *632:26 *2358:B1 23 
5 *632:12 *2378:B 23 
*END

*D_NET *633 0.00277202
*CONN
*I *2371:B1 I *D sky130_fd_sc_hd__a311oi_1
*I *2360:A2 I *D sky130_fd_sc_hd__a221o_2
*I *2358:X O *D sky130_fd_sc_hd__a31o_1
*CAP
1 *2371:B1 0
2 *2360:A2 8.55984e-05
3 *2358:X 6.5391e-05
4 *633:22 0.000847866
5 *633:8 0.000827659
6 *2360:A2 *635:10 2.93335e-05
7 *633:8 *2371:C1 0.000184527
8 *633:8 *645:12 2.95972e-05
9 *633:22 *639:12 0
10 *633:22 *645:12 7.67478e-05
11 *633:22 *646:12 2.11066e-05
12 *633:22 *742:32 0.000112538
13 *633:22 *743:59 1.14452e-05
14 *633:22 *743:68 0.000176135
15 *2381:A2 *633:8 0.000257141
16 *2381:A2 *633:22 4.28286e-05
17 *112:90 *633:22 4.10479e-06
*RES
1 *2358:X *633:8 26.2625 
2 *633:8 *633:22 35.9586 
3 *633:22 *2360:A2 39.3361 
4 *633:8 *2371:B1 23 
*END

*D_NET *634 0.00204883
*CONN
*I *2360:B1 I *D sky130_fd_sc_hd__a221o_2
*I *2359:Y O *D sky130_fd_sc_hd__nor2_1
*CAP
1 *2360:B1 1.51034e-05
2 *2359:Y 0.000434856
3 *634:10 0.000449959
4 *634:10 *718:12 0
5 *2005:A *634:10 0.000119565
6 *2374:A1 *2360:B1 0
7 *2441:A2 *634:10 0.000159984
8 *110:43 *634:10 0.000171497
9 *111:22 *634:10 0.000221363
10 *355:10 *634:10 0.000476506
*RES
1 *2359:Y *634:10 47.8911 
2 *634:10 *2360:B1 38.3211 
*END

*D_NET *635 0.00585984
*CONN
*I *2379:S I *D sky130_fd_sc_hd__mux2_1
*I *2368:A I *D sky130_fd_sc_hd__xnor2_1
*I *2376:S I *D sky130_fd_sc_hd__mux2_1
*I *2383:A2 I *D sky130_fd_sc_hd__a211o_1
*I *2360:X O *D sky130_fd_sc_hd__a221o_2
*CAP
1 *2379:S 0.000243118
2 *2368:A 1.59853e-05
3 *2376:S 6.10869e-05
4 *2383:A2 0.000139433
5 *2360:X 0.000368176
6 *635:42 0.0010774
7 *635:25 0.00118181
8 *635:12 0.000441861
9 *635:10 0.000368176
10 *2368:A *2504:CLK 2.57604e-05
11 *2376:S *648:10 0
12 *2376:S *722:8 1.58805e-05
13 *2379:S *2504:CLK 0.00012377
14 *2379:S *2524:CLK 0.000140259
15 *2379:S *705:46 0.000181131
16 *2383:A2 *2383:A1 0.000137618
17 *2383:A2 *646:16 1.41077e-05
18 *635:10 *2382:B1 6.17437e-06
19 *635:10 *648:10 0.000176607
20 *635:10 *741:26 8.08615e-05
21 *635:25 *2376:A0 4.6595e-05
22 *635:25 *2383:A1 0.000345193
23 *635:42 *2504:CLK 0.000333045
24 *635:42 *722:8 0.000106506
25 *2360:A2 *635:10 2.93335e-05
26 *2374:A1 *635:10 2.17486e-05
27 *2504:D *635:42 3.98818e-05
28 *113:6 *635:42 3.82058e-06
29 *113:12 *2376:S 1.01436e-05
30 *113:12 *635:42 8.4047e-05
31 *113:19 *635:42 3.70553e-06
32 *290:8 *635:42 0
33 *348:40 *635:10 1.01436e-05
34 *358:10 *2376:S 0
35 *358:10 *635:42 0
36 *629:35 *635:10 2.64616e-05
*RES
1 *2360:X *635:10 44.3179 
2 *635:10 *635:12 15 
3 *635:12 *2383:A2 25.4236 
4 *635:12 *635:25 19.9093 
5 *635:25 *2376:S 39.2014 
6 *635:25 *635:42 28.485 
7 *635:42 *2368:A 23.4971 
8 *635:42 *2379:S 28.8621 
*END

*D_NET *636 0.00588758
*CONN
*I *2369:B I *D sky130_fd_sc_hd__nand2_1
*I *2362:A I *D sky130_fd_sc_hd__inv_2
*I *2363:B I *D sky130_fd_sc_hd__or2_1
*I *2361:X O *D sky130_fd_sc_hd__or2_1
*CAP
1 *2369:B 4.79659e-05
2 *2362:A 0
3 *2363:B 0.000175737
4 *2361:X 0.000746768
5 *636:35 0.00047967
6 *636:10 0.000747691
7 *636:8 0.000887018
8 *2363:B *1997:B 0
9 *2363:B *742:103 0
10 *636:35 *2370:A1 5.67058e-05
11 *636:35 *2370:B1 4.03086e-05
12 *636:35 *641:6 0.000189108
13 *636:35 *641:10 0.000150283
14 *636:35 *644:10 2.4754e-05
15 *636:35 *739:14 9.84851e-05
16 *788:DIODE *2369:B 8.62876e-05
17 *788:DIODE *636:10 0.000104515
18 *788:DIODE *636:35 5.50106e-05
19 *1999:A *2363:B 2.68708e-05
20 *2366:B *636:35 5.50106e-05
21 *2367:D1 *636:8 2.13733e-05
22 *2370:A2 *636:35 5.50106e-05
23 *2381:A2 *636:8 0.000554292
24 *112:39 *2363:B 3.22879e-05
25 *112:113 *2363:B 4.6318e-06
26 *347:18 *2369:B 4.21594e-06
27 *347:20 *2363:B 2.89463e-05
28 *347:20 *2369:B 2.96909e-05
29 *347:20 *636:10 3.32212e-05
30 *351:14 *2363:B 9.48381e-06
31 *351:14 *636:10 6.7177e-06
32 *351:16 *636:35 0.000140259
33 *359:38 *636:8 2.81406e-06
34 *579:12 *636:35 0.000476058
35 *579:27 *636:35 0.000431241
36 *632:26 *636:8 6.0392e-05
37 *632:26 *636:35 2.4754e-05
*RES
1 *2361:X *636:8 48.6264 
2 *636:8 *636:10 1.90571 
3 *636:10 *2363:B 41.2314 
4 *636:10 *636:35 31.2193 
5 *636:35 *2362:A 23 
6 *636:8 *2369:B 39.2014 
*END

*D_NET *637 0.00208089
*CONN
*I *2380:B1 I *D sky130_fd_sc_hd__a221o_1
*I *2362:Y O *D sky130_fd_sc_hd__inv_2
*CAP
1 *2380:B1 0.00024742
2 *2362:Y 0.000320608
3 *637:10 0.000568029
4 *2380:B1 *640:25 2.4807e-05
5 *2380:B1 *643:12 0
6 *2380:A2 *2380:B1 3.66052e-05
7 *2380:B2 *2380:B1 4.62242e-05
8 *115:10 *2380:B1 0.000181125
9 *292:8 *2380:B1 5.61255e-06
10 *315:12 *637:10 0.000110913
11 *347:89 *2380:B1 0.000181125
12 *579:27 *637:10 0.000358425
*RES
1 *2362:Y *637:10 43.51 
2 *637:10 *2380:B1 43.5721 
*END

*D_NET *638 0.00313503
*CONN
*I *2373:C1 I *D sky130_fd_sc_hd__o311a_1
*I *2364:B1 I *D sky130_fd_sc_hd__o31ai_1
*I *2363:X O *D sky130_fd_sc_hd__or2_1
*CAP
1 *2373:C1 2.12412e-05
2 *2364:B1 0.000260202
3 *2363:X 0.000569697
4 *638:14 0.000314317
5 *638:10 0.000602571
6 *638:10 *742:40 5.00353e-05
7 *638:10 *742:57 0.000223692
8 *1999:B *638:10 1.73387e-05
9 *2001:B *2364:B1 9.5877e-05
10 *2003:A *2364:B1 4.05745e-05
11 *2003:A *2373:C1 1.09903e-05
12 *2003:A *638:14 2.93845e-05
13 *2364:A3 *2364:B1 1.89135e-05
14 *112:49 *638:10 0.000181131
15 *112:65 *2364:B1 0.000222953
16 *347:39 *2364:B1 0.000135037
17 *347:39 *638:14 8.43466e-05
18 *350:10 *638:10 1.94693e-05
19 *352:6 *2364:B1 0.000105862
20 *352:8 *2373:C1 5.12055e-06
21 *353:8 *638:10 0.000107212
22 *359:16 *638:10 4.96675e-06
23 *627:6 *638:14 1.40958e-05
*RES
1 *2363:X *638:10 46.3686 
2 *638:10 *638:14 16.0979 
3 *638:14 *2364:B1 28.8829 
4 *638:14 *2373:C1 23.4971 
*END

*D_NET *639 0.00454441
*CONN
*I *2365:B1 I *D sky130_fd_sc_hd__a31o_1
*I *2364:Y O *D sky130_fd_sc_hd__o31ai_1
*CAP
1 *2365:B1 0
2 *2364:Y 0.00137384
3 *639:24 0.000224862
4 *639:12 0.0015987
5 *639:24 *2365:A2 5.09961e-05
6 *639:24 *642:8 0.000130718
7 *639:24 *742:22 6.36349e-05
8 *639:24 *742:90 2.8682e-05
9 *1:15 *639:12 0
10 *110:55 *639:12 4.85776e-05
11 *112:90 *639:12 4.66032e-05
12 *315:50 *639:12 4.06166e-05
13 *351:10 *639:24 2.26497e-05
14 *351:14 *639:24 0.000310097
15 *351:32 *639:12 0.000506859
16 *632:26 *639:24 9.75795e-05
17 *633:22 *639:12 0
*RES
1 *2364:Y *639:12 49.7345 
2 *639:12 *639:24 28.4789 
3 *639:24 *2365:B1 23 
*END

*D_NET *640 0.00156366
*CONN
*I *2378:C I *D sky130_fd_sc_hd__or4b_1
*I *2367:B1 I *D sky130_fd_sc_hd__a2111oi_1
*I *2365:X O *D sky130_fd_sc_hd__a31o_1
*CAP
1 *2378:C 0
2 *2367:B1 0.000141252
3 *2365:X 9.6626e-05
4 *640:25 0.000265831
5 *640:10 0.000407083
6 *640:8 9.6626e-05
7 *2367:B1 *2380:C1 1.59094e-05
8 *2367:B1 *643:12 2.64616e-05
9 *640:8 *641:25 9.03784e-05
10 *640:25 *2380:C1 1.94812e-05
11 *640:25 *651:10 8.62783e-05
12 *2367:A1 *640:8 6.15728e-05
13 *2380:B1 *640:25 2.4807e-05
14 *2380:B2 *640:25 1.12478e-05
15 *112:35 *640:25 3.79753e-05
16 *114:14 *640:8 7.31082e-05
17 *114:14 *640:25 2.49733e-05
18 *632:10 *640:25 8.4047e-05
*RES
1 *2365:X *640:8 40.9621 
2 *640:8 *640:10 15 
3 *640:10 *2367:B1 24.5743 
4 *640:10 *640:25 34.4329 
5 *640:25 *2378:C 23 
*END

*D_NET *641 0.00340769
*CONN
*I *2377:B I *D sky130_fd_sc_hd__nand2_2
*I *2380:C1 I *D sky130_fd_sc_hd__a221o_1
*I *2367:A2 I *D sky130_fd_sc_hd__a2111oi_1
*I *2370:B1 I *D sky130_fd_sc_hd__a211o_1
*I *2366:Y O *D sky130_fd_sc_hd__nor2_1
*CAP
1 *2377:B 0
2 *2380:C1 7.29261e-05
3 *2367:A2 0
4 *2370:B1 0.00012634
5 *2366:Y 0.000183584
6 *641:43 0.000165533
7 *641:25 0.00027757
8 *641:10 0.000702853
9 *641:6 0.000720986
10 *641:10 *739:14 9.84851e-05
11 *641:25 *643:12 0.000187057
12 *641:25 *739:14 3.70187e-05
13 *641:25 *742:90 1.99391e-05
14 *641:25 *742:103 2.70469e-05
15 *641:43 *743:129 6.07611e-06
16 *2280:C *641:6 9.84851e-05
17 *2280:C *641:43 3.47781e-05
18 *2366:B *641:6 5.50106e-05
19 *2367:A1 *641:25 1.14452e-05
20 *2367:B1 *2380:C1 1.59094e-05
21 *2378:A *641:43 7.7086e-05
22 *114:14 *641:25 0
23 *636:35 *2370:B1 4.03086e-05
24 *636:35 *641:6 0.000189108
25 *636:35 *641:10 0.000150283
26 *640:8 *641:25 9.03784e-05
27 *640:25 *2380:C1 1.94812e-05
*RES
1 *2366:Y *641:6 27.4329 
2 *641:6 *641:10 5.40643 
3 *641:10 *2370:B1 24.9471 
4 *641:10 *641:25 34.0186 
5 *641:25 *2367:A2 23 
6 *641:25 *2380:C1 24.0979 
7 *641:6 *641:43 32.2579 
8 *641:43 *2377:B 23 
*END

*D_NET *642 0.00135097
*CONN
*I *2368:B I *D sky130_fd_sc_hd__xnor2_1
*I *2367:Y O *D sky130_fd_sc_hd__a2111oi_1
*CAP
1 *2368:B 0
2 *2367:Y 0.000442441
3 *642:8 0.000442441
4 *642:8 *705:27 0
5 *642:8 *742:18 6.01895e-05
6 *642:8 *742:90 5.22591e-05
7 *114:14 *642:8 0
8 *289:8 *642:8 0
9 *351:10 *642:8 0.000222926
10 *639:24 *642:8 0.000130718
*RES
1 *2367:Y *642:8 45.8921 
2 *642:8 *2368:B 38 
*END

*D_NET *643 0.00125316
*CONN
*I *2370:C1 I *D sky130_fd_sc_hd__a211o_1
*I *2369:Y O *D sky130_fd_sc_hd__nand2_1
*CAP
1 *2370:C1 0
2 *2369:Y 0.000283949
3 *643:12 0.000283949
4 *643:12 *742:90 0.000187057
5 *643:12 *742:103 1.14452e-05
6 *2367:B1 *643:12 2.64616e-05
7 *2367:D1 *643:12 9.47227e-05
8 *2380:B1 *643:12 0
9 *632:26 *643:12 0.000178517
10 *641:25 *643:12 0.000187057
*RES
1 *2369:Y *643:12 44.5871 
2 *643:12 *2370:C1 38 
*END

*D_NET *644 0.00174476
*CONN
*I *2371:C1 I *D sky130_fd_sc_hd__a311oi_1
*I *2370:X O *D sky130_fd_sc_hd__a211o_1
*CAP
1 *2371:C1 6.28647e-05
2 *2370:X 0.000463375
3 *644:10 0.00052624
4 *2371:C1 *645:12 1.32314e-05
5 *788:DIODE *644:10 9.58714e-05
6 *2381:A2 *2371:C1 2.81041e-05
7 *112:49 *644:10 9.28078e-06
8 *347:39 *644:10 8.08139e-06
9 *348:21 *644:10 0.000154391
10 *351:16 *644:10 3.17634e-05
11 *351:32 *644:10 1.59094e-05
12 *358:18 *2371:C1 5.50049e-05
13 *359:16 *644:10 0
14 *359:38 *2371:C1 7.13587e-05
15 *633:8 *2371:C1 0.000184527
16 *636:35 *644:10 2.4754e-05
*RES
1 *2370:X *644:10 44.2143 
2 *644:10 *2371:C1 40.5271 
*END

*D_NET *645 0.0021199
*CONN
*I *2372:C I *D sky130_fd_sc_hd__and3_1
*I *2371:Y O *D sky130_fd_sc_hd__a311oi_1
*CAP
1 *2372:C 0
2 *2371:Y 0.000628852
3 *645:12 0.000628852
4 *645:12 *652:10 0.000103943
5 *645:12 *742:32 4.2573e-05
6 *645:12 *742:36 0.000221992
7 *2361:A *645:12 7.52978e-05
8 *2361:B *645:12 5.50049e-05
9 *2371:C1 *645:12 1.32314e-05
10 *2381:A2 *645:12 0.000121807
11 *358:18 *645:12 0
12 *629:25 *645:12 0.000122002
13 *633:8 *645:12 2.95972e-05
14 *633:22 *645:12 7.67478e-05
*RES
1 *2371:Y *645:12 34.1546 
2 *645:12 *2372:C 23 
*END

*D_NET *646 0.0021726
*CONN
*I *2383:B1 I *D sky130_fd_sc_hd__a211o_1
*I *2375:A I *D sky130_fd_sc_hd__or2_1
*I *2372:X O *D sky130_fd_sc_hd__and3_1
*CAP
1 *2383:B1 1.28917e-05
2 *2375:A 0.000165439
3 *2372:X 0.000344833
4 *646:16 0.000291659
5 *646:12 0.000458161
6 *2375:A *2383:A1 2.61645e-05
7 *2375:A *2383:C1 0.00012101
8 *2383:B1 *2383:A1 5.90675e-06
9 *2383:B1 *2383:C1 3.91386e-05
10 *646:12 *741:26 0.000413038
11 *646:16 *2383:A1 5.41288e-05
12 *2381:B1 *646:12 1.11037e-05
13 *2383:A2 *646:16 1.41077e-05
14 *2441:A2 *646:12 0
15 *110:43 *646:12 0
16 *110:55 *646:12 0
17 *112:90 *646:12 4.49122e-05
18 *628:14 *646:12 5.25022e-05
19 *629:25 *646:12 9.64943e-05
20 *633:22 *646:12 2.11066e-05
*RES
1 *2372:X *646:12 45.3743 
2 *646:12 *646:16 17.0507 
3 *646:16 *2375:A 26.3971 
4 *646:16 *2383:B1 23.4971 
*END

*D_NET *647 0.00112589
*CONN
*I *2374:B1 I *D sky130_fd_sc_hd__o21ai_1
*I *2373:X O *D sky130_fd_sc_hd__o311a_1
*CAP
1 *2374:B1 0
2 *2373:X 0.000247826
3 *647:10 0.000247826
4 *647:10 *652:10 0.000159619
5 *647:10 *741:26 0.000150672
6 *2361:A *647:10 4.49336e-05
7 *2364:A3 *647:10 5.50106e-05
8 *112:55 *647:10 9.28078e-06
9 *348:40 *647:10 2.50825e-05
10 *629:35 *647:10 0.000185635
*RES
1 *2373:X *647:10 43.6964 
2 *647:10 *2374:B1 38 
*END

*D_NET *648 0.000830142
*CONN
*I *2375:B I *D sky130_fd_sc_hd__or2_1
*I *2374:Y O *D sky130_fd_sc_hd__o21ai_1
*CAP
1 *2375:B 0
2 *2374:Y 0.000226776
3 *648:10 0.000226776
4 *648:10 *2382:B1 8.48502e-06
5 *648:10 *653:10 0.000136486
6 *2376:S *648:10 0
7 *348:40 *648:10 5.50106e-05
8 *635:10 *648:10 0.000176607
*RES
1 *2374:Y *648:10 42.3086 
2 *648:10 *2375:B 38 
*END

*D_NET *649 0.000396463
*CONN
*I *2376:A0 I *D sky130_fd_sc_hd__mux2_1
*I *2375:X O *D sky130_fd_sc_hd__or2_1
*CAP
1 *2376:A0 0.000124844
2 *2375:X 0.000124844
3 *2376:A0 *2383:A1 0.00010018
4 *635:25 *2376:A0 4.6595e-05
*RES
1 *2375:X *2376:A0 49.0036 
*END

*D_NET *650 0.0127446
*CONN
*I *2432:S I *D sky130_fd_sc_hd__mux2_1
*I *2425:S I *D sky130_fd_sc_hd__mux2_1
*I *2386:S I *D sky130_fd_sc_hd__mux2_1
*I *2573:A I *D sky130_fd_sc_hd__buf_2
*I *2377:Y O *D sky130_fd_sc_hd__nand2_2
*CAP
1 *2432:S 0.000192788
2 *2425:S 0.000276892
3 *2386:S 0
4 *2573:A 0.000189658
5 *2377:Y 9.53207e-06
6 *650:37 0.00054421
7 *650:31 0.0012826
8 *650:29 0.00285774
9 *650:6 0.00240264
10 *2432:S *695:14 0
11 *2432:S *701:193 4.71358e-05
12 *2573:A *2279:B 0.000414338
13 *2573:A *739:23 9.24795e-06
14 *2573:A *743:129 1.21972e-05
15 *650:6 *739:23 5.67058e-05
16 *650:29 *2279:B 3.03448e-05
17 *650:29 *690:10 8.11914e-06
18 *650:29 *739:23 0.000824314
19 *650:31 *2484:SET_B 0
20 *650:31 *2537:SET_B 0.000404066
21 *650:31 *695:14 0
22 *650:31 *701:193 0.000151036
23 *650:37 *2534:SET_B 9.49056e-05
24 *650:37 *707:27 0.00021622
25 *2213:A2 *2432:S 0
26 *2377:A *2573:A 3.83555e-05
27 *2425:A1 *2425:S 0.000402806
28 *1:15 *650:29 0.00081996
29 *112:39 *2573:A 9.6103e-05
30 *114:14 *2573:A 5.50106e-05
31 *128:96 *650:29 0
32 *138:6 *650:37 0.000293723
33 *138:19 *650:37 5.50106e-05
34 *141:31 *650:31 4.92689e-05
35 *141:31 *650:37 0.00045195
36 *142:10 *650:31 0
37 *142:21 *2425:S 0.000256538
38 *144:22 *2432:S 0.000138708
39 *145:29 *2432:S 1.19796e-05
40 *513:8 *650:31 2.1199e-05
41 *513:8 *650:37 1.19692e-05
42 *578:10 *650:29 1.73399e-05
43 *624:12 *650:37 0
*RES
1 *2377:Y *650:6 23.6214 
2 *650:6 *2573:A 29.1314 
3 *650:6 *650:29 45.7349 
4 *650:29 *650:31 10.5332 
5 *650:31 *650:37 29.1064 
6 *650:37 *2386:S 23 
7 *650:31 *2425:S 45.2914 
8 *650:29 *2432:S 42.1946 
*END

*D_NET *651 0.00210143
*CONN
*I *2379:A0 I *D sky130_fd_sc_hd__mux2_1
*I *2378:X O *D sky130_fd_sc_hd__or4b_1
*CAP
1 *2379:A0 0
2 *2378:X 0.000499374
3 *651:10 0.000499374
4 *651:10 *2506:RESET_B 0
5 *651:10 *705:52 0.000137788
6 *651:10 *714:10 0.000183643
7 *651:10 *751:28 8.62073e-06
8 *112:27 *651:10 0.000198311
9 *112:35 *651:10 0.000219882
10 *114:14 *651:10 6.0099e-05
11 *347:79 *651:10 2.11887e-05
12 *579:12 *651:10 0.000138444
13 *632:10 *651:10 4.84303e-05
14 *640:25 *651:10 8.62783e-05
*RES
1 *2378:X *651:10 49.2271 
2 *651:10 *2379:A0 38 
*END

*D_NET *652 0.00109513
*CONN
*I *2382:B1 I *D sky130_fd_sc_hd__a31o_1
*I *2381:Y O *D sky130_fd_sc_hd__o22ai_1
*CAP
1 *2382:B1 7.9879e-05
2 *2381:Y 0.000133161
3 *652:10 0.00021304
4 *2374:A1 *2382:B1 7.15126e-05
5 *2381:A2 *652:10 7.53384e-06
6 *2381:B2 *652:10 5.3304e-05
7 *348:40 *2382:B1 7.88926e-05
8 *348:40 *652:10 0.000157378
9 *629:25 *652:10 2.221e-05
10 *635:10 *2382:B1 6.17437e-06
11 *645:12 *652:10 0.000103943
12 *647:10 *652:10 0.000159619
13 *648:10 *2382:B1 8.48502e-06
*RES
1 *2381:Y *652:10 41.4696 
2 *652:10 *2382:B1 40.0507 
*END

*D_NET *653 0.00126871
*CONN
*I *2383:C1 I *D sky130_fd_sc_hd__a211o_1
*I *2382:X O *D sky130_fd_sc_hd__a31o_1
*CAP
1 *2383:C1 4.91775e-05
2 *2382:X 0.000275843
3 *653:10 0.00032502
4 *2383:C1 *2383:A1 4.9662e-05
5 *2375:A *2383:C1 0.00012101
6 *2383:B1 *2383:C1 3.91386e-05
7 *348:40 *653:10 0.000272377
8 *648:10 *653:10 0.000136486
*RES
1 *2382:X *653:10 42.9093 
2 *653:10 *2383:C1 39.595 
*END

*D_NET *654 0.00468994
*CONN
*I *2386:A0 I *D sky130_fd_sc_hd__mux2_1
*I *2385:X O *D sky130_fd_sc_hd__and2_1
*CAP
1 *2386:A0 0
2 *2385:X 0.000832701
3 *654:20 0.000976366
4 *654:12 0.00180907
5 *654:12 *2388:A 0.000176355
6 *654:12 *2390:C_N 1.39317e-05
7 *654:12 *655:14 2.81406e-06
8 *654:12 *656:6 9.58714e-05
9 *654:12 *658:8 0.000356005
10 *654:20 *2532:CLK 2.93747e-05
11 *654:20 *658:8 0.000368078
12 *654:20 *753:30 0
13 *2532:D *654:20 2.93747e-05
14 *295:8 *654:20 0
*RES
1 *2385:X *654:12 37.1479 
2 *654:12 *654:20 44.21 
3 *654:20 *2386:A0 23 
*END

*D_NET *655 0.00174487
*CONN
*I *2388:A I *D sky130_fd_sc_hd__inv_2
*I *2390:B I *D sky130_fd_sc_hd__or3b_1
*I *2387:X O *D sky130_fd_sc_hd__and4_1
*CAP
1 *2388:A 0.000121517
2 *2390:B 0
3 *2387:X 0.00034524
4 *655:14 0.000166521
5 *655:10 0.000390245
6 *2388:A *2390:C_N 6.68617e-05
7 *2388:A *658:8 0.00010018
8 *2388:A *739:69 0.000112463
9 *655:10 *661:12 4.66047e-05
10 *655:10 *661:16 9.84794e-05
11 *655:14 *2390:C_N 1.24376e-05
12 *2389:B1 *655:10 0
13 *123:39 *655:10 0.000105154
14 *129:43 *655:10 0
15 *654:12 *2388:A 0.000176355
16 *654:12 *655:14 2.81406e-06
*RES
1 *2387:X *655:10 43.0129 
2 *655:10 *655:14 15.6214 
3 *655:14 *2390:B 23 
4 *655:14 *2388:A 27.6814 
*END

*D_NET *656 0.00117338
*CONN
*I *2398:B1 I *D sky130_fd_sc_hd__a21oi_1
*I *2399:A I *D sky130_fd_sc_hd__and3_1
*I *2388:Y O *D sky130_fd_sc_hd__inv_2
*CAP
1 *2398:B1 0
2 *2399:A 0
3 *2388:Y 3.37451e-05
4 *656:14 0.000180689
5 *656:6 0.000214434
6 *656:6 *658:8 5.25848e-05
7 *656:14 *2396:A 6.17437e-06
8 *656:14 *2399:C 9.41704e-05
9 *656:14 *2400:A2 9.17998e-05
10 *656:14 *664:6 0.000135037
11 *656:14 *665:10 0.000133316
12 *656:14 *733:73 0.000135557
13 *654:12 *656:6 9.58714e-05
*RES
1 *2388:Y *656:6 24.0979 
2 *656:6 *656:14 34.4329 
3 *656:14 *2399:A 23 
4 *656:6 *2398:B1 23 
*END

*D_NET *657 0.000528308
*CONN
*I *2390:C_N I *D sky130_fd_sc_hd__or3b_1
*I *2389:X O *D sky130_fd_sc_hd__a22o_1
*CAP
1 *2390:C_N 0.000169528
2 *2389:X 0.000169528
3 *2385:A *2390:C_N 5.67058e-05
4 *2385:B *2390:C_N 2.16583e-05
5 *2388:A *2390:C_N 6.68617e-05
6 *129:39 *2390:C_N 1.76557e-05
7 *654:12 *2390:C_N 1.39317e-05
8 *655:14 *2390:C_N 1.24376e-05
*RES
1 *2389:X *2390:C_N 49.8529 
*END

*D_NET *658 0.00368335
*CONN
*I *2391:B1_N I *D sky130_fd_sc_hd__a21bo_1
*I *2390:X O *D sky130_fd_sc_hd__or3b_1
*CAP
1 *2391:B1_N 0
2 *2390:X 0.000865818
3 *658:14 0.000254395
4 *658:8 0.00112021
5 *658:8 *2532:CLK 5.50049e-05
6 *658:8 *665:10 5.50049e-05
7 *658:8 *739:69 0.000399364
8 *658:14 *753:32 0
9 *658:14 *753:36 0
10 *2388:A *658:8 0.00010018
11 *2532:D *658:8 5.67058e-05
12 *624:12 *658:14 0
13 *654:12 *658:8 0.000356005
14 *654:20 *658:8 0.000368078
15 *656:6 *658:8 5.25848e-05
*RES
1 *2390:X *658:8 45.0814 
2 *658:8 *658:14 34.7229 
3 *658:14 *2391:B1_N 23 
*END

*D_NET *659 0.00188278
*CONN
*I *2400:B1 I *D sky130_fd_sc_hd__o31ai_1
*I *2392:Y O *D sky130_fd_sc_hd__nand2_1
*CAP
1 *2400:B1 0
2 *2392:Y 0.000729319
3 *659:10 0.000729319
4 *659:10 *706:29 7.55491e-05
5 *659:10 *706:39 6.07611e-06
6 *659:10 *739:87 3.70553e-06
7 *659:10 *739:91 0.000283808
8 *659:10 *739:101 5.50049e-05
9 *626:10 *659:10 0
*RES
1 *2392:Y *659:10 49.455 
2 *659:10 *2400:B1 38 
*END

*D_NET *660 0.00119765
*CONN
*I *2396:A I *D sky130_fd_sc_hd__or3_1
*I *2409:A1 I *D sky130_fd_sc_hd__o21ba_1
*I *2397:B1 I *D sky130_fd_sc_hd__o21ai_1
*I *2393:X O *D sky130_fd_sc_hd__and2_1
*CAP
1 *2396:A 0.000107252
2 *2409:A1 2.14194e-05
3 *2397:B1 2.1093e-05
4 *2393:X 9.159e-05
5 *660:12 8.18757e-05
6 *660:10 0.000146615
7 *660:8 9.159e-05
8 *2396:A *2396:C 0.000137651
9 *2396:A *661:35 0.000138758
10 *2396:A *662:25 5.12254e-05
11 *2396:A *664:6 8.48502e-06
12 *2397:B1 *661:16 2.93747e-05
13 *2397:B1 *662:25 2.93747e-05
14 *2409:A1 *2409:A2 5.90675e-06
15 *2409:A1 *661:16 0
16 *660:8 *662:25 3.0647e-05
17 *660:8 *675:8 0
18 *660:12 *661:16 4.79641e-05
19 *660:12 *661:35 3.22879e-05
20 *660:12 *662:25 7.59794e-05
21 *123:39 *660:8 4.23817e-05
22 *656:14 *2396:A 6.17437e-06
*RES
1 *2393:X *660:8 39.9057 
2 *660:8 *660:10 15 
3 *660:10 *660:12 1.57429 
4 *660:12 *2397:B1 23.6214 
5 *660:12 *2409:A1 23.4971 
6 *660:10 *2396:A 26.0036 
*END

*D_NET *661 0.00215158
*CONN
*I *2397:A1 I *D sky130_fd_sc_hd__o21ai_1
*I *2396:B I *D sky130_fd_sc_hd__or3_1
*I *2409:A2 I *D sky130_fd_sc_hd__o21ba_1
*I *2394:X O *D sky130_fd_sc_hd__and4_1
*CAP
1 *2397:A1 0
2 *2396:B 0
3 *2409:A2 1.31028e-05
4 *2394:X 7.51766e-05
5 *661:35 0.000168233
6 *661:16 0.000284044
7 *661:12 0.000183822
8 *661:8 0.00015629
9 *661:16 *662:25 2.65879e-05
10 *661:16 *664:6 0.000141052
11 *661:35 *2396:C 5.50049e-05
12 *661:35 *662:25 6.16531e-05
13 *661:35 *664:6 0.000173898
14 *661:35 *733:73 3.27534e-05
15 *661:35 *733:83 3.35885e-06
16 *2387:D *661:12 7.53384e-06
17 *2396:A *661:35 0.000138758
18 *2397:B1 *661:16 2.93747e-05
19 *2409:A1 *2409:A2 5.90675e-06
20 *2409:A1 *661:16 0
21 *123:39 *661:35 0
22 *125:71 *661:8 0.000110922
23 *125:71 *661:12 2.93845e-05
24 *126:40 *661:8 8.62876e-05
25 *126:42 *661:8 8.72173e-05
26 *126:74 *661:12 2.98648e-05
27 *129:43 *661:8 2.60152e-05
28 *655:10 *661:12 4.66047e-05
29 *655:10 *661:16 9.84794e-05
30 *660:12 *661:16 4.79641e-05
31 *660:12 *661:35 3.22879e-05
*RES
1 *2394:X *661:8 40.2579 
2 *661:8 *661:12 17.0507 
3 *661:12 *661:16 3.50071 
4 *661:16 *2409:A2 23.4971 
5 *661:16 *661:35 34.8471 
6 *661:35 *2396:B 23 
7 *661:12 *2397:A1 23 
*END

*D_NET *662 0.0019066
*CONN
*I *2396:C I *D sky130_fd_sc_hd__or3_1
*I *2409:B1_N I *D sky130_fd_sc_hd__o21ba_1
*I *2397:A2 I *D sky130_fd_sc_hd__o21ai_1
*I *2395:Y O *D sky130_fd_sc_hd__a22oi_1
*CAP
1 *2396:C 4.38478e-05
2 *2409:B1_N 0
3 *2397:A2 0
4 *2395:Y 0.000226267
5 *662:25 0.00037414
6 *662:12 0.000330292
7 *662:10 0.000226267
8 *2396:C *664:6 4.6595e-05
9 *662:25 *675:8 4.6318e-06
10 *662:25 *733:83 0
11 *2393:A *662:10 2.02872e-05
12 *2395:A2 *662:10 9.67842e-05
13 *2395:B1 *662:10 8.06804e-06
14 *2396:A *2396:C 0.000137651
15 *2396:A *662:25 5.12254e-05
16 *2397:B1 *662:25 2.93747e-05
17 *123:39 *662:10 2.29192e-05
18 *123:39 *662:25 0
19 *126:74 *662:10 3.83778e-05
20 *660:8 *662:25 3.0647e-05
21 *660:12 *662:25 7.59794e-05
22 *661:16 *662:25 2.65879e-05
23 *661:35 *2396:C 5.50049e-05
24 *661:35 *662:25 6.16531e-05
*RES
1 *2395:Y *662:10 41.2521 
2 *662:10 *662:12 15 
3 *662:12 *2397:A2 23 
4 *662:12 *662:25 35.1579 
5 *662:25 *2409:B1_N 23 
6 *662:25 *2396:C 24.5743 
*END

*D_NET *663 0.0010894
*CONN
*I *2399:B I *D sky130_fd_sc_hd__and3_1
*I *2398:A1 I *D sky130_fd_sc_hd__a21oi_1
*I *2396:X O *D sky130_fd_sc_hd__or3_1
*CAP
1 *2399:B 0.00015589
2 *2398:A1 0
3 *2396:X 0
4 *663:12 0.000142782
5 *663:4 0.000298672
6 *2399:B *2400:A2 8.71791e-05
7 *663:12 *2400:A2 2.93845e-05
8 *663:12 *2410:A 6.48142e-05
9 *663:12 *664:12 8.62783e-05
10 *663:12 *665:10 0.000161121
11 *663:12 *740:10 6.32792e-05
*RES
1 *2396:X *663:4 23 
2 *663:4 *663:12 33.5836 
3 *663:12 *2398:A1 23 
4 *663:4 *2399:B 25.0507 
*END

*D_NET *664 0.00218312
*CONN
*I *2399:C I *D sky130_fd_sc_hd__and3_1
*I *2398:A2 I *D sky130_fd_sc_hd__a21oi_1
*I *2397:Y O *D sky130_fd_sc_hd__o21ai_1
*CAP
1 *2399:C 0.000158458
2 *2398:A2 0
3 *2397:Y 0.00042975
4 *664:12 6.08194e-05
5 *664:6 0.000649028
6 *2399:C *2400:A1 9.70259e-06
7 *2399:C *2400:A2 2.61526e-05
8 *664:12 *665:10 2.49733e-05
9 *664:12 *740:10 0.000138718
10 *2396:A *664:6 8.48502e-06
11 *2396:C *664:6 4.6595e-05
12 *656:14 *2399:C 9.41704e-05
13 *656:14 *664:6 0.000135037
14 *661:16 *664:6 0.000141052
15 *661:35 *664:6 0.000173898
16 *663:12 *664:12 8.62783e-05
*RES
1 *2397:Y *664:6 29.3386 
2 *664:6 *664:12 31.9057 
3 *664:12 *2398:A2 23 
4 *664:6 *2399:C 25.1336 
*END

*D_NET *665 0.00224905
*CONN
*I *2410:A I *D sky130_fd_sc_hd__xor2_1
*I *2400:A2 I *D sky130_fd_sc_hd__o31ai_1
*I *2398:Y O *D sky130_fd_sc_hd__a21oi_1
*CAP
1 *2410:A 7.18872e-05
2 *2400:A2 0.000204063
3 *2398:Y 0.000181239
4 *665:10 0.000457188
5 *2400:A2 *2400:A1 0.000139352
6 *2400:A2 *2400:A3 0.000121918
7 *2410:A *733:73 9.92529e-07
8 *2410:A *733:83 0.000209806
9 *2410:A *740:10 5.44006e-05
10 *665:10 *733:73 6.32688e-05
11 *665:10 *739:69 5.67058e-05
12 *665:10 *740:10 1.44813e-05
13 *2399:B *2400:A2 8.71791e-05
14 *2399:C *2400:A2 2.61526e-05
15 *656:14 *2400:A2 9.17998e-05
16 *656:14 *665:10 0.000133316
17 *658:8 *665:10 5.50049e-05
18 *663:12 *2400:A2 2.93845e-05
19 *663:12 *2410:A 6.48142e-05
20 *663:12 *665:10 0.000161121
21 *664:12 *665:10 2.49733e-05
*RES
1 *2398:Y *665:10 42.2879 
2 *665:10 *2400:A2 43.1475 
3 *665:10 *2410:A 40.9621 
*END

*D_NET *666 0.000310431
*CONN
*I *2400:A3 I *D sky130_fd_sc_hd__o31ai_1
*I *2399:X O *D sky130_fd_sc_hd__and3_1
*CAP
1 *2400:A3 9.42565e-05
2 *2399:X 9.42565e-05
3 *2400:A2 *2400:A3 0.000121918
*RES
1 *2399:X *2400:A3 48.0507 
*END

*D_NET *667 0.000584189
*CONN
*I *2405:A I *D sky130_fd_sc_hd__xnor2_1
*I *2401:Y O *D sky130_fd_sc_hd__nand2_1
*CAP
1 *2405:A 9.54083e-05
2 *2401:Y 9.54083e-05
3 *2405:A *671:10 2.98648e-05
4 *123:35 *2405:A 4.79612e-05
5 *128:38 *2405:A 0.000308012
6 *128:51 *2405:A 7.53384e-06
*RES
1 *2401:Y *2405:A 49.5007 
*END

*D_NET *668 0.00110904
*CONN
*I *2419:B1 I *D sky130_fd_sc_hd__a31o_1
*I *2404:A_N I *D sky130_fd_sc_hd__and2b_1
*I *2402:X O *D sky130_fd_sc_hd__and4_1
*CAP
1 *2419:B1 0.000108807
2 *2404:A_N 0.000188177
3 *2402:X 6.94194e-05
4 *668:8 0.000366403
5 *2404:A_N *669:12 0.000116413
6 *2419:B1 *669:12 4.96264e-05
7 *2419:B1 *682:10 0
8 *123:35 *668:8 9.84794e-05
9 *126:29 *2404:A_N 5.67058e-05
10 *128:51 *2419:B1 0
11 *131:31 *2404:A_N 0
12 *131:41 *2404:A_N 5.50049e-05
*RES
1 *2402:X *668:8 39.0979 
2 *668:8 *2404:A_N 41.9357 
3 *668:8 *2419:B1 39.9057 
*END

*D_NET *669 0.00158326
*CONN
*I *2419:A3 I *D sky130_fd_sc_hd__a31o_1
*I *2404:B I *D sky130_fd_sc_hd__and2b_1
*I *2403:X O *D sky130_fd_sc_hd__a22o_1
*CAP
1 *2419:A3 3.87857e-05
2 *2404:B 0
3 *2403:X 5.70442e-05
4 *669:12 0.00040457
5 *669:6 0.0005004
6 *669:12 *670:8 7.8128e-05
7 *2404:A_N *669:12 0.000116413
8 *2419:A1 *2419:A3 0
9 *2419:A1 *669:6 7.73389e-05
10 *2419:B1 *669:12 4.96264e-05
11 *127:62 *2419:A3 2.93845e-05
12 *127:62 *669:6 6.17437e-06
13 *130:57 *2419:A3 4.2573e-05
14 *130:57 *669:6 0.000182826
15 *130:61 *669:12 0
16 *130:69 *669:12 0
*RES
1 *2403:X *669:6 25.0507 
2 *669:6 *669:12 35.7793 
3 *669:12 *2404:B 23 
4 *669:6 *2419:A3 24.1186 
*END

*D_NET *670 0.0003268
*CONN
*I *2405:B I *D sky130_fd_sc_hd__xnor2_1
*I *2404:X O *D sky130_fd_sc_hd__and2b_1
*CAP
1 *2405:B 0
2 *2404:X 0.000124336
3 *670:8 0.000124336
4 *130:61 *670:8 0
5 *130:63 *670:8 0
6 *130:69 *670:8 0
7 *669:12 *670:8 7.8128e-05
*RES
1 *2404:X *670:8 40.2579 
2 *670:8 *2405:B 38 
*END

*D_NET *671 0.00174879
*CONN
*I *2406:C I *D sky130_fd_sc_hd__and3_1
*I *2407:B1 I *D sky130_fd_sc_hd__a21o_1
*I *2405:Y O *D sky130_fd_sc_hd__xnor2_1
*CAP
1 *2406:C 9.37587e-05
2 *2407:B1 0
3 *2405:Y 0.000133489
4 *671:14 0.000140947
5 *671:10 0.000180678
6 *2406:C *2408:B 0.000161404
7 *2405:A *671:10 2.98648e-05
8 *2406:A *2406:C 0.000125496
9 *2406:A *671:14 2.64616e-05
10 *2406:B *2406:C 7.22308e-05
11 *2406:B *671:10 5.3304e-05
12 *2406:B *671:14 9.41704e-05
13 *2407:A1 *671:14 2.93747e-05
14 *123:35 *671:10 0.000305425
15 *128:51 *671:10 0.000181125
16 *130:119 *671:10 5.94125e-05
17 *131:52 *671:10 6.16439e-05
*RES
1 *2405:Y *671:10 42.3293 
2 *671:10 *671:14 16.0979 
3 *671:14 *2407:B1 23 
4 *671:14 *2406:C 26.1071 
*END

*D_NET *672 0.000834601
*CONN
*I *2408:A_N I *D sky130_fd_sc_hd__and2b_1
*I *2420:B1 I *D sky130_fd_sc_hd__a21oi_1
*I *2406:X O *D sky130_fd_sc_hd__and3_1
*CAP
1 *2408:A_N 8.09093e-05
2 *2420:B1 0
3 *2406:X 0
4 *672:14 0.000206177
5 *672:4 0.000287086
6 *2408:A_N *2408:B 0.000155273
7 *672:14 *2408:B 1.98932e-05
8 *672:14 *673:12 5.50049e-05
9 *672:14 *685:10 5.37348e-06
10 *672:14 *733:83 0
11 *2406:B *2408:A_N 2.02517e-05
12 *123:35 *672:14 4.6318e-06
*RES
1 *2406:X *672:4 23 
2 *672:4 *672:14 33.5007 
3 *672:14 *2420:B1 23 
4 *672:4 *2408:A_N 25.4236 
*END

*D_NET *673 0.00183848
*CONN
*I *2408:B I *D sky130_fd_sc_hd__and2b_1
*I *2420:A1 I *D sky130_fd_sc_hd__a21oi_1
*I *2407:X O *D sky130_fd_sc_hd__a21o_1
*CAP
1 *2408:B 0.000255767
2 *2420:A1 0
3 *2407:X 0
4 *673:12 0.000318754
5 *673:4 0.000574521
6 *673:12 *685:10 3.6485e-05
7 *673:12 *686:10 5.50106e-05
8 *2406:B *2408:B 0.000139357
9 *2406:C *2408:B 0.000161404
10 *2408:A_N *2408:B 0.000155273
11 *123:35 *673:12 2.71291e-05
12 *130:119 *673:12 3.98859e-05
13 *131:52 *673:12 0
14 *672:14 *2408:B 1.98932e-05
15 *672:14 *673:12 5.50049e-05
*RES
1 *2407:X *673:4 23 
2 *673:4 *673:12 35.8414 
3 *673:12 *2420:A1 23 
4 *673:4 *2408:B 30.0221 
*END

*D_NET *674 0.00110298
*CONN
*I *2411:A I *D sky130_fd_sc_hd__or2_1
*I *2412:A1 I *D sky130_fd_sc_hd__a21oi_1
*I *2408:X O *D sky130_fd_sc_hd__and2b_1
*CAP
1 *2411:A 0.000180307
2 *2412:A1 0
3 *2408:X 0.000257201
4 *674:6 0.000437508
5 *2411:A *2411:B 0.000139352
6 *2411:A *2413:B2 3.53115e-05
7 *674:6 *2411:B 5.3304e-05
*RES
1 *2408:X *674:6 26.0036 
2 *674:6 *2412:A1 23 
3 *674:6 *2411:A 26.0243 
*END

*D_NET *675 0.000408571
*CONN
*I *2410:B I *D sky130_fd_sc_hd__xor2_1
*I *2409:X O *D sky130_fd_sc_hd__o21ba_1
*CAP
1 *2410:B 7.70667e-05
2 *2409:X 8.97144e-05
3 *675:8 0.000166781
4 *675:8 *733:83 7.03766e-05
5 *123:39 *675:8 0
6 *660:8 *675:8 0
7 *662:25 *675:8 4.6318e-06
*RES
1 *2409:X *675:8 39.9057 
2 *675:8 *2410:B 39.0979 
*END

*D_NET *676 0.00259003
*CONN
*I *2420:A2 I *D sky130_fd_sc_hd__a21oi_1
*I *2412:A2 I *D sky130_fd_sc_hd__a21oi_1
*I *2411:B I *D sky130_fd_sc_hd__or2_1
*I *2410:X O *D sky130_fd_sc_hd__xor2_1
*CAP
1 *2420:A2 0.000427007
2 *2412:A2 0
3 *2411:B 9.3219e-05
4 *2410:X 0.000150276
5 *676:12 9.3219e-05
6 *676:10 0.000577283
7 *2411:B *2412:B1 9.5877e-05
8 *2411:B *2413:B2 2.4754e-05
9 *2420:A2 *739:51 0.000241616
10 *2420:A2 *739:53 1.14452e-05
11 *676:10 *739:53 0.000126343
12 *676:10 *739:55 9.26098e-05
13 *2411:A *2411:B 0.000139352
14 *625:12 *2420:A2 0.000241616
15 *625:12 *676:10 0.000222113
16 *674:6 *2411:B 5.3304e-05
*RES
1 *2410:X *676:10 41.5836 
2 *676:10 *676:12 15 
3 *676:12 *2411:B 25.5479 
4 *676:12 *2412:A2 23 
5 *676:10 *2420:A2 47.1764 
*END

*D_NET *677 0.000213151
*CONN
*I *2413:B1 I *D sky130_fd_sc_hd__a22o_1
*I *2411:X O *D sky130_fd_sc_hd__or2_1
*CAP
1 *2413:B1 9.04317e-05
2 *2411:X 9.04317e-05
3 *2413:B1 *2413:B2 3.22879e-05
*RES
1 *2411:X *2413:B1 47.5743 
*END

*D_NET *678 0.000444373
*CONN
*I *2413:B2 I *D sky130_fd_sc_hd__a22o_1
*I *2412:Y O *D sky130_fd_sc_hd__a21oi_1
*CAP
1 *2413:B2 0.000162533
2 *2412:Y 0.000162533
3 *2413:B2 *2412:B1 1.32314e-05
4 *2411:A *2413:B2 3.53115e-05
5 *2411:B *2413:B2 2.4754e-05
6 *2413:A1 *2413:B2 1.37232e-05
7 *2413:B1 *2413:B2 3.22879e-05
*RES
1 *2412:Y *2413:B2 49.9979 
*END

*D_NET *679 0.00149997
*CONN
*I *2429:A2 I *D sky130_fd_sc_hd__a22o_1
*I *2416:A2 I *D sky130_fd_sc_hd__a21bo_1
*I *2414:X O *D sky130_fd_sc_hd__and3_1
*CAP
1 *2429:A2 0.000328417
2 *2416:A2 2.90917e-05
3 *2414:X 7.50533e-05
4 *679:12 0.00040421
5 *679:8 0.000121755
6 *2343:A1 *2416:A2 0
7 *127:34 *2416:A2 1.16183e-05
8 *127:34 *2429:A2 1.76557e-05
9 *127:34 *679:12 2.20313e-05
10 *127:38 *2416:A2 3.91386e-05
11 *127:38 *2429:A2 0.000355822
12 *127:53 *2429:A2 5.67943e-05
13 *132:58 *679:8 0
14 *156:46 *679:8 3.83778e-05
*RES
1 *2414:X *679:8 39.2014 
2 *679:8 *679:12 15.6214 
3 *679:12 *2416:A2 23.8493 
4 *679:12 *2429:A2 28.7586 
*END

*D_NET *680 0.00165416
*CONN
*I *2429:B1 I *D sky130_fd_sc_hd__a22o_1
*I *2416:B1_N I *D sky130_fd_sc_hd__a21bo_1
*I *2415:X O *D sky130_fd_sc_hd__a22o_1
*CAP
1 *2429:B1 8.07839e-05
2 *2416:B1_N 0
3 *2415:X 0.000451101
4 *680:8 0.000531885
5 *2343:S *680:8 5.50106e-05
6 *2415:A2 *680:8 6.17437e-06
7 *127:34 *680:8 0.00035292
8 *127:38 *2429:B1 7.73389e-05
9 *127:38 *680:8 5.98028e-05
10 *127:53 *2429:B1 3.91386e-05
*RES
1 *2415:X *680:8 32.2179 
2 *680:8 *2416:B1_N 23 
3 *680:8 *2429:B1 25.0714 
*END

*D_NET *681 0.000496535
*CONN
*I *2418:A I *D sky130_fd_sc_hd__xnor2_1
*I *2416:X O *D sky130_fd_sc_hd__a21bo_1
*CAP
1 *2418:A 7.13119e-05
2 *2416:X 0.000127716
3 *681:8 0.000199028
4 *2418:A *2418:B 9.84794e-05
5 *2343:S *681:8 0
6 *132:58 *681:8 0
*RES
1 *2416:X *681:8 40.2579 
2 *681:8 *2418:A 39.5743 
*END

*D_NET *682 0.00306579
*CONN
*I *2418:B I *D sky130_fd_sc_hd__xnor2_1
*I *2429:B2 I *D sky130_fd_sc_hd__a22o_1
*I *2417:X O *D sky130_fd_sc_hd__and2_1
*CAP
1 *2418:B 0.000336208
2 *2429:B2 0
3 *2417:X 0.000619631
4 *682:10 0.000955839
5 *2418:B *683:14 0.000313249
6 *2418:B *693:8 0
7 *2402:D *682:10 3.35885e-06
8 *2403:A1 *682:10 4.52821e-05
9 *2418:A *2418:B 9.84794e-05
10 *2419:B1 *682:10 0
11 *123:35 *682:10 0.000392386
12 *127:53 *2418:B 0
13 *127:53 *682:10 0
14 *131:31 *682:10 0.000110922
15 *132:58 *2418:B 6.53609e-05
16 *132:58 *682:10 4.90994e-05
17 *132:62 *2418:B 7.59794e-05
*RES
1 *2417:X *682:10 47.1557 
2 *682:10 *2429:B2 38 
3 *682:10 *2418:B 45.8714 
*END

*D_NET *683 0.00387935
*CONN
*I *2422:A I *D sky130_fd_sc_hd__nand2_1
*I *2423:A I *D sky130_fd_sc_hd__or2_1
*I *2418:Y O *D sky130_fd_sc_hd__xnor2_1
*CAP
1 *2422:A 0
2 *2423:A 0.000378822
3 *2418:Y 0.000715753
4 *683:20 0.000549202
5 *683:14 0.000886133
6 *2423:A *2424:A 2.32004e-05
7 *2423:A *2424:B 4.95081e-05
8 *2423:A *686:29 0.000284665
9 *2423:A *687:14 1.32939e-05
10 *2423:A *689:10 0.000108663
11 *683:14 *687:14 4.9662e-05
12 *683:20 *686:10 6.07611e-06
13 *2418:B *683:14 0.000313249
14 *2427:A2 *683:14 9.24795e-06
15 *2427:B2 *683:14 6.74154e-05
16 *127:96 *683:14 3.52912e-05
17 *127:113 *683:14 0.000160875
18 *128:61 *683:14 0.000128391
19 *131:52 *683:20 0
20 *132:62 *683:14 9.9899e-05
*RES
1 *2418:Y *683:14 38.1214 
2 *683:14 *683:20 32.2579 
3 *683:20 *2423:A 31.5964 
4 *683:20 *2422:A 23 
*END

*D_NET *684 0.000737366
*CONN
*I *2421:A I *D sky130_fd_sc_hd__xnor2_1
*I *2419:X O *D sky130_fd_sc_hd__a31o_1
*CAP
1 *2421:A 0
2 *2419:X 0.000156433
3 *684:8 0.000156433
4 *684:8 *685:10 2.76769e-06
5 *127:62 *684:8 0.000226295
6 *130:57 *684:8 7.88828e-05
7 *130:119 *684:8 0.000116554
*RES
1 *2419:X *684:8 27.4536 
2 *684:8 *2421:A 23 
*END

*D_NET *685 0.000604464
*CONN
*I *2421:B I *D sky130_fd_sc_hd__xnor2_1
*I *2420:Y O *D sky130_fd_sc_hd__a21oi_1
*CAP
1 *2421:B 0
2 *2420:Y 0.000263044
3 *685:10 0.000263044
4 *685:10 *686:10 4.37586e-06
5 *130:119 *685:10 2.93747e-05
6 *672:14 *685:10 5.37348e-06
7 *673:12 *685:10 3.6485e-05
8 *684:8 *685:10 2.76769e-06
*RES
1 *2420:Y *685:10 27.4743 
2 *685:10 *2421:B 23 
*END

*D_NET *686 0.00168947
*CONN
*I *2423:B I *D sky130_fd_sc_hd__or2_1
*I *2422:B I *D sky130_fd_sc_hd__nand2_1
*I *2421:Y O *D sky130_fd_sc_hd__xnor2_1
*CAP
1 *2423:B 0
2 *2422:B 0
3 *2421:Y 0.000189745
4 *686:29 0.000231786
5 *686:12 0.000231786
6 *686:10 0.000189745
7 *686:29 *2424:A 0.000228909
8 *686:29 *2424:B 0.000181092
9 *686:29 *733:83 8.62783e-05
10 *2423:A *686:29 0.000284665
11 *131:52 *686:10 0
12 *673:12 *686:10 5.50106e-05
13 *683:20 *686:10 6.07611e-06
14 *685:10 *686:10 4.37586e-06
*RES
1 *2421:Y *686:10 41.0036 
2 *686:10 *686:12 15 
3 *686:12 *2422:B 23 
4 *686:12 *686:29 37.105 
5 *686:29 *2423:B 23 
*END

*D_NET *687 0.00229329
*CONN
*I *2424:A I *D sky130_fd_sc_hd__and2_1
*I *2430:A I *D sky130_fd_sc_hd__xnor2_1
*I *2422:Y O *D sky130_fd_sc_hd__nand2_1
*CAP
1 *2424:A 0.00014721
2 *2430:A 0
3 *2422:Y 0
4 *687:14 0.000717113
5 *687:4 0.000864323
6 *687:14 *693:8 0.000140958
7 *2423:A *2424:A 2.32004e-05
8 *2423:A *687:14 1.32939e-05
9 *128:51 *687:14 0
10 *128:61 *687:14 1.01436e-05
11 *132:58 *687:14 0
12 *132:62 *687:14 9.84794e-05
13 *683:14 *687:14 4.9662e-05
14 *686:29 *2424:A 0.000228909
*RES
1 *2422:Y *687:4 23 
2 *687:4 *687:14 40.6471 
3 *687:14 *2430:A 23 
4 *687:4 *2424:A 26.8529 
*END

*D_NET *688 0.000705707
*CONN
*I *2424:B I *D sky130_fd_sc_hd__and2_1
*I *2423:X O *D sky130_fd_sc_hd__or2_1
*CAP
1 *2424:B 0.000124856
2 *2423:X 0.000124856
3 *2424:B *689:10 0.000225393
4 *2423:A *2424:B 4.95081e-05
5 *686:29 *2424:B 0.000181092
*RES
1 *2423:X *2424:B 49.9771 
*END

*D_NET *689 0.00171523
*CONN
*I *2425:A0 I *D sky130_fd_sc_hd__mux2_1
*I *2424:X O *D sky130_fd_sc_hd__and2_1
*CAP
1 *2425:A0 0.000150937
2 *2424:X 0.000315504
3 *689:10 0.00046644
4 *689:10 *2536:CLK 0.000136738
5 *689:10 *706:29 0
6 *2423:A *689:10 0.000108663
7 *2424:B *689:10 0.000225393
8 *299:8 *689:10 0.000141879
9 *626:10 *689:10 0.000169674
*RES
1 *2424:X *689:10 45.6436 
2 *689:10 *2425:A0 40.5271 
*END

*D_NET *690 0.00133944
*CONN
*I *2428:A_N I *D sky130_fd_sc_hd__nand2b_1
*I *2435:B I *D sky130_fd_sc_hd__nor2_1
*I *2426:X O *D sky130_fd_sc_hd__and4_1
*CAP
1 *2428:A_N 3.6708e-05
2 *2435:B 0
3 *2426:X 0.000397544
4 *690:12 3.6708e-05
5 *690:10 0.000397544
6 *2428:A_N *739:32 5.3304e-05
7 *690:10 *691:36 4.13945e-05
8 *690:10 *694:8 0
9 *690:10 *697:10 0.000158722
10 *132:62 *690:10 9.84794e-05
11 *132:68 *690:10 0.000110922
12 *650:29 *690:10 8.11914e-06
*RES
1 *2426:X *690:10 44.1729 
2 *690:10 *690:12 15 
3 *690:12 *2435:B 23 
4 *690:12 *2428:A_N 23.6214 
*END

*D_NET *691 0.00179848
*CONN
*I *2428:B I *D sky130_fd_sc_hd__nand2b_1
*I *2433:B1 I *D sky130_fd_sc_hd__a22o_1
*I *2434:C I *D sky130_fd_sc_hd__nand4_1
*I *2427:X O *D sky130_fd_sc_hd__a22o_1
*CAP
1 *2428:B 0
2 *2433:B1 2.0995e-05
3 *2434:C 0.000133286
4 *2427:X 7.43516e-05
5 *691:36 0.000193145
6 *691:14 0.000238116
7 *691:12 0.000380532
8 *691:8 0.000177903
9 *691:12 *2431:B 4.75206e-05
10 *691:36 *692:10 0
11 *691:36 *696:10 4.30312e-05
12 *691:36 *697:10 0.000158722
13 *691:36 *739:32 1.28818e-05
14 *2433:A2 *2433:B1 1.14154e-05
15 *2433:A2 *2434:C 0.0001638
16 *2433:A2 *691:12 6.17437e-06
17 *2433:A2 *691:14 4.67488e-05
18 *127:113 *691:8 1.14452e-05
19 *132:68 *691:8 0
20 *132:68 *691:36 3.70187e-05
21 *579:27 *691:8 0
22 *690:10 *691:36 4.13945e-05
*RES
1 *2427:X *691:8 39.2014 
2 *691:8 *691:12 16.5743 
3 *691:12 *691:14 1.09786 
4 *691:14 *2434:C 25.0507 
5 *691:14 *2433:B1 23.4971 
6 *691:12 *691:36 34.1688 
7 *691:36 *2428:B 23 
*END

*D_NET *692 0.000585222
*CONN
*I *2431:A I *D sky130_fd_sc_hd__xnor2_1
*I *2428:Y O *D sky130_fd_sc_hd__nand2b_1
*CAP
1 *2431:A 0
2 *2428:Y 0.00020873
3 *692:10 0.00020873
4 *692:10 *696:10 4.48974e-05
5 *692:10 *739:32 2.98648e-05
6 *692:10 *739:36 6.17437e-06
7 *802:DIODE *692:10 0
8 *302:10 *692:10 8.68248e-05
9 *579:27 *692:10 0
10 *691:36 *692:10 0
*RES
1 *2428:Y *692:10 41.7079 
2 *692:10 *2431:A 38 
*END

*D_NET *693 0.000311271
*CONN
*I *2430:B I *D sky130_fd_sc_hd__xnor2_1
*I *2429:X O *D sky130_fd_sc_hd__a22o_1
*CAP
1 *2430:B 0
2 *2429:X 8.51565e-05
3 *693:8 8.51565e-05
4 *2418:B *693:8 0
5 *687:14 *693:8 0.000140958
*RES
1 *2429:X *693:8 39.9057 
2 *693:8 *2430:B 38 
*END

*D_NET *694 0.0013377
*CONN
*I *2431:B I *D sky130_fd_sc_hd__xnor2_1
*I *2433:B2 I *D sky130_fd_sc_hd__a22o_1
*I *2434:D I *D sky130_fd_sc_hd__nand4_1
*I *2430:Y O *D sky130_fd_sc_hd__xnor2_1
*CAP
1 *2431:B 0.000114884
2 *2433:B2 0
3 *2434:D 0
4 *2430:Y 0.000122502
5 *694:19 0.000122095
6 *694:12 2.52292e-05
7 *694:8 0.00014052
8 *2431:B *701:122 0.000355822
9 *694:12 *701:122 2.93845e-05
10 *694:19 *701:122 2.4754e-05
11 *2433:A2 *2431:B 0.000167987
12 *2433:A2 *694:12 5.50106e-05
13 *2433:A2 *694:19 4.34745e-05
14 *128:61 *694:8 8.85189e-05
15 *690:10 *694:8 0
16 *691:12 *2431:B 4.75206e-05
*RES
1 *2430:Y *694:8 39.9057 
2 *694:8 *694:12 15.6214 
3 *694:12 *2434:D 23 
4 *694:12 *694:19 0.621429 
5 *694:19 *2433:B2 23 
6 *694:19 *2431:B 27.4536 
*END

*D_NET *695 0.00426788
*CONN
*I *2432:A0 I *D sky130_fd_sc_hd__mux2_1
*I *2431:Y O *D sky130_fd_sc_hd__xnor2_1
*CAP
1 *2432:A0 0
2 *2431:Y 0.00119283
3 *695:14 0.000356181
4 *695:6 0.00154901
5 *695:6 *2334:A2_N 0.000141954
6 *695:6 *2567:A 0.000121267
7 *695:6 *701:122 0.000121861
8 *2334:A1_N *695:6 4.79641e-05
9 *2334:B2 *695:6 9.58714e-05
10 *2432:S *695:14 0
11 *2537:D *695:6 7.59964e-05
12 *145:16 *695:6 9.84851e-05
13 *145:16 *695:14 0
14 *145:23 *695:14 7.88926e-05
15 *300:8 *695:14 0.000350435
16 *338:10 *695:6 3.71369e-05
17 *650:31 *695:14 0
*RES
1 *2431:Y *695:6 40.7729 
2 *695:6 *695:14 37.3536 
3 *695:14 *2432:A0 23 
*END

*D_NET *696 0.000830748
*CONN
*I *2436:A1 I *D sky130_fd_sc_hd__a32o_1
*I *2433:X O *D sky130_fd_sc_hd__a22o_1
*CAP
1 *2436:A1 0
2 *2433:X 0.000263334
3 *696:10 0.000263334
4 *696:10 *697:10 0
5 *696:10 *698:12 4.4625e-05
6 *696:10 *698:25 6.0174e-05
7 *696:10 *701:122 5.67058e-05
8 *696:10 *739:141 4.36913e-05
9 *302:10 *696:10 1.09548e-05
10 *691:36 *696:10 4.30312e-05
11 *692:10 *696:10 4.48974e-05
*RES
1 *2433:X *696:10 42.9921 
2 *696:10 *2436:A1 38 
*END

*D_NET *697 0.00293047
*CONN
*I *2436:A2 I *D sky130_fd_sc_hd__a32o_1
*I *2437:B1 I *D sky130_fd_sc_hd__a22oi_1
*I *2434:Y O *D sky130_fd_sc_hd__nand4_1
*CAP
1 *2436:A2 0.000137
2 *2437:B1 0
3 *2434:Y 0.000307938
4 *697:24 0.000450979
5 *697:10 0.000895917
6 *2436:A2 *698:12 4.04722e-05
7 *2436:A2 *752:14 7.44354e-05
8 *697:10 *698:12 7.57281e-06
9 *697:10 *701:122 0.000228001
10 *697:24 *739:36 3.3266e-05
11 *2437:A1 *697:24 5.67058e-05
12 *1:15 *697:24 0.000229931
13 *302:10 *697:24 7.57281e-06
14 *579:27 *2436:A2 0.000139357
15 *579:27 *697:24 3.87221e-06
16 *690:10 *697:10 0.000158722
17 *691:36 *697:10 0.000158722
18 *696:10 *697:10 0
*RES
1 *2434:Y *697:10 43.6654 
2 *697:10 *697:24 33.7449 
3 *697:24 *2437:B1 23 
4 *697:10 *2436:A2 40.9518 
*END

*D_NET *698 0.00127702
*CONN
*I *2437:B2 I *D sky130_fd_sc_hd__a22oi_1
*I *2436:A3 I *D sky130_fd_sc_hd__a32o_1
*I *2435:Y O *D sky130_fd_sc_hd__nor2_1
*CAP
1 *2437:B2 0
2 *2436:A3 0
3 *2435:Y 0.000130446
4 *698:25 0.000140593
5 *698:12 0.000112211
6 *698:6 0.00038325
7 *698:6 *739:32 0.000184527
8 *698:25 *739:32 0.000126114
9 *698:25 *739:141 3.33082e-05
10 *2436:A2 *698:12 4.04722e-05
11 *302:10 *698:12 0
12 *302:10 *698:25 1.37246e-05
13 *696:10 *698:12 4.4625e-05
14 *696:10 *698:25 6.0174e-05
15 *697:10 *698:12 7.57281e-06
*RES
1 *2435:Y *698:6 25.0507 
2 *698:6 *698:12 31.9057 
3 *698:12 *2436:A3 23 
4 *698:6 *698:25 32.4236 
5 *698:25 *2437:B2 23 
*END

*D_NET *699 0.0121204
*CONN
*I *2441:B1 I *D sky130_fd_sc_hd__a21o_1
*I *2439:A2 I *D sky130_fd_sc_hd__a21oi_1
*I *2448:S I *D sky130_fd_sc_hd__mux2_1
*I *2447:S I *D sky130_fd_sc_hd__mux2_1
*I *2446:S I *D sky130_fd_sc_hd__mux2_1
*I *2445:S I *D sky130_fd_sc_hd__mux2_1
*I *2442:S I *D sky130_fd_sc_hd__mux2_1
*I *2443:S I *D sky130_fd_sc_hd__mux2_1
*I *2444:S I *D sky130_fd_sc_hd__mux2_1
*I *2449:S I *D sky130_fd_sc_hd__mux2_1
*I *2438:X O *D sky130_fd_sc_hd__and3_4
*CAP
1 *2441:B1 3.46918e-05
2 *2439:A2 0
3 *2448:S 0
4 *2447:S 0
5 *2446:S 0.000434983
6 *2445:S 6.26023e-05
7 *2442:S 0.000171248
8 *2443:S 0
9 *2444:S 0.000184449
10 *2449:S 2.30556e-05
11 *2438:X 0.000156234
12 *699:58 0.000171248
13 *699:45 0.000365478
14 *699:43 0.000609053
15 *699:41 0.00107327
16 *699:35 0.000558283
17 *699:33 0.000861624
18 *699:20 0.0011036
19 *699:14 0.000890203
20 *699:10 0.00112799
21 *699:8 0.000863661
22 *2441:B1 *2441:A1 2.93845e-05
23 *2441:B1 *718:6 6.17437e-06
24 *2444:S *741:111 1.01436e-05
25 *2444:S *744:28 5.25436e-05
26 *2445:S *2546:CLK 0.000143535
27 *2446:S *2548:CLK 5.41288e-05
28 *2446:S *744:99 0.000298095
29 *699:10 *704:12 0
30 *699:10 *762:33 0
31 *699:10 *762:54 9.74235e-05
32 *699:14 *718:12 0.000508916
33 *699:14 *720:10 7.76364e-06
34 *699:14 *762:54 7.76364e-06
35 *699:20 *741:40 0
36 *699:33 *702:40 0
37 *699:35 *702:40 0
38 *699:35 *702:42 0
39 *699:41 *2500:SET_B 4.82162e-05
40 *699:41 *702:42 0
41 *699:41 *702:44 0
42 *699:43 *2500:SET_B 0
43 *699:43 *702:44 0
44 *699:45 *741:111 0.000156379
45 *2271:A0 *2442:S 0.000100069
46 *2438:C *699:8 1.32314e-05
47 *2449:A0 *699:20 2.46906e-05
48 *2449:A0 *699:33 0.00015285
49 *2449:A1 *699:20 0.000142585
50 *108:18 *699:20 0
51 *109:27 *699:14 0
52 *110:14 *699:8 0.000119855
53 *110:27 *699:8 1.03955e-05
54 *110:43 *699:10 0
55 *150:14 *699:45 0
56 *152:18 *699:43 0
57 *153:14 *699:43 2.67179e-05
58 *156:10 *699:20 0
59 *156:10 *699:33 0.000324751
60 *156:29 *699:33 2.02872e-05
61 *166:27 *2442:S 0.000173003
62 *170:10 *699:35 0.000130424
63 *170:10 *699:41 1.14452e-05
64 *170:16 *699:41 0.000166513
65 *173:40 *699:10 0
66 *177:12 *699:8 0.000209492
67 *177:12 *699:10 0
68 *257:10 *2444:S 0.000139647
69 *293:10 *699:10 0
70 *304:10 *699:14 0
71 *310:10 *699:35 2.60152e-05
72 *505:16 *699:10 0
73 *508:10 *699:10 0.000216006
74 *508:16 *699:10 3.30843e-07
*RES
1 *2438:X *699:8 42.4329 
2 *699:8 *699:10 14.2307 
3 *699:10 *699:14 8.86571 
4 *699:14 *699:20 23.5343 
5 *699:20 *2449:S 23.4971 
6 *699:20 *699:33 26.3721 
7 *699:33 *699:35 5.77929 
8 *699:35 *699:41 5.84143 
9 *699:41 *699:43 6.48357 
10 *699:43 *699:45 3.31429 
11 *699:45 *2444:S 41.7079 
12 *699:45 *699:58 15 
13 *699:58 *2443:S 23 
14 *699:58 *2442:S 27.4329 
15 *699:43 *2445:S 39.5743 
16 *699:41 *2446:S 45.3329 
17 *699:35 *2447:S 38 
18 *699:33 *2448:S 38 
19 *699:14 *2439:A2 38 
20 *699:10 *2441:B1 38.6214 
*END

*D_NET *700 0.00140944
*CONN
*I *2440:B I *D sky130_fd_sc_hd__nor2_1
*I *2439:Y O *D sky130_fd_sc_hd__a21oi_1
*CAP
1 *2440:B 0
2 *2439:Y 0.000177644
3 *700:12 0.000177644
4 *700:12 *710:12 0.000274394
5 *2440:A *700:12 2.82074e-05
6 *1:15 *700:12 0.000100139
7 *108:20 *700:12 0.000651409
*RES
1 *2439:Y *700:12 31.4307 
2 *700:12 *2440:B 23 
*END

*D_NET *701 0.033371
*CONN
*I *2561:A I *D sky130_fd_sc_hd__clkbuf_16
*I *809:DIODE I *D sky130_fd_sc_hd__diode_2
*I *803:DIODE I *D sky130_fd_sc_hd__diode_2
*I *2560:A I *D sky130_fd_sc_hd__clkbuf_16
*I *808:DIODE I *D sky130_fd_sc_hd__diode_2
*I *2557:A I *D sky130_fd_sc_hd__clkbuf_16
*I *805:DIODE I *D sky130_fd_sc_hd__diode_2
*I *804:DIODE I *D sky130_fd_sc_hd__diode_2
*I *2556:A I *D sky130_fd_sc_hd__clkbuf_16
*I *810:DIODE I *D sky130_fd_sc_hd__diode_2
*I *811:DIODE I *D sky130_fd_sc_hd__diode_2
*I *2563:A I *D sky130_fd_sc_hd__clkbuf_16
*I *2562:A I *D sky130_fd_sc_hd__clkbuf_16
*I *807:DIODE I *D sky130_fd_sc_hd__diode_2
*I *806:DIODE I *D sky130_fd_sc_hd__diode_2
*I *2559:A I *D sky130_fd_sc_hd__clkbuf_16
*I *2558:A I *D sky130_fd_sc_hd__clkbuf_16
*I *2555:X O *D sky130_fd_sc_hd__clkbuf_16
*CAP
1 *2561:A 0.000106324
2 *809:DIODE 0
3 *803:DIODE 0
4 *2560:A 2.34823e-05
5 *808:DIODE 0
6 *2557:A 0
7 *805:DIODE 0
8 *804:DIODE 0
9 *2556:A 0.000199633
10 *810:DIODE 0
11 *811:DIODE 0
12 *2563:A 0
13 *2562:A 2.34823e-05
14 *807:DIODE 0
15 *806:DIODE 0
16 *2559:A 0
17 *2558:A 0.00024324
18 *2555:X 0
19 *701:193 0.000848473
20 *701:178 0.000872394
21 *701:169 0.000817036
22 *701:150 0.000879631
23 *701:144 0.00157126
24 *701:124 0.000432111
25 *701:122 0.00234185
26 *701:120 0.00155486
27 *701:114 0.00107718
28 *701:97 0.000111711
29 *701:89 0.000714602
30 *701:72 0.00177781
31 *701:64 0.00206837
32 *701:39 0.000177439
33 *701:24 0.000651296
34 *701:22 0.00066492
35 *701:12 0.0017376
36 *701:10 0.00304368
37 *701:4 0.0011002
38 *2556:A *1997:B 4.66047e-05
39 *2556:A *743:18 0.000156058
40 *2561:A *707:12 2.45549e-06
41 *701:10 *706:98 0
42 *701:10 *708:41 0
43 *701:10 *733:83 0
44 *701:12 *2522:CLK 0.000269775
45 *701:12 *752:37 0.00108256
46 *701:12 *752:73 0.000181131
47 *701:22 *705:156 9.91798e-05
48 *701:22 *751:28 2.76611e-06
49 *701:22 *751:40 3.21327e-05
50 *701:22 *751:55 2.22079e-05
51 *701:22 *752:37 0.000230604
52 *701:24 *2566:A 9.84794e-05
53 *701:39 *705:21 0
54 *701:39 *751:55 0
55 *701:64 *2522:RESET_B 0.000221386
56 *701:64 *716:28 0.000111852
57 *701:64 *761:30 0.000114074
58 *701:72 *2028:A2 2.79662e-05
59 *701:72 *756:66 0.000216721
60 *701:89 *708:67 6.84987e-06
61 *701:89 *761:36 0.0002263
62 *701:97 *754:88 4.18957e-05
63 *701:97 *761:36 5.12254e-05
64 *701:114 *739:51 3.7122e-06
65 *701:120 *2335:A2 0.000243325
66 *701:120 *706:10 0
67 *701:120 *706:88 0
68 *701:122 *2567:A 0.000483638
69 *701:124 *1997:B 0.000274078
70 *701:144 *2494:CLK 0
71 *701:144 *703:156 0
72 *701:169 *706:8 1.04148e-05
73 *701:193 *2537:SET_B 0.000404066
74 *802:DIODE *701:122 0.000136738
75 *2000:B *2558:A 5.50106e-05
76 *2010:B *2558:A 7.34039e-05
77 *2028:A1 *701:72 2.64616e-05
78 *2076:B *701:97 9.84794e-05
79 *2082:B *701:64 0
80 *2197:B *701:193 0
81 *2200:A *701:193 8.48502e-06
82 *2200:B *701:193 2.02872e-05
83 *2213:A2 *701:193 0
84 *2338:A0 *701:150 4.334e-05
85 *2343:S *701:144 0
86 *2378:A *701:144 0
87 *2415:B2 *701:144 6.7177e-06
88 *2431:B *701:122 0.000355822
89 *2432:S *701:193 4.71358e-05
90 *2433:A2 *701:122 1.57571e-05
91 *2434:A *701:122 0.000227417
92 *116:14 *2558:A 5.47808e-05
93 *116:29 *2558:A 7.96658e-06
94 *125:19 *701:150 0
95 *125:82 *701:144 0
96 *125:82 *701:150 0
97 *125:90 *701:144 0
98 *127:21 *701:144 0.000273117
99 *127:21 *701:150 6.51012e-05
100 *128:25 *701:144 0
101 *141:31 *701:193 5.50049e-05
102 *143:17 *701:193 0
103 *144:12 *701:193 7.66085e-05
104 *144:22 *701:178 6.17437e-06
105 *144:22 *701:193 8.28701e-05
106 *148:12 *701:10 0
107 *156:29 *701:144 0.000126548
108 *191:6 *701:22 0.000137613
109 *191:10 *701:22 0
110 *200:10 *701:10 3.24466e-05
111 *200:10 *701:64 3.44502e-05
112 *200:30 *701:64 0
113 *220:31 *701:72 4.27353e-05
114 *235:14 *701:89 0.000161121
115 *235:14 *701:97 0
116 *235:28 *2562:A 0
117 *235:28 *701:89 0.000276385
118 *237:38 *701:89 4.99753e-06
119 *240:8 *701:89 5.561e-05
120 *271:10 *701:122 0.000141954
121 *272:10 *701:10 4.90787e-05
122 *280:10 *701:144 0.000138708
123 *333:23 *701:64 0.000572395
124 *338:10 *701:122 9.41704e-05
125 *339:10 *701:120 1.01436e-05
126 *351:10 *2558:A 1.40958e-05
127 *358:8 *2558:A 5.67058e-05
128 *376:10 *701:72 5.73835e-06
129 *382:10 *701:89 2.76611e-06
130 *408:8 *701:72 5.56306e-05
131 *420:14 *701:72 0.000265091
132 *420:14 *701:89 8.28202e-05
133 *513:8 *701:193 0.000114083
134 *514:10 *2561:A 4.17736e-05
135 *514:10 *701:193 0.000315857
136 *624:12 *701:193 0.000122304
137 *626:27 *701:10 0.000367367
138 *650:31 *701:193 0.000151036
139 *694:12 *701:122 2.93845e-05
140 *694:19 *701:122 2.4754e-05
141 *695:6 *701:122 0.000121861
142 *696:10 *701:122 5.67058e-05
143 *697:10 *701:122 0.000228001
*RES
1 *2555:X *701:4 23 
2 *701:4 *701:10 47.0479 
3 *701:10 *701:12 20.6314 
4 *701:12 *701:22 39.2179 
5 *701:22 *701:24 4.43286 
6 *701:24 *2558:A 28.4064 
7 *701:24 *701:39 32.9621 
8 *701:39 *2559:A 23 
9 *701:22 *806:DIODE 23 
10 *701:12 *807:DIODE 23 
11 *701:10 *701:64 45.2664 
12 *701:64 *701:72 45.9707 
13 *701:72 *2562:A 23.4971 
14 *701:72 *701:89 40.5021 
15 *701:89 *701:97 32.2993 
16 *701:97 *2563:A 23 
17 *701:89 *811:DIODE 23 
18 *701:64 *810:DIODE 23 
19 *701:4 *701:114 3.00357 
20 *701:114 *701:120 33.3143 
21 *701:120 *701:122 30.6364 
22 *701:122 *701:124 5.38571 
23 *701:124 *2556:A 27.9507 
24 *701:124 *804:DIODE 23 
25 *701:122 *701:144 29.2307 
26 *701:144 *701:150 27.2836 
27 *701:150 *805:DIODE 23 
28 *701:144 *2557:A 38 
29 *701:120 *808:DIODE 23 
30 *701:114 *701:169 8.24429 
31 *701:169 *2560:A 23.4971 
32 *701:169 *701:178 1.57429 
33 *701:178 *803:DIODE 23 
34 *701:178 *701:193 46.9443 
35 *701:193 *809:DIODE 23 
36 *701:193 *2561:A 24.595 
*END

*D_NET *702 0.0181319
*CONN
*I *2564:A I *D sky130_fd_sc_hd__clkbuf_4
*I *2493:CLK I *D sky130_fd_sc_hd__dfstp_1
*I *2552:CLK I *D sky130_fd_sc_hd__dfstp_1
*I *2477:CLK I *D sky130_fd_sc_hd__dfstp_1
*I *2550:CLK I *D sky130_fd_sc_hd__dfstp_1
*I *2475:CLK I *D sky130_fd_sc_hd__dfstp_1
*I *2476:CLK I *D sky130_fd_sc_hd__dfstp_1
*I *2474:CLK I *D sky130_fd_sc_hd__dfstp_1
*I *2500:CLK I *D sky130_fd_sc_hd__dfstp_2
*I *2548:CLK I *D sky130_fd_sc_hd__dfstp_1
*I *2549:CLK I *D sky130_fd_sc_hd__dfstp_1
*I *2473:CLK I *D sky130_fd_sc_hd__dfstp_1
*I *2472:CLK I *D sky130_fd_sc_hd__dfstp_1
*I *2471:CLK I *D sky130_fd_sc_hd__dfstp_1
*I *2547:CLK I *D sky130_fd_sc_hd__dfstp_1
*I *2546:CLK I *D sky130_fd_sc_hd__dfstp_1
*I *2551:CLK I *D sky130_fd_sc_hd__dfstp_1
*I *2501:CLK I *D sky130_fd_sc_hd__dfstp_2
*I *2556:X O *D sky130_fd_sc_hd__clkbuf_16
*CAP
1 *2564:A 0
2 *2493:CLK 7.36559e-05
3 *2552:CLK 0
4 *2477:CLK 0
5 *2550:CLK 0
6 *2475:CLK 0
7 *2476:CLK 0.000272476
8 *2474:CLK 0.000323746
9 *2500:CLK 8.24023e-05
10 *2548:CLK 2.44744e-05
11 *2549:CLK 0
12 *2473:CLK 0.000419943
13 *2472:CLK 0.000338333
14 *2471:CLK 0
15 *2547:CLK 0
16 *2546:CLK 0.000362227
17 *2551:CLK 6.80978e-05
18 *2501:CLK 0.00024725
19 *2556:X 0.000120069
20 *702:204 0.000673801
21 *702:192 0.000984698
22 *702:152 0.000596222
23 *702:150 0.000601728
24 *702:140 0.000601728
25 *702:92 0.000227137
26 *702:79 0.000514099
27 *702:71 0.000808856
28 *702:69 0.000692299
29 *702:65 0.000490977
30 *702:46 0.000937603
31 *702:44 0.000358084
32 *702:42 0.000602836
33 *702:40 0.000656624
34 *702:38 0.000742333
35 *702:27 0.000686765
36 *702:25 0.000557493
37 *702:10 0.000431429
38 *702:8 0.000304248
39 *2473:CLK *741:124 1.59094e-05
40 *2501:CLK *2551:SET_B 0.00020457
41 *2546:CLK *744:82 0
42 *2548:CLK *744:99 9.84794e-05
43 *702:27 *2551:SET_B 5.02669e-05
44 *702:40 *741:42 0
45 *702:42 *2474:SET_B 0
46 *702:42 *741:42 0
47 *702:44 *2474:SET_B 0
48 *702:46 *2474:SET_B 0
49 *702:46 *744:82 0
50 *702:46 *744:89 0
51 *702:69 *741:124 0.000185104
52 *702:71 *2472:SET_B 0.000137061
53 *702:71 *2473:SET_B 3.47879e-05
54 *702:71 *741:124 9.03784e-05
55 *702:79 *2472:SET_B 3.31127e-05
56 *702:79 *2547:SET_B 0
57 *702:79 *741:56 0
58 *702:79 *741:73 2.3191e-05
59 *702:92 *2471:SET_B 7.30875e-05
60 *702:92 *2547:SET_B 4.9662e-05
61 *702:92 *741:58 0
62 *702:92 *741:73 9.00922e-05
63 *702:150 *2475:SET_B 0.000169675
64 *702:204 *2477:SET_B 0.000203929
65 *2272:A1 *702:69 2.76611e-06
66 *2272:A1 *702:71 0.000139203
67 *2272:A1 *702:79 5.67058e-05
68 *2273:A0 *702:65 7.59794e-05
69 *2273:A0 *702:69 7.13673e-05
70 *2276:A0 *702:204 0.000404986
71 *2445:A1 *2546:CLK 0.000140935
72 *2445:S *2546:CLK 0.000143535
73 *2446:S *2548:CLK 5.41288e-05
74 *2448:A0 *2501:CLK 0
75 *2477:D *702:204 5.50106e-05
76 *108:18 *702:8 0
77 *152:18 *2546:CLK 0.000593982
78 *155:12 *2493:CLK 4.51341e-05
79 *155:12 *2501:CLK 5.86165e-05
80 *156:10 *702:10 0
81 *156:10 *702:38 0
82 *167:12 *702:71 1.01436e-05
83 *167:12 *702:79 0.000169674
84 *170:10 *702:42 0
85 *170:10 *702:150 6.65058e-05
86 *170:16 *2500:CLK 0.000103415
87 *170:16 *702:42 0
88 *258:10 *702:79 0
89 *261:10 *2474:CLK 0
90 *261:10 *2476:CLK 0
91 *279:10 *2501:CLK 0
92 *287:10 *2501:CLK 4.07627e-05
93 *307:10 *702:92 3.70094e-05
94 *308:14 *2546:CLK 0.000242564
95 *308:14 *702:46 0.000108672
96 *310:10 *702:42 0
97 *311:16 *702:38 0.000114656
98 *311:16 *702:40 0.000135186
99 *312:10 *702:38 0
100 *312:10 *702:40 0
101 *353:8 *702:8 0
102 *699:33 *702:40 0
103 *699:35 *702:40 0
104 *699:35 *702:42 0
105 *699:41 *702:42 0
106 *699:41 *702:44 0
107 *699:43 *702:44 0
*RES
1 *2556:X *702:8 39.9057 
2 *702:8 *702:10 3.31429 
3 *702:10 *2501:CLK 44.5457 
4 *702:10 *702:25 15 
5 *702:25 *702:27 8.24429 
6 *702:27 *2551:CLK 24.0979 
7 *702:27 *702:38 18.3143 
8 *702:38 *702:40 5.42714 
9 *702:40 *702:42 5.77929 
10 *702:42 *702:44 2.96214 
11 *702:44 *702:46 3.31429 
12 *702:46 *2546:CLK 49.2064 
13 *702:46 *702:65 21.9807 
14 *702:65 *702:69 17.9621 
15 *702:69 *702:71 5.77929 
16 *702:71 *702:79 21.1107 
17 *702:79 *2547:CLK 23 
18 *702:79 *702:92 35.4893 
19 *702:92 *2471:CLK 23 
20 *702:71 *2472:CLK 43.8621 
21 *702:69 *2473:CLK 45.2914 
22 *702:65 *2549:CLK 23 
23 *702:44 *2548:CLK 39.0979 
24 *702:42 *2500:CLK 40.0507 
25 *702:40 *702:140 15 
26 *702:140 *702:150 12.2629 
27 *702:150 *702:152 15 
28 *702:152 *2474:CLK 43.6136 
29 *702:152 *2476:CLK 42.4121 
30 *702:150 *2475:CLK 23 
31 *702:140 *2550:CLK 23 
32 *702:38 *702:192 20.075 
33 *702:192 *702:204 44.3136 
34 *702:204 *2477:CLK 23 
35 *702:192 *2552:CLK 23 
36 *702:25 *2493:CLK 24.5743 
37 *702:8 *2564:A 38 
*END

*D_NET *703 0.018485
*CONN
*I *2494:CLK I *D sky130_fd_sc_hd__dfstp_1
*I *2565:A I *D sky130_fd_sc_hd__clkinv_2
*I *2489:CLK I *D sky130_fd_sc_hd__dfstp_2
*I *2492:CLK I *D sky130_fd_sc_hd__dfstp_1
*I *2491:CLK I *D sky130_fd_sc_hd__dfstp_1
*I *2502:CLK I *D sky130_fd_sc_hd__dfstp_1
*I *2490:CLK I *D sky130_fd_sc_hd__dfstp_1
*I *2488:CLK I *D sky130_fd_sc_hd__dfstp_1
*I *2487:CLK I *D sky130_fd_sc_hd__dfstp_1
*I *2497:CLK I *D sky130_fd_sc_hd__dfstp_1
*I *2470:CLK I *D sky130_fd_sc_hd__dfstp_1
*I *2545:CLK I *D sky130_fd_sc_hd__dfstp_1
*I *2496:CLK I *D sky130_fd_sc_hd__dfstp_2
*I *2499:CLK I *D sky130_fd_sc_hd__dfstp_1
*I *2495:CLK I *D sky130_fd_sc_hd__dfstp_1
*I *2498:CLK I *D sky130_fd_sc_hd__dfstp_1
*I *2557:X O *D sky130_fd_sc_hd__clkbuf_16
*CAP
1 *2494:CLK 0.000128545
2 *2565:A 0
3 *2489:CLK 0
4 *2492:CLK 0
5 *2491:CLK 0
6 *2502:CLK 0.000147863
7 *2490:CLK 0.000137689
8 *2488:CLK 0.000234144
9 *2487:CLK 0
10 *2497:CLK 0
11 *2470:CLK 1.67057e-05
12 *2545:CLK 9.70526e-05
13 *2496:CLK 0.000374627
14 *2499:CLK 0
15 *2495:CLK 0.000393664
16 *2498:CLK 5.91695e-05
17 *2557:X 0.000256148
18 *703:176 0.000505412
19 *703:170 0.000676257
20 *703:164 0.000449195
21 *703:156 0.000587342
22 *703:120 0.000479443
23 *703:111 0.000237815
24 *703:97 0.000144505
25 *703:80 0.000425677
26 *703:65 0.000716032
27 *703:63 0.000665772
28 *703:57 0.00054285
29 *703:31 0.000813192
30 *703:18 0.000656852
31 *703:16 0.000538985
32 *703:10 0.000498636
33 *703:8 0.000574401
34 *2470:CLK *2470:SET_B 2.93747e-05
35 *2490:CLK *745:31 8.57661e-05
36 *2490:CLK *748:35 9.39159e-05
37 *2496:CLK *2470:SET_B 0
38 *2496:CLK *748:24 1.83564e-05
39 *703:18 *746:51 0
40 *703:31 *746:39 0
41 *703:31 *746:51 0
42 *703:31 *748:18 0.000100713
43 *703:63 *2579:A 5.50049e-05
44 *703:65 *2470:SET_B 0
45 *703:65 *2546:SET_B 1.83667e-05
46 *703:65 *744:10 0
47 *703:65 *748:24 9.28842e-05
48 *703:65 *748:35 1.22803e-05
49 *703:97 *2470:SET_B 6.79006e-05
50 *703:111 *2546:SET_B 4.07715e-05
51 *703:111 *745:18 6.93553e-05
52 *703:111 *748:35 0.000104143
53 *703:120 *745:18 1.47563e-05
54 *703:120 *745:31 0.00010763
55 *703:120 *748:35 0.000122386
56 *703:170 *2501:SET_B 5.3304e-05
57 *703:170 *745:41 3.70094e-05
58 *703:170 *745:96 0.000154147
59 *703:176 *2492:SET_B 0.000143367
60 *703:176 *745:41 0.000222113
61 *2336:A0 *703:16 4.1251e-05
62 *2336:A0 *703:18 1.86869e-05
63 *2336:A1 *703:18 4.08641e-05
64 *2336:S *703:63 0.000141052
65 *2337:A0 *2490:CLK 3.3577e-05
66 *2338:S *703:176 0.000137651
67 *2339:A0 *703:10 5.01986e-05
68 *2339:A0 *703:16 0.000249909
69 *2345:S *703:31 0
70 *2414:A *2494:CLK 2.93747e-05
71 *2442:A0 *2545:CLK 0.0001454
72 *2442:A0 *703:80 0.000151721
73 *2447:A0 *703:176 0.000182514
74 *2492:D *703:176 5.50049e-05
75 *2495:D *2495:CLK 0.000330716
76 *2545:D *2545:CLK 0.000187129
77 *118:12 *2495:CLK 0
78 *118:12 *703:31 0
79 *122:20 *2502:CLK 0.000170529
80 *122:20 *703:63 0.000373337
81 *123:14 *703:170 1.21972e-05
82 *123:35 *703:164 0.000468525
83 *123:35 *703:170 9.86742e-05
84 *125:19 *703:16 0.000130045
85 *125:23 *703:8 0.000198206
86 *125:90 *2494:CLK 0.000163352
87 *125:90 *703:156 0.000110922
88 *128:25 *703:10 0.000299178
89 *128:25 *703:156 0.000256767
90 *128:25 *703:164 5.3304e-05
91 *128:38 *703:164 1.24376e-05
92 *130:29 *703:164 0.000402981
93 *130:29 *703:170 0.000454918
94 *130:29 *703:176 0.000111148
95 *130:46 *703:164 2.32004e-05
96 *131:16 *2494:CLK 2.93747e-05
97 *149:19 *2498:CLK 2.93747e-05
98 *149:27 *703:18 3.0647e-05
99 *149:27 *703:31 5.40866e-05
100 *150:42 *2496:CLK 0
101 *150:42 *703:63 0.000161461
102 *151:25 *2470:CLK 2.30292e-05
103 *151:25 *2496:CLK 0
104 *152:29 *2488:CLK 0.000153634
105 *152:42 *703:16 0
106 *152:42 *703:18 0
107 *156:46 *703:10 0.000174407
108 *156:46 *703:16 0.000217654
109 *156:46 *703:156 0.000100533
110 *166:27 *703:97 0
111 *281:10 *2495:CLK 0
112 *281:10 *703:31 0
113 *282:10 *2496:CLK 4.6318e-06
114 *284:10 *703:31 0.000161121
115 *285:10 *2495:CLK 0
116 *285:10 *703:31 0
117 *350:78 *2498:CLK 0.000141052
118 *354:14 *703:170 1.02387e-05
119 *354:45 *2490:CLK 5.74886e-05
120 *701:144 *2494:CLK 0
121 *701:144 *703:156 0
*RES
1 *2557:X *703:8 41.9564 
2 *703:8 *703:10 4.72286 
3 *703:10 *703:16 9.36286 
4 *703:16 *703:18 2.96214 
5 *703:18 *2498:CLK 39.5743 
6 *703:18 *703:31 9.21786 
7 *703:31 *2495:CLK 47.4871 
8 *703:31 *2499:CLK 38 
9 *703:16 *703:57 15 
10 *703:57 *703:63 25.1707 
11 *703:63 *703:65 2.96214 
12 *703:65 *2496:CLK 44.8771 
13 *703:65 *703:80 19.4329 
14 *703:80 *2545:CLK 26.6457 
15 *703:80 *703:97 32.61 
16 *703:97 *2470:CLK 23.6214 
17 *703:97 *2497:CLK 23 
18 *703:63 *703:111 2.96214 
19 *703:111 *2487:CLK 38 
20 *703:111 *703:120 3.31429 
21 *703:120 *2488:CLK 42.4329 
22 *703:120 *2490:CLK 41.7079 
23 *703:57 *2502:CLK 26.48 
24 *703:10 *2491:CLK 38 
25 *703:8 *703:156 4.37071 
26 *703:156 *703:164 25.1914 
27 *703:164 *703:170 21.5664 
28 *703:170 *703:176 28.1121 
29 *703:176 *2492:CLK 23 
30 *703:170 *2489:CLK 38 
31 *703:164 *2565:A 23 
32 *703:156 *2494:CLK 40.8793 
*END

*D_NET *704 0.0194828
*CONN
*I *2531:CLK I *D sky130_fd_sc_hd__dfrtp_1
*I *2507:CLK I *D sky130_fd_sc_hd__dfrtp_1
*I *2515:CLK I *D sky130_fd_sc_hd__dfrtp_1
*I *2516:CLK I *D sky130_fd_sc_hd__dfrtp_1
*I *2511:CLK I *D sky130_fd_sc_hd__dfrtp_1
*I *2510:CLK I *D sky130_fd_sc_hd__dfrtp_1
*I *2509:CLK I *D sky130_fd_sc_hd__dfrtp_1
*I *2508:CLK I *D sky130_fd_sc_hd__dfrtp_1
*I *2512:CLK I *D sky130_fd_sc_hd__dfrtp_1
*I *2530:CLK I *D sky130_fd_sc_hd__dfrtp_1
*I *2543:CLK I *D sky130_fd_sc_hd__dfstp_1
*I *2529:CLK I *D sky130_fd_sc_hd__dfrtp_1
*I *2528:CLK I *D sky130_fd_sc_hd__dfrtp_1
*I *2542:CLK I *D sky130_fd_sc_hd__dfstp_1
*I *2478:CLK I *D sky130_fd_sc_hd__dfstp_1
*I *2541:CLK I *D sky130_fd_sc_hd__dfrtp_1
*I *2540:CLK I *D sky130_fd_sc_hd__dfrtp_1
*I *2544:CLK I *D sky130_fd_sc_hd__dfstp_1
*I *2558:X O *D sky130_fd_sc_hd__clkbuf_16
*CAP
1 *2531:CLK 0
2 *2507:CLK 0
3 *2515:CLK 0
4 *2516:CLK 0
5 *2511:CLK 4.01155e-05
6 *2510:CLK 0.000130832
7 *2509:CLK 0.000126517
8 *2508:CLK 4.24211e-05
9 *2512:CLK 0.000126064
10 *2530:CLK 0
11 *2543:CLK 9.37445e-05
12 *2529:CLK 0
13 *2528:CLK 0.000326026
14 *2542:CLK 4.24511e-05
15 *2478:CLK 7.05609e-05
16 *2541:CLK 0
17 *2540:CLK 0.000145495
18 *2544:CLK 0
19 *2558:X 0
20 *704:219 0.00029965
21 *704:196 0.000237923
22 *704:188 0.00111517
23 *704:175 0.00132541
24 *704:158 0.000789731
25 *704:143 0.000717506
26 *704:130 0.000490901
27 *704:119 0.000528769
28 *704:112 0.000582111
29 *704:108 0.00108633
30 *704:95 0.000450475
31 *704:84 0.000297199
32 *704:73 0.000596146
33 *704:62 0.000237599
34 *704:33 0.000447643
35 *704:27 0.000542326
36 *704:25 0.000929898
37 *704:14 0.00105707
38 *704:12 0.00113228
39 *704:4 0.00105979
40 *2510:CLK *750:71 0
41 *2528:CLK *712:10 9.01041e-05
42 *2528:CLK *749:33 5.50106e-05
43 *2540:CLK *762:10 0.000135024
44 *704:12 *749:18 0.000104881
45 *704:25 *762:33 3.16665e-05
46 *704:27 *749:48 0
47 *704:33 *749:48 0
48 *704:33 *762:10 0.000143733
49 *704:95 *713:8 0
50 *704:108 *2508:RESET_B 0
51 *704:108 *2543:D 5.67058e-05
52 *704:108 *713:8 0
53 *704:112 *750:34 0.000562654
54 *704:119 *2508:RESET_B 0
55 *704:130 *2508:RESET_B 0
56 *704:143 *2508:RESET_B 0
57 *704:188 *750:104 0.000374045
58 *704:219 *752:47 0
59 *840:DIODE *2540:CLK 5.67058e-05
60 *2092:B_N *2510:CLK 5.50106e-05
61 *2092:D *704:143 0
62 *2192:A *704:112 5.67058e-05
63 *2192:B *704:112 9.41704e-05
64 *2194:B *704:12 2.60593e-05
65 *2508:D *704:143 0
66 *1:11 *2540:CLK 7.90939e-05
67 *1:11 *704:27 0
68 *1:11 *704:33 0.000205765
69 *1:11 *704:62 0
70 *1:11 *704:73 0
71 *1:11 *704:84 0
72 *1:11 *704:95 0
73 *1:11 *704:108 0
74 *1:11 *704:119 0
75 *38:12 *704:119 0
76 *160:10 *704:12 2.42905e-05
77 *160:10 *704:219 0.000107011
78 *176:10 *704:25 1.59094e-05
79 *176:10 *704:27 9.03784e-05
80 *176:10 *704:62 0.000139647
81 *176:10 *704:73 0.000225275
82 *177:33 *704:219 0
83 *181:10 *704:188 7.87782e-05
84 *181:10 *704:196 0
85 *183:20 *704:143 0.000199701
86 *184:10 *2510:CLK 0
87 *186:10 *704:119 6.48049e-05
88 *186:10 *704:130 0.000215131
89 *186:10 *704:143 0.000346476
90 *207:10 *704:196 6.03737e-05
91 *208:14 *704:196 3.28726e-05
92 *264:10 *704:33 5.24967e-05
93 *316:18 *704:112 0.000142634
94 *504:28 *704:112 7.34709e-05
95 *504:44 *704:12 1.50445e-05
96 *505:16 *704:12 0.000403015
97 *508:10 *704:12 0
98 *699:10 *704:12 0
*RES
1 *2558:X *704:4 23 
2 *704:4 *704:12 41.9107 
3 *704:12 *704:14 6.33857 
4 *704:14 *2544:CLK 23 
5 *704:14 *704:25 24.0936 
6 *704:25 *704:27 3.66643 
7 *704:27 *704:33 9.36286 
8 *704:33 *2540:CLK 42.5364 
9 *704:33 *2541:CLK 38 
10 *704:27 *2478:CLK 39.0979 
11 *704:25 *704:62 1.90571 
12 *704:62 *2542:CLK 38.6214 
13 *704:62 *704:73 3.31429 
14 *704:73 *2528:CLK 44.3386 
15 *704:73 *704:84 2.96214 
16 *704:84 *2529:CLK 38 
17 *704:84 *704:95 17.9621 
18 *704:95 *2543:CLK 24.5743 
19 *704:95 *704:108 19.06 
20 *704:108 *704:112 27.5321 
21 *704:112 *2530:CLK 23 
22 *704:108 *704:119 5.77929 
23 *704:119 *2512:CLK 40.0507 
24 *704:119 *704:130 2.96214 
25 *704:130 *2508:CLK 38.6214 
26 *704:130 *704:143 23.5964 
27 *704:143 *2509:CLK 25.0507 
28 *704:143 *704:158 19.7954 
29 *704:158 *2510:CLK 41.6561 
30 *704:158 *704:175 20.7896 
31 *704:175 *2511:CLK 23.8493 
32 *704:175 *704:188 16.385 
33 *704:188 *704:196 34.6607 
34 *704:196 *2516:CLK 23 
35 *704:188 *2515:CLK 23 
36 *704:12 *2507:CLK 23 
37 *704:4 *704:219 35.8207 
38 *704:219 *2531:CLK 23 
*END

*D_NET *705 0.0163609
*CONN
*I *2526:CLK I *D sky130_fd_sc_hd__dfrtp_1
*I *2519:CLK I *D sky130_fd_sc_hd__dfrtp_1
*I *2518:CLK I *D sky130_fd_sc_hd__dfrtp_1
*I *2517:CLK I *D sky130_fd_sc_hd__dfrtp_1
*I *2514:CLK I *D sky130_fd_sc_hd__dfrtp_1
*I *2525:CLK I *D sky130_fd_sc_hd__dfrtp_1
*I *2513:CLK I *D sky130_fd_sc_hd__dfrtp_2
*I *2566:A I *D sky130_fd_sc_hd__clkinv_4
*I *2505:CLK I *D sky130_fd_sc_hd__dfrtp_1
*I *2524:CLK I *D sky130_fd_sc_hd__dfrtp_1
*I *2503:CLK I *D sky130_fd_sc_hd__dfrtp_4
*I *2504:CLK I *D sky130_fd_sc_hd__dfrtp_1
*I *2527:CLK I *D sky130_fd_sc_hd__dfrtp_1
*I *2559:X O *D sky130_fd_sc_hd__clkbuf_16
*CAP
1 *2526:CLK 0
2 *2519:CLK 9.37502e-05
3 *2518:CLK 4.00156e-05
4 *2517:CLK 0
5 *2514:CLK 3.16049e-05
6 *2525:CLK 0
7 *2513:CLK 3.43162e-05
8 *2566:A 4.56652e-05
9 *2505:CLK 0.000476381
10 *2524:CLK 0.000395487
11 *2503:CLK 0
12 *2504:CLK 0.000441829
13 *2527:CLK 0.000226111
14 *2559:X 0
15 *705:156 0.000673892
16 *705:126 0.00146078
17 *705:115 0.00189182
18 *705:102 0.000955602
19 *705:88 3.43162e-05
20 *705:86 0.000643626
21 *705:52 9.16948e-05
22 *705:46 0.000578091
23 *705:27 0.000747619
24 *705:23 0.000807529
25 *705:21 0.000401924
26 *705:19 0.000524431
27 *705:6 0.000454119
28 *705:4 0.0009019
29 *2505:CLK *752:37 1.32289e-05
30 *2519:CLK *2141:A 1.14452e-05
31 *2524:CLK *2379:A1 5.50049e-05
32 *2524:CLK *751:24 0.000750602
33 *705:21 *751:55 0
34 *705:23 *751:40 0
35 *705:23 *751:55 0
36 *705:27 *751:28 0
37 *705:52 *715:8 1.19692e-05
38 *705:52 *751:28 0
39 *705:115 *716:58 4.21594e-06
40 *705:156 *738:133 0
41 *705:156 *738:145 0
42 *705:156 *751:55 8.4047e-05
43 *2105:A2 *2514:CLK 0.000141954
44 *2121:A *705:115 0
45 *2138:C *705:126 5.3304e-05
46 *2139:B *2519:CLK 0
47 *2140:C *705:126 9.67842e-05
48 *2168:B2 *705:126 0
49 *2170:A2 *705:115 5.05059e-05
50 *2170:B1 *705:115 0
51 *2368:A *2504:CLK 2.57604e-05
52 *2379:S *2504:CLK 0.00012377
53 *2379:S *2524:CLK 0.000140259
54 *2379:S *705:46 0.000181131
55 *2504:D *2504:CLK 2.93747e-05
56 *2505:D *2505:CLK 0.000172924
57 *2513:D *705:102 0
58 *2526:D *705:156 5.88758e-05
59 *113:19 *2504:CLK 1.21972e-05
60 *113:32 *2504:CLK 7.9284e-05
61 *114:14 *705:27 3.82956e-05
62 *114:14 *705:52 9.28739e-05
63 *187:41 *2513:CLK 1.94693e-05
64 *191:6 *705:156 2.35238e-05
65 *191:10 *705:156 0
66 *191:36 *705:156 1.40004e-05
67 *192:53 *705:115 0
68 *195:56 *705:126 1.04196e-05
69 *195:77 *705:126 8.08139e-06
70 *196:48 *705:126 1.08821e-05
71 *197:61 *2518:CLK 6.16439e-05
72 *197:61 *2519:CLK 0.000124399
73 *197:61 *705:126 4.04303e-05
74 *201:18 *705:102 0
75 *201:18 *705:115 0
76 *201:35 *2514:CLK 9.67842e-05
77 *201:35 *705:102 1.09783e-05
78 *206:18 *705:115 0
79 *209:22 *705:115 5.82922e-05
80 *209:22 *705:126 4.57742e-05
81 *215:12 *2527:CLK 0.000198196
82 *215:12 *705:6 0.000118143
83 *291:8 *705:27 0.000138718
84 *320:18 *705:126 0
85 *320:46 *705:102 5.33213e-05
86 *320:46 *705:115 0.000288294
87 *335:22 *705:115 4.36401e-06
88 *347:14 *2504:CLK 2.93747e-05
89 *351:10 *705:27 0
90 *425:10 *705:86 0
91 *425:10 *705:102 0
92 *446:8 *2514:CLK 1.76557e-05
93 *448:16 *705:115 0
94 *464:10 *2518:CLK 0
95 *466:10 *705:126 0.000139346
96 *635:42 *2504:CLK 0.000333045
97 *642:8 *705:27 0
98 *651:10 *705:52 0.000137788
99 *701:22 *705:156 9.91798e-05
100 *701:24 *2566:A 9.84794e-05
101 *701:39 *705:21 0
*RES
1 *2559:X *705:4 23 
2 *705:4 *705:6 3.48 
3 *705:6 *2527:CLK 27.9507 
4 *705:6 *705:19 15 
5 *705:19 *705:21 4.01857 
6 *705:21 *705:23 1.90571 
7 *705:23 *705:27 19.0186 
8 *705:27 *2504:CLK 34.455 
9 *705:27 *705:46 2.05071 
10 *705:46 *705:52 32.61 
11 *705:52 *2503:CLK 23 
12 *705:46 *2524:CLK 34.1029 
13 *705:23 *2505:CLK 45.1879 
14 *705:21 *2566:A 39.0979 
15 *705:19 *705:86 5.075 
16 *705:86 *705:88 15 
17 *705:88 *2513:CLK 23.6214 
18 *705:88 *2525:CLK 23 
19 *705:86 *705:102 5.77929 
20 *705:102 *2514:CLK 39.5743 
21 *705:102 *705:115 26.4136 
22 *705:115 *2517:CLK 23 
23 *705:115 *705:126 31.7164 
24 *705:126 *2518:CLK 38.8493 
25 *705:126 *2519:CLK 39.9057 
26 *705:4 *705:156 41.2479 
27 *705:156 *2526:CLK 23 
*END

*D_NET *706 0.0116816
*CONN
*I *2485:CLK I *D sky130_fd_sc_hd__dfstp_1
*I *2486:CLK I *D sky130_fd_sc_hd__dfstp_1
*I *2539:CLK I *D sky130_fd_sc_hd__dfstp_1
*I *2538:CLK I *D sky130_fd_sc_hd__dfstp_1
*I *2506:CLK I *D sky130_fd_sc_hd__dfrtp_1
*I *2567:A I *D sky130_fd_sc_hd__inv_6
*I *2537:CLK I *D sky130_fd_sc_hd__dfstp_1
*I *2484:CLK I *D sky130_fd_sc_hd__dfstp_1
*I *2534:CLK I *D sky130_fd_sc_hd__dfstp_1
*I *2483:CLK I *D sky130_fd_sc_hd__dfstp_1
*I *2536:CLK I *D sky130_fd_sc_hd__dfstp_1
*I *2560:X O *D sky130_fd_sc_hd__clkbuf_16
*CAP
1 *2485:CLK 0
2 *2486:CLK 0
3 *2539:CLK 0
4 *2538:CLK 0
5 *2506:CLK 6.56968e-05
6 *2567:A 0.000262671
7 *2537:CLK 0
8 *2484:CLK 0.000139153
9 *2534:CLK 0
10 *2483:CLK 0
11 *2536:CLK 0.000306821
12 *2560:X 8.53753e-05
13 *706:124 0.000183479
14 *706:104 0.000163493
15 *706:102 0.000752656
16 *706:98 0.000719124
17 *706:88 0.000794873
18 *706:66 0.000262671
19 *706:39 0.000691803
20 *706:29 0.00137771
21 *706:16 0.00115167
22 *706:14 0.000563641
23 *706:10 0.000389168
24 *706:8 0.000756126
25 *2484:CLK *2331:S 8.47188e-05
26 *2484:CLK *740:97 0.000123934
27 *2506:CLK *751:12 6.17437e-06
28 *2567:A *2334:A2_N 2.4754e-05
29 *706:14 *2484:SET_B 0
30 *706:16 *2484:SET_B 0
31 *706:29 *2484:SET_B 0
32 *706:29 *739:119 6.68793e-05
33 *706:88 *2335:A2 0
34 *706:88 *2485:SET_B 2.22079e-05
35 *706:102 *2538:SET_B 5.8459e-05
36 *706:104 *2538:SET_B 2.18409e-05
37 *706:104 *751:12 0.000103647
38 *706:124 *751:8 0
39 *706:124 *751:18 0.000141879
40 *2334:A1_N *2567:A 0.000182826
41 *2334:B2 *2567:A 4.9662e-05
42 *142:10 *706:29 0
43 *145:16 *2567:A 3.93404e-05
44 *145:16 *706:10 0.000162948
45 *145:16 *706:14 1.22906e-05
46 *145:16 *706:88 0.000276232
47 *146:8 *706:102 4.17615e-05
48 *146:29 *706:98 4.93223e-05
49 *146:29 *706:102 8.46575e-05
50 *148:12 *706:98 0.00019747
51 *269:10 *706:39 6.07611e-06
52 *270:14 *2484:CLK 0.000323499
53 *299:8 *706:29 0
54 *302:10 *706:124 0
55 *339:10 *2567:A 9.84851e-05
56 *339:10 *706:14 2.76611e-06
57 *617:21 *706:39 0
58 *626:10 *706:14 0
59 *626:10 *706:16 0
60 *626:10 *706:29 0
61 *626:10 *706:39 0
62 *659:10 *706:29 7.55491e-05
63 *659:10 *706:39 6.07611e-06
64 *689:10 *2536:CLK 0.000136738
65 *689:10 *706:29 0
66 *695:6 *2567:A 0.000121267
67 *701:10 *706:98 0
68 *701:120 *706:10 0
69 *701:120 *706:88 0
70 *701:122 *2567:A 0.000483638
71 *701:169 *706:8 1.04148e-05
*RES
1 *2560:X *706:8 39.0979 
2 *706:8 *706:10 2.25786 
3 *706:10 *706:14 3.58357 
4 *706:14 *706:16 2.61 
5 *706:16 *2536:CLK 43.5307 
6 *706:16 *706:29 11.7657 
7 *706:29 *706:39 27.2421 
8 *706:39 *2483:CLK 23 
9 *706:29 *2534:CLK 38 
10 *706:14 *2484:CLK 43.5514 
11 *706:10 *706:66 15 
12 *706:66 *2537:CLK 23 
13 *706:66 *2567:A 31.7621 
14 *706:8 *706:88 25.3571 
15 *706:88 *706:98 35.2821 
16 *706:98 *706:102 9.21786 
17 *706:102 *706:104 2.52714 
18 *706:104 *2506:CLK 24.0979 
19 *706:104 *2538:CLK 23 
20 *706:102 *706:124 33.2314 
21 *706:124 *2539:CLK 23 
22 *706:98 *2486:CLK 23 
23 *706:88 *2485:CLK 23 
*END

*D_NET *707 0.0169395
*CONN
*I *2451:CLK I *D sky130_fd_sc_hd__dfrtp_1
*I *2452:CLK I *D sky130_fd_sc_hd__dfrtp_4
*I *2453:CLK I *D sky130_fd_sc_hd__dfrtp_2
*I *2568:A I *D sky130_fd_sc_hd__inv_6
*I *2532:CLK I *D sky130_fd_sc_hd__dfstp_1
*I *2533:CLK I *D sky130_fd_sc_hd__dfstp_1
*I *2481:CLK I *D sky130_fd_sc_hd__dfstp_1
*I *2479:CLK I *D sky130_fd_sc_hd__dfstp_1
*I *2482:CLK I *D sky130_fd_sc_hd__dfstp_1
*I *2480:CLK I *D sky130_fd_sc_hd__dfstp_1
*I *2535:CLK I *D sky130_fd_sc_hd__dfstp_1
*I *2561:X O *D sky130_fd_sc_hd__clkbuf_16
*CAP
1 *2451:CLK 0.000476861
2 *2452:CLK 6.61594e-05
3 *2453:CLK 0.000401263
4 *2568:A 2.47752e-05
5 *2532:CLK 1.80505e-05
6 *2533:CLK 0.000268519
7 *2481:CLK 0.000322787
8 *2479:CLK 8.89304e-05
9 *2482:CLK 0.000304842
10 *2480:CLK 0
11 *2535:CLK 0.00019651
12 *2561:X 0
13 *707:119 0.000685682
14 *707:106 0.00123998
15 *707:50 0.000676128
16 *707:46 0.000855261
17 *707:35 0.000745701
18 *707:29 0.00087961
19 *707:27 0.000444591
20 *707:16 0.000675353
21 *707:12 0.000798615
22 *707:4 0.00130208
23 *2453:CLK *757:93 0.000132954
24 *2482:CLK *2311:A2 0
25 *2482:CLK *733:39 0.000177899
26 *2568:A *2535:SET_B 1.32314e-05
27 *707:12 *753:92 0
28 *707:16 *2535:SET_B 0.000216796
29 *707:27 *739:101 0.000370869
30 *707:29 *739:101 0.000219882
31 *707:35 *739:101 0.000222113
32 *707:50 *2311:A2 0
33 *707:50 *740:50 0
34 *707:106 *757:93 5.3304e-05
35 *2210:A1 *707:16 2.02517e-05
36 *2234:B *2451:CLK 0.000262178
37 *2235:A1 *707:106 2.4754e-05
38 *2235:A2 *707:106 0.000258245
39 *2238:A1 *2451:CLK 0
40 *2238:B1 *707:106 0.000185428
41 *2240:A1 *2451:CLK 4.09412e-06
42 *2240:B1 *2451:CLK 0.000138727
43 *2240:B1 *707:119 0.00021039
44 *2243:A *707:106 9.00922e-05
45 *2250:A2 *707:106 0.0002246
46 *2250:B1 *707:12 2.98648e-05
47 *2322:A0 *707:35 0
48 *2413:A1 *2535:CLK 0.000292745
49 *2413:A1 *707:16 0.000173828
50 *2452:D *2452:CLK 6.17437e-06
51 *2535:D *2535:CLK 0.000187129
52 *2561:A *707:12 2.45549e-06
53 *135:6 *2481:CLK 1.70074e-05
54 *135:14 *2481:CLK 0.000211123
55 *135:14 *707:50 8.76088e-05
56 *140:19 *2568:A 2.32101e-05
57 *140:19 *707:16 0.000207166
58 *140:47 *707:12 5.41385e-05
59 *140:47 *707:106 9.74625e-05
60 *141:31 *707:27 0
61 *141:31 *707:29 0
62 *141:31 *707:35 0
63 *247:30 *2451:CLK 4.38375e-05
64 *248:44 *2451:CLK 0
65 *249:10 *2453:CLK 0
66 *249:57 *2451:CLK 6.68793e-05
67 *249:66 *2451:CLK 7.32258e-05
68 *249:81 *2451:CLK 0.000125545
69 *249:96 *2451:CLK 1.83667e-05
70 *254:6 *707:106 4.5707e-05
71 *254:21 *707:119 0
72 *266:10 *707:50 0
73 *524:8 *707:12 0
74 *530:29 *2451:CLK 0.000156379
75 *530:29 *707:119 0.000212621
76 *531:10 *2451:CLK 0
77 *532:8 *2451:CLK 0
78 *541:24 *707:106 9.84851e-05
79 *548:27 *707:106 4.39152e-05
80 *549:10 *707:106 9.84851e-05
81 *551:10 *707:119 0
82 *552:22 *2452:CLK 5.19675e-05
83 *553:10 *707:106 0.000269781
84 *563:10 *707:106 0.000136743
85 *576:12 *2452:CLK 7.77758e-05
86 *580:42 *707:35 6.28488e-05
87 *590:8 *2482:CLK 0
88 *591:8 *2479:CLK 0.000100733
89 *624:12 *707:27 0.000137061
90 *624:12 *707:35 0.000131077
91 *650:37 *707:27 0.00021622
92 *654:20 *2532:CLK 2.93747e-05
93 *658:8 *2532:CLK 5.50049e-05
*RES
1 *2561:X *707:4 23 
2 *707:4 *707:12 39.425 
3 *707:12 *707:16 6.35929 
4 *707:16 *2535:CLK 28.8621 
5 *707:16 *707:27 23.5964 
6 *707:27 *707:29 2.96214 
7 *707:29 *707:35 25.6471 
8 *707:35 *2480:CLK 23 
9 *707:35 *707:46 4.59857 
10 *707:46 *707:50 20.4271 
11 *707:50 *2482:CLK 44.4421 
12 *707:50 *2479:CLK 40.0507 
13 *707:46 *2481:CLK 29.3386 
14 *707:29 *2533:CLK 42.4329 
15 *707:27 *2532:CLK 38.6214 
16 *707:12 *2568:A 23.6214 
17 *707:4 *707:106 32.2964 
18 *707:106 *2453:CLK 45.1671 
19 *707:106 *707:119 3.66643 
20 *707:119 *2452:CLK 39.5743 
21 *707:119 *2451:CLK 49.0614 
*END

*D_NET *708 0.0250665
*CONN
*I *2464:CLK I *D sky130_fd_sc_hd__dfrtp_1
*I *2521:CLK I *D sky130_fd_sc_hd__dfrtp_1
*I *2520:CLK I *D sky130_fd_sc_hd__dfrtp_1
*I *2523:CLK I *D sky130_fd_sc_hd__dfrtp_1
*I *2460:CLK I *D sky130_fd_sc_hd__dfrtp_1
*I *2522:CLK I *D sky130_fd_sc_hd__dfrtp_2
*I *2462:CLK I *D sky130_fd_sc_hd__dfrtp_1
*I *2459:CLK I *D sky130_fd_sc_hd__dfrtp_1
*I *2458:CLK I *D sky130_fd_sc_hd__dfrtp_1
*I *2569:A I *D sky130_fd_sc_hd__inv_8
*I *2562:X O *D sky130_fd_sc_hd__clkbuf_16
*CAP
1 *2464:CLK 0
2 *2521:CLK 9.15865e-05
3 *2520:CLK 0.0004574
4 *2523:CLK 0.000129307
5 *2460:CLK 0
6 *2522:CLK 0.000122963
7 *2462:CLK 0
8 *2459:CLK 0
9 *2458:CLK 0
10 *2569:A 0.000110856
11 *2562:X 0
12 *708:137 0.0012804
13 *708:109 0.00104341
14 *708:96 0.00154373
15 *708:67 0.000615441
16 *708:48 0.00170792
17 *708:41 0.00172684
18 *708:35 0.00137704
19 *708:29 0.000653912
20 *708:25 0.00187407
21 *708:21 0.00241469
22 *708:6 0.000325293
23 *2521:CLK *759:27 7.95668e-05
24 *708:25 *2460:RESET_B 0.00013273
25 *708:35 *716:18 0.000662971
26 *708:35 *761:102 0
27 *708:48 *2459:RESET_B 0.000167959
28 *708:67 *2459:RESET_B 1.76557e-05
29 *708:67 *737:28 0.000377191
30 *708:96 *2523:RESET_B 0.000215778
31 *708:96 *763:20 0.000287339
32 *708:109 *2173:A1 0.000167412
33 *708:109 *2174:A1 0.00011631
34 *708:109 *752:101 0.000289652
35 *708:109 *759:27 1.79187e-05
36 *708:137 *2021:B1 0
37 *708:137 *730:33 0
38 *708:137 *732:12 0.000222113
39 *708:137 *736:8 0
40 *708:137 *736:10 0
41 *708:137 *747:12 0
42 *708:137 *747:16 9.52902e-05
43 *2017:B1 *708:137 0
44 *2018:A1 *708:21 8.30566e-06
45 *2018:A2 *708:21 1.11286e-05
46 *2018:B1 *708:137 9.4064e-05
47 *2024:B1 *708:137 2.11066e-05
48 *2029:A1 *708:25 9.84794e-05
49 *2029:A1 *708:137 8.43466e-05
50 *2030:B1 *2569:A 6.502e-05
51 *2031:C *708:137 9.67842e-05
52 *2098:B *708:96 5.72519e-05
53 *2142:A *2520:CLK 0.000221084
54 *2148:A *2520:CLK 0.000231427
55 *2152:C *708:35 0
56 *2173:A2 *708:109 0.000482051
57 *2183:A2 *708:35 3.22939e-05
58 *2460:D *708:25 0.000141173
59 *2462:D *708:67 2.93747e-05
60 *2522:D *2522:CLK 2.93747e-05
61 *2522:D *708:35 0.00010403
62 *2522:D *708:41 3.0647e-05
63 *188:12 *708:29 1.12487e-05
64 *189:35 *708:35 0.000185755
65 *199:21 *2520:CLK 6.08617e-05
66 *199:29 *2520:CLK 9.62764e-05
67 *202:6 *2523:CLK 6.94128e-05
68 *202:19 *2523:CLK 7.18634e-06
69 *202:19 *708:96 1.30878e-05
70 *202:19 *708:109 0.00039404
71 *213:10 *2520:CLK 5.67058e-05
72 *214:21 *708:35 4.39814e-05
73 *220:31 *708:21 3.35885e-06
74 *221:78 *708:137 0.000375948
75 *223:10 *2569:A 2.24973e-05
76 *223:10 *708:21 6.58768e-05
77 *224:10 *708:25 2.43944e-05
78 *224:29 *708:137 1.15883e-05
79 *226:43 *708:21 2.26406e-05
80 *235:14 *708:67 6.12996e-05
81 *235:28 *708:67 3.45717e-05
82 *237:21 *708:67 0
83 *237:38 *708:67 0.000144221
84 *319:44 *708:21 0
85 *319:69 *2569:A 5.67058e-05
86 *319:69 *708:67 5.50106e-05
87 *320:66 *708:25 6.0514e-05
88 *320:66 *708:35 0.000107238
89 *320:75 *708:25 1.08052e-05
90 *320:85 *708:21 3.00219e-05
91 *322:71 *708:137 0.000310212
92 *325:20 *708:21 4.84419e-05
93 *326:12 *708:137 0
94 *326:38 *708:137 6.33511e-05
95 *332:54 *708:137 0.000101657
96 *369:10 *708:137 7.8128e-05
97 *371:18 *2569:A 3.76959e-05
98 *371:18 *708:21 1.20966e-05
99 *372:8 *708:137 0
100 *374:14 *708:137 4.49313e-06
101 *377:10 *708:137 5.61255e-06
102 *382:10 *708:67 5.09988e-05
103 *386:27 *708:137 0.000124075
104 *410:8 *708:67 3.54812e-05
105 *412:10 *708:67 1.03955e-05
106 *417:6 *2569:A 5.50106e-05
107 *420:10 *2569:A 0.000164968
108 *420:10 *708:21 1.05441e-05
109 *437:16 *708:96 6.28737e-05
110 *438:8 *708:29 3.54739e-05
111 *438:8 *708:96 0.000275938
112 *438:16 *708:35 0.000387169
113 *451:74 *708:35 0.000135037
114 *466:20 *2520:CLK 0.000132031
115 *466:24 *2520:CLK 1.03836e-05
116 *467:20 *2520:CLK 0.000108831
117 *470:27 *708:29 2.85696e-05
118 *470:27 *708:96 5.31437e-05
119 *471:23 *708:109 0.000138727
120 *474:8 *708:35 8.33951e-06
121 *475:8 *708:35 4.30802e-05
122 *490:10 *2521:CLK 3.71136e-05
123 *490:10 *708:109 9.4537e-06
124 *501:12 *708:35 2.26406e-05
125 *701:10 *708:41 0
126 *701:12 *2522:CLK 0.000269775
127 *701:89 *708:67 6.84987e-06
*RES
1 *2562:X *708:6 38 
2 *708:6 *2569:A 41.5836 
3 *708:6 *708:21 18.6664 
4 *708:21 *708:25 27.5321 
5 *708:25 *708:29 15.8493 
6 *708:29 *708:35 30.9707 
7 *708:35 *708:41 26.5586 
8 *708:41 *2458:CLK 23 
9 *708:41 *708:48 19.2021 
10 *708:48 *2459:CLK 23 
11 *708:48 *708:67 43.1121 
12 *708:67 *2462:CLK 23 
13 *708:35 *2522:CLK 41.5007 
14 *708:29 *2460:CLK 23 
15 *708:25 *708:96 29.9971 
16 *708:96 *2523:CLK 25.0714 
17 *708:96 *708:109 29.2307 
18 *708:109 *2520:CLK 49.2686 
19 *708:109 *2521:CLK 40.2579 
20 *708:21 *708:137 39.6293 
21 *708:137 *2464:CLK 38 
*END

*D_NET *709 0.0127114
*CONN
*I *2465:CLK I *D sky130_fd_sc_hd__dfrtp_1
*I *2466:CLK I *D sky130_fd_sc_hd__dfrtp_1
*I *2463:CLK I *D sky130_fd_sc_hd__dfrtp_1
*I *2468:CLK I *D sky130_fd_sc_hd__dfrtp_1
*I *2461:CLK I *D sky130_fd_sc_hd__dfrtp_1
*I *2467:CLK I *D sky130_fd_sc_hd__dfrtp_1
*I *2570:A I *D sky130_fd_sc_hd__clkinv_4
*I *2469:CLK I *D sky130_fd_sc_hd__dfrtp_1
*I *2455:CLK I *D sky130_fd_sc_hd__dfrtp_1
*I *2457:CLK I *D sky130_fd_sc_hd__dfrtp_2
*I *2450:CLK I *D sky130_fd_sc_hd__dfrtp_1
*I *2454:CLK I *D sky130_fd_sc_hd__dfrtp_1
*I *2456:CLK I *D sky130_fd_sc_hd__dfrtp_4
*I *2563:X O *D sky130_fd_sc_hd__clkbuf_16
*CAP
1 *2465:CLK 0.000498683
2 *2466:CLK 0
3 *2463:CLK 0.000159482
4 *2468:CLK 3.2539e-05
5 *2461:CLK 0
6 *2467:CLK 0.000254651
7 *2570:A 0.000235342
8 *2469:CLK 0.000239232
9 *2455:CLK 8.52535e-05
10 *2457:CLK 0
11 *2450:CLK 0.000466537
12 *2454:CLK 0.000450121
13 *2456:CLK 4.24511e-05
14 *2563:X 0
15 *709:134 0.000528021
16 *709:117 0.000713539
17 *709:113 0.001034
18 *709:100 0.000332729
19 *709:87 0.000490552
20 *709:76 0.000627738
21 *709:65 0.000707161
22 *709:31 0.00112128
23 *709:25 0.000383266
24 *709:12 0.000364599
25 *709:10 0.000355878
26 *709:6 0.000328687
27 *2467:CLK *756:34 0.00016393
28 *709:31 *2459:RESET_B 5.10805e-05
29 *709:31 *754:72 7.59794e-05
30 *709:117 *2465:RESET_B 0.000166278
31 *709:117 *737:89 0.000247687
32 *709:117 *737:98 0.000258087
33 *709:134 *2465:RESET_B 3.82852e-05
34 *709:134 *2466:RESET_B 4.08537e-05
35 *709:134 *755:44 0.000135162
36 *2073:B *709:100 0.000194318
37 *2073:B *709:113 8.15327e-05
38 *2087:B *709:76 0
39 *2087:B *709:87 0
40 *2087:B *709:100 0
41 *2087:C *2570:A 0.000131919
42 *2091:C *2469:CLK 4.41689e-05
43 *2456:D *709:10 0
44 *2456:D *709:65 0
45 *2465:D *2465:CLK 0.000167478
46 *2465:D *709:113 5.79715e-05
47 *217:10 *709:134 4.99753e-06
48 *217:12 *709:117 5.86328e-05
49 *217:12 *709:134 1.97329e-05
50 *217:49 *2468:CLK 2.93845e-05
51 *226:8 *709:76 0.000371872
52 *226:8 *709:87 0.000121009
53 *230:8 *709:65 0
54 *230:8 *709:76 0
55 *235:48 *709:25 0
56 *235:48 *709:31 2.83927e-05
57 *244:10 *2469:CLK 2.64616e-05
58 *244:10 *709:10 0
59 *244:10 *709:65 0
60 *362:10 *2454:CLK 0
61 *362:10 *709:31 0
62 *399:40 *709:117 0.000352556
63 *419:14 *2469:CLK 3.22879e-05
64 *419:14 *709:76 1.47563e-05
65 *419:14 *709:87 3.19083e-05
66 *419:14 *709:100 0.000105072
67 *419:14 *709:113 0.000169665
68 *421:8 *709:76 3.81742e-05
69 *423:10 *709:65 0
70 *423:10 *709:76 0
*RES
1 *2563:X *709:6 38 
2 *709:6 *709:10 17.2579 
3 *709:10 *709:12 2.52714 
4 *709:12 *2456:CLK 23.6214 
5 *709:12 *709:25 32.61 
6 *709:25 *709:31 19.5364 
7 *709:31 *2454:CLK 45.8714 
8 *709:31 *2450:CLK 46.2443 
9 *709:25 *2457:CLK 23 
10 *709:10 *2455:CLK 24.5743 
11 *709:6 *709:65 3.66643 
12 *709:65 *2469:CLK 42.4329 
13 *709:65 *709:76 6.13143 
14 *709:76 *2570:A 42.9093 
15 *709:76 *709:87 2.61 
16 *709:87 *2467:CLK 42.9093 
17 *709:87 *709:100 3.58357 
18 *709:100 *2461:CLK 38 
19 *709:100 *709:113 19.3086 
20 *709:113 *709:117 24.3007 
21 *709:117 *2468:CLK 38.6214 
22 *709:117 *709:134 21.1107 
23 *709:134 *2463:CLK 25.5271 
24 *709:134 *2466:CLK 23 
25 *709:113 *2465:CLK 30.1879 
*END

*D_NET *710 0.00193417
*CONN
*I *2359:A I *D sky130_fd_sc_hd__nor2_1
*I *2606:X O *D sky130_fd_sc_hd__clkbuf_1
*CAP
1 *2359:A 0
2 *2606:X 0.000631208
3 *710:12 0.000631208
4 *831:DIODE *710:12 5.67058e-05
5 *2005:A *710:12 1.37232e-05
6 *108:20 *710:12 4.24988e-05
7 *108:28 *710:12 5.38249e-05
8 *303:10 *710:12 0.000230604
9 *700:12 *710:12 0.000274394
*RES
1 *2606:X *710:12 37.6243 
2 *710:12 *2359:A 23 
*END

*D_NET *711 0.00325918
*CONN
*I *1966:A I *D sky130_fd_sc_hd__inv_2
*I *2108:A1 I *D sky130_fd_sc_hd__o221a_1
*I *2607:X O *D sky130_fd_sc_hd__buf_1
*CAP
1 *1966:A 0
2 *2108:A1 0.00015198
3 *2607:X 0.000165424
4 *711:10 0.000621892
5 *711:8 0.000635336
6 *2108:A1 *738:133 0.000111864
7 *711:8 *727:10 4.97789e-05
8 *711:10 *1967:A 0
9 *711:10 *2517:RESET_B 1.17049e-05
10 *711:10 *716:78 0
11 *711:10 *727:12 0
12 *711:10 *738:65 2.72055e-05
13 *711:10 *738:131 5.94125e-05
14 *711:10 *738:133 2.95125e-05
15 *2132:A *711:10 4.07715e-05
16 *2607:A *711:8 3.22879e-05
17 *319:23 *2108:A1 8.72173e-05
18 *322:30 *2108:A1 5.67058e-05
19 *442:10 *2108:A1 7.33614e-05
20 *445:20 *2108:A1 3.1858e-05
21 *445:20 *711:10 0.000104602
22 *460:8 *711:10 0.000533542
23 *461:14 *711:10 0.000296937
24 *462:10 *711:10 0.000137788
*RES
1 *2607:X *711:8 40.5271 
2 *711:8 *711:10 13.1743 
3 *711:10 *2108:A1 41.9357 
4 *711:10 *1966:A 38 
*END

*D_NET *712 0.00065401
*CONN
*I *2542:D I *D sky130_fd_sc_hd__dfstp_1
*I *2591:X O *D sky130_fd_sc_hd__dlygate4sd3_1
*CAP
1 *2542:D 0
2 *2591:X 0.000245527
3 *712:10 0.000245527
4 *712:10 *749:35 0
5 *2528:CLK *712:10 9.01041e-05
6 *176:10 *712:10 7.28526e-05
*RES
1 *2591:X *712:10 42.4329 
2 *712:10 *2542:D 38 
*END

*D_NET *713 0.000799975
*CONN
*I *2543:D I *D sky130_fd_sc_hd__dfstp_1
*I *2598:X O *D sky130_fd_sc_hd__dlygate4sd3_1
*CAP
1 *2543:D 0.000230868
2 *2598:X 9.81952e-05
3 *713:8 0.000329063
4 *713:8 *2508:RESET_B 8.51432e-05
5 *704:95 *713:8 0
6 *704:108 *2543:D 5.67058e-05
7 *704:108 *713:8 0
*RES
1 *2598:X *713:8 40.2579 
2 *713:8 *2543:D 42.4329 
*END

*D_NET *714 0.000892881
*CONN
*I *2380:A1 I *D sky130_fd_sc_hd__a221o_1
*I *2599:X O *D sky130_fd_sc_hd__dlygate4sd3_1
*CAP
1 *2380:A1 0
2 *2599:X 0.000145102
3 *714:10 0.000145102
4 *714:10 *742:6 0.000136743
5 *114:14 *714:10 3.46351e-05
6 *315:21 *714:10 0.000136743
7 *632:10 *714:10 0.000110913
8 *651:10 *714:10 0.000183643
*RES
1 *2599:X *714:10 42.1843 
2 *714:10 *2380:A1 38 
*END

*D_NET *715 0.00054551
*CONN
*I *2379:A1 I *D sky130_fd_sc_hd__mux2_1
*I *2600:X O *D sky130_fd_sc_hd__dlygate4sd3_1
*CAP
1 *2379:A1 2.86541e-05
2 *2600:X 0.000115035
3 *715:8 0.00014369
4 *715:8 *751:28 0.000191157
5 *2524:CLK *2379:A1 5.50049e-05
6 *114:14 *715:8 0
7 *705:52 *715:8 1.19692e-05
*RES
1 *2600:X *715:8 40.61 
2 *715:8 *2379:A1 38.6214 
*END

*D_NET *716 0.0146833
*CONN
*I *2170:B2 I *D sky130_fd_sc_hd__a221o_1
*I *2099:A I *D sky130_fd_sc_hd__xor2_1
*I *2168:A1 I *D sky130_fd_sc_hd__o22ai_1
*I *2082:A I *D sky130_fd_sc_hd__xnor2_1
*I *2022:B I *D sky130_fd_sc_hd__xor2_1
*I *2608:X O *D sky130_fd_sc_hd__clkbuf_2
*CAP
1 *2170:B2 0
2 *2099:A 4.01156e-05
3 *2168:A1 0
4 *2082:A 0.000240415
5 *2022:B 0
6 *2608:X 0.000205037
7 *716:78 0.000536044
8 *716:58 0.00025528
9 *716:52 0.000466594
10 *716:50 0.00239617
11 *716:28 0.000244149
12 *716:20 0.000759819
13 *716:18 0.00189199
14 *716:10 0.0035107
15 *2082:A *761:30 8.638e-05
16 *716:10 *759:27 0
17 *716:10 *760:8 5.50049e-05
18 *716:10 *763:14 0
19 *716:18 *2175:A1 0
20 *716:18 *758:33 0
21 *716:18 *759:27 0
22 *716:18 *763:14 0
23 *716:28 *2522:RESET_B 5.41385e-05
24 *716:28 *756:150 5.29672e-05
25 *716:50 *731:14 1.76557e-05
26 *716:50 *731:20 0.000137625
27 *716:50 *759:27 5.60406e-05
28 *716:58 *1967:A 0
29 *716:78 *1967:A 0
30 *716:78 *738:65 0.000160386
31 *2082:B *2082:A 2.93845e-05
32 *2082:B *716:28 0
33 *2099:B *2099:A 0
34 *2112:B *716:52 4.05309e-05
35 *2152:A *716:20 0.000145784
36 *2152:B *716:18 4.55358e-05
37 *2152:C *716:18 0
38 *2152:C *716:20 0.000185428
39 *2167:A *716:78 0.000163343
40 *2170:A1 *716:78 5.56539e-06
41 *2175:A2 *716:18 0
42 *2178:B *716:78 4.6318e-06
43 *187:64 *716:18 0.00086549
44 *188:23 *716:18 4.13418e-05
45 *194:10 *716:58 0
46 *194:32 *716:58 0
47 *196:8 *716:18 3.5664e-05
48 *196:12 *716:18 1.62015e-05
49 *199:29 *716:18 9.32422e-05
50 *200:10 *716:28 0
51 *200:38 *716:18 0
52 *200:47 *716:18 0
53 *209:10 *716:78 5.01247e-05
54 *213:10 *716:10 0
55 *320:18 *716:58 2.50227e-05
56 *320:46 *716:58 0
57 *320:46 *716:78 0
58 *434:10 *716:18 6.43253e-05
59 *443:10 *716:58 1.47563e-05
60 *444:10 *716:52 0.000313255
61 *444:10 *716:58 0.000169665
62 *445:20 *716:78 0
63 *451:82 *716:18 6.32688e-05
64 *466:41 *716:10 0
65 *466:41 *716:18 0
66 *472:10 *716:18 0
67 *475:8 *716:18 0
68 *484:8 *716:78 3.56433e-05
69 *488:14 *716:78 1.37349e-05
70 *489:22 *716:18 0
71 *490:10 *716:50 0.000315852
72 *701:64 *716:28 0.000111852
73 *705:115 *716:58 4.21594e-06
74 *708:35 *716:18 0.000662971
75 *711:10 *716:78 0
*RES
1 *2608:X *716:10 41.5836 
2 *716:10 *716:18 46.5479 
3 *716:18 *716:20 5.86214 
4 *716:20 *716:28 35.1371 
5 *716:28 *2022:B 23 
6 *716:20 *2082:A 27.4536 
7 *716:10 *716:50 39.1321 
8 *716:50 *716:52 4.43286 
9 *716:52 *716:58 35.075 
10 *716:58 *2168:A1 23 
11 *716:52 *2099:A 23.8493 
12 *716:50 *716:78 40.8595 
13 *716:78 *2170:B2 23 
*END

*D_NET *717 9.61776e-05
*CONN
*I *2392:A I *D sky130_fd_sc_hd__nand2_1
*I *2601:X O *D sky130_fd_sc_hd__dlygate4sd3_1
*CAP
1 *2392:A 4.50016e-05
2 *2601:X 4.50016e-05
3 *2392:A *739:101 6.17437e-06
*RES
1 *2601:X *2392:A 46.6214 
*END

*D_NET *718 0.00181078
*CONN
*I *2441:A1 I *D sky130_fd_sc_hd__a21o_1
*I *2439:A1 I *D sky130_fd_sc_hd__a21oi_1
*I *2602:X O *D sky130_fd_sc_hd__dlygate4sd3_1
*CAP
1 *2441:A1 9.85106e-05
2 *2439:A1 0
3 *2602:X 0.000115567
4 *718:12 0.000320432
5 *718:6 0.000534509
6 *2441:A1 *762:54 5.79559e-05
7 *718:12 *720:10 4.08537e-05
8 *2441:B1 *2441:A1 2.93845e-05
9 *2441:B1 *718:6 6.17437e-06
10 *110:43 *718:12 0
11 *111:22 *718:12 0
12 *304:10 *718:6 9.84794e-05
13 *630:8 *718:12 0
14 *634:10 *718:12 0
15 *699:14 *718:12 0.000508916
*RES
1 *2602:X *718:6 24.5743 
2 *718:6 *718:12 36.8357 
3 *718:12 *2439:A1 23 
4 *718:6 *2441:A1 24.5743 
*END

*D_NET *719 0.00123126
*CONN
*I *1985:A I *D sky130_fd_sc_hd__inv_2
*I *2603:X O *D sky130_fd_sc_hd__dlygate4sd3_1
*CAP
1 *1985:A 0
2 *2603:X 0.000314333
3 *719:10 0.000314333
4 *719:10 *733:83 0
5 *338:10 *719:10 0.000237012
6 *579:27 *719:10 0.000365586
*RES
1 *2603:X *719:10 44.6493 
2 *719:10 *1985:A 38 
*END

*D_NET *720 0.000529364
*CONN
*I *2439:B1 I *D sky130_fd_sc_hd__a21oi_1
*I *2604:X O *D sky130_fd_sc_hd__dlygate4sd3_1
*CAP
1 *2439:B1 0
2 *2604:X 0.000217486
3 *720:10 0.000217486
4 *111:6 *720:10 4.57742e-05
5 *699:14 *720:10 7.76364e-06
6 *718:12 *720:10 4.08537e-05
*RES
1 *2604:X *720:10 41.1279 
2 *720:10 *2439:B1 38 
*END

*D_NET *721 0.000120432
*CONN
*I *2436:B2 I *D sky130_fd_sc_hd__a32o_1
*I *2605:X O *D sky130_fd_sc_hd__dlygate4sd3_1
*CAP
1 *2436:B2 1.80182e-05
2 *2605:X 1.80182e-05
3 *2436:B2 *752:14 5.50106e-05
4 *579:27 *2436:B2 2.93845e-05
*RES
1 *2605:X *2436:B2 46.6214 
*END

*D_NET *722 0.00152885
*CONN
*I *2383:A1 I *D sky130_fd_sc_hd__a211o_1
*I *2592:X O *D sky130_fd_sc_hd__dlygate4sd3_1
*CAP
1 *2383:A1 0.000127173
2 *2592:X 0.000216633
3 *722:8 0.000343805
4 *2375:A *2383:A1 2.61645e-05
5 *2376:A0 *2383:A1 0.00010018
6 *2376:S *722:8 1.58805e-05
7 *2383:A2 *2383:A1 0.000137618
8 *2383:B1 *2383:A1 5.90675e-06
9 *2383:C1 *2383:A1 4.9662e-05
10 *358:10 *722:8 0
11 *635:25 *2383:A1 0.000345193
12 *635:42 *722:8 0.000106506
13 *646:16 *2383:A1 5.41288e-05
*RES
1 *2592:X *722:8 42.3707 
2 *722:8 *2383:A1 43.4064 
*END

*D_NET *723 0.000100881
*CONN
*I *2263:A I *D sky130_fd_sc_hd__nor3_1
*I *2593:X O *D sky130_fd_sc_hd__dlygate4sd3_1
*CAP
1 *2263:A 3.57483e-05
2 *2593:X 3.57483e-05
3 *2261:B_N *2263:A 6.17437e-06
4 *246:12 *2263:A 2.32101e-05
*RES
1 *2593:X *2263:A 46.6214 
*END

*D_NET *724 0.00122181
*CONN
*I *2188:A1 I *D sky130_fd_sc_hd__o21bai_1
*I *2594:X O *D sky130_fd_sc_hd__dlygate4sd3_1
*CAP
1 *2188:A1 4.09773e-05
2 *2594:X 0.000275262
3 *724:10 0.000316239
4 *2188:A1 *2528:RESET_B 0.000146195
5 *2188:A1 *2531:RESET_B 1.32314e-05
6 *2438:C *724:10 9.03784e-05
7 *163:22 *724:10 0.000231381
8 *164:8 *2188:A1 3.42398e-05
9 *164:25 *724:10 7.39034e-05
*RES
1 *2594:X *724:10 42.785 
2 *724:10 *2188:A1 39.5743 
*END

*D_NET *725 0.000680153
*CONN
*I *2072:A1 I *D sky130_fd_sc_hd__a21oi_1
*I *2595:X O *D sky130_fd_sc_hd__dlygate4sd3_1
*CAP
1 *2072:A1 0.000225625
2 *2595:X 0.000225625
3 *2072:A1 *754:130 0.000228903
*RES
1 *2595:X *2072:A1 49.48 
*END

*D_NET *726 0.000233417
*CONN
*I *2384:B2 I *D sky130_fd_sc_hd__a2bb2o_1
*I *2596:X O *D sky130_fd_sc_hd__dlygate4sd3_1
*CAP
1 *2384:B2 2.78975e-05
2 *2596:X 2.78975e-05
3 *2194:B *2384:B2 9.88259e-05
4 *504:44 *2384:B2 5.56279e-05
5 *505:16 *2384:B2 2.31687e-05
*RES
1 *2596:X *2384:B2 47.0979 
*END

*D_NET *727 0.00274869
*CONN
*I *2111:A I *D sky130_fd_sc_hd__nand2_1
*I *2112:A I *D sky130_fd_sc_hd__or2_1
*I *1967:A I *D sky130_fd_sc_hd__inv_2
*I *2609:X O *D sky130_fd_sc_hd__buf_1
*CAP
1 *2111:A 0.000229118
2 *2112:A 0
3 *1967:A 0.000231918
4 *2609:X 0.000647175
5 *727:12 0.000363609
6 *727:10 0.00100798
7 *2607:A *727:10 7.88926e-05
8 *2609:A *727:10 2.93845e-05
9 *443:10 *1967:A 0
10 *443:10 *2111:A 5.41288e-05
11 *443:10 *727:12 0
12 *445:12 *1967:A 5.67058e-05
13 *711:8 *727:10 4.97789e-05
14 *711:10 *1967:A 0
15 *711:10 *727:12 0
16 *716:58 *1967:A 0
17 *716:78 *1967:A 0
*RES
1 *2609:X *727:10 49.4757 
2 *727:10 *727:12 2.25786 
3 *727:12 *1967:A 42.2879 
4 *727:12 *2112:A 38 
5 *727:10 *2111:A 42.4329 
*END

*D_NET *728 0.000575481
*CONN
*I *1995:A1 I *D sky130_fd_sc_hd__o21a_1
*I *2597:X O *D sky130_fd_sc_hd__dlygate4sd3_1
*CAP
1 *1995:A1 0
2 *2597:X 0.000207332
3 *728:10 0.000207332
4 *728:10 *750:67 0.000137788
5 *1988:B *728:10 0
6 *178:6 *728:10 2.30292e-05
7 *179:20 *728:10 0
*RES
1 *2597:X *728:10 41.48 
2 *728:10 *1995:A1 38 
*END

*D_NET *729 0.0110616
*CONN
*I *1969:A I *D sky130_fd_sc_hd__inv_2
*I *2028:A2 I *D sky130_fd_sc_hd__o221a_1
*I *2074:A I *D sky130_fd_sc_hd__xnor2_1
*I *2166:B1 I *D sky130_fd_sc_hd__o31a_1
*I *2610:X O *D sky130_fd_sc_hd__clkbuf_2
*CAP
1 *1969:A 0
2 *2028:A2 0.000174192
3 *2074:A 8.49e-05
4 *2166:B1 0
5 *2610:X 0.000551828
6 *729:43 0.000999033
7 *729:35 0.000968031
8 *729:24 0.00105625
9 *729:10 0.00128434
10 *729:8 0.000551828
11 *729:8 *738:114 0.000202413
12 *729:8 *758:8 0
13 *729:8 *758:16 4.54033e-05
14 *729:8 *760:14 0
15 *729:8 *761:18 0
16 *729:24 *758:16 3.3577e-05
17 *729:35 *1978:A 0
18 *729:35 *758:16 6.88885e-05
19 *729:35 *760:14 0
20 *729:43 *1978:A 0
21 *729:43 *2106:A1 0
22 *729:43 *730:45 8.37605e-05
23 *729:43 *756:173 0
24 *729:43 *756:196 0
25 *729:43 *760:20 5.29514e-05
26 *729:43 *761:18 0
27 *2028:A1 *2028:A2 5.3304e-05
28 *2074:B *729:43 9.27314e-05
29 *2131:A *729:24 5.67058e-05
30 *2131:B *729:24 5.67058e-05
31 *2136:A *729:24 0.000978971
32 *2136:B *729:24 0.000198498
33 *2144:B *729:8 4.66655e-05
34 *2181:B *729:8 5.08795e-05
35 *195:77 *729:24 5.50106e-05
36 *196:25 *729:24 0.000394988
37 *198:18 *729:8 8.51329e-05
38 *238:12 *729:43 8.43591e-05
39 *321:10 *729:43 0.000147636
40 *322:16 *729:35 6.38845e-05
41 *322:16 *729:43 0.000200963
42 *364:8 *729:43 0.000188654
43 *376:10 *2028:A2 9.31593e-05
44 *451:82 *729:24 0.00034721
45 *457:23 *729:24 0.000238305
46 *457:25 *729:24 1.03833e-05
47 *457:41 *729:24 9.24795e-06
48 *457:53 *729:24 6.25714e-05
49 *489:16 *729:24 0.00136023
50 *701:72 *2028:A2 2.79662e-05
*RES
1 *2610:X *729:8 49.0614 
2 *729:8 *729:10 15 
3 *729:10 *729:24 30.6571 
4 *729:24 *2166:B1 23 
5 *729:10 *729:35 19.3086 
6 *729:35 *729:43 30.3493 
7 *729:43 *2074:A 24.5743 
8 *729:43 *2028:A2 26.5007 
9 *729:35 *1969:A 38 
*END

*D_NET *730 0.00829111
*CONN
*I *2019:A2 I *D sky130_fd_sc_hd__o22a_1
*I *1971:A I *D sky130_fd_sc_hd__inv_2
*I *2103:B2 I *D sky130_fd_sc_hd__o221a_1
*I *2079:A I *D sky130_fd_sc_hd__xnor2_1
*I *2611:X O *D sky130_fd_sc_hd__clkbuf_2
*CAP
1 *2019:A2 0
2 *1971:A 0
3 *2103:B2 0
4 *2079:A 0.000310993
5 *2611:X 0
6 *730:45 0.000595504
7 *730:33 0.00114072
8 *730:23 0.000849281
9 *730:8 0.00138535
10 *730:6 0.000770282
11 *730:8 *2464:RESET_B 0
12 *730:8 *747:12 0
13 *730:45 *2106:A1 4.21594e-06
14 *730:45 *747:26 4.91388e-05
15 *730:45 *763:20 5.58873e-06
16 *1970:A *2079:A 1.05441e-05
17 *2017:B1 *730:33 2.47304e-05
18 *2024:A1_N *730:23 7.27182e-05
19 *2024:A1_N *730:33 6.53382e-05
20 *2024:B2 *730:33 0.000642607
21 *2055:C1 *730:8 0.000563221
22 *2571:A *2079:A 8.72173e-05
23 *2571:A *730:8 1.01436e-05
24 *196:25 *730:45 2.47015e-05
25 *217:63 *2079:A 0.000373753
26 *217:63 *730:23 0.000144221
27 *227:8 *730:8 0
28 *227:10 *730:8 0
29 *228:10 *730:8 0
30 *242:8 *730:8 6.88715e-05
31 *322:16 *730:45 0.000201409
32 *324:8 *730:33 5.50106e-05
33 *324:20 *730:45 3.9353e-05
34 *327:19 *730:8 0.000163361
35 *330:61 *730:33 0.000438462
36 *331:27 *730:33 9.91798e-05
37 *363:10 *730:8 0
38 *367:8 *2079:A 0
39 *367:8 *730:8 0
40 *372:8 *730:33 1.14452e-05
41 *375:8 *730:8 0
42 *708:137 *730:33 0
43 *729:43 *730:45 8.37605e-05
*RES
1 *2611:X *730:6 38 
2 *730:6 *730:8 15.6393 
3 *730:8 *2079:A 44.5871 
4 *730:8 *730:23 19.4329 
5 *730:23 *730:33 42.4493 
6 *730:33 *730:45 35.3653 
7 *730:45 *2103:B2 38 
8 *730:33 *1971:A 23 
9 *730:23 *2019:A2 23 
*END

*D_NET *731 0.0145499
*CONN
*I *2172:A I *D sky130_fd_sc_hd__xnor2_1
*I *2095:A_N I *D sky130_fd_sc_hd__nand2b_1
*I *2094:B I *D sky130_fd_sc_hd__nand2b_1
*I *2078:B2 I *D sky130_fd_sc_hd__a221o_1
*I *1972:A I *D sky130_fd_sc_hd__inv_2
*I *2083:B2 I *D sky130_fd_sc_hd__o22a_1
*I *2612:X O *D sky130_fd_sc_hd__clkbuf_2
*CAP
1 *2172:A 0
2 *2095:A_N 0
3 *2094:B 1.33989e-05
4 *2078:B2 5.20188e-05
5 *1972:A 1.17411e-05
6 *2083:B2 0
7 *2612:X 0.000455431
8 *731:47 0.000152258
9 *731:36 0.00276636
10 *731:22 0.00295885
11 *731:20 0.00116069
12 *731:14 0.000919842
13 *731:10 0.000482178
14 *731:10 *759:8 0
15 *731:10 *760:8 0.000240007
16 *731:20 *2138:A 0
17 *731:20 *2519:RESET_B 4.68153e-05
18 *731:20 *738:80 0
19 *731:22 *738:133 0
20 *731:36 *2525:RESET_B 0.000603499
21 *731:36 *738:145 0
22 *731:36 *759:115 0.000466548
23 *2078:C1 *2078:B2 9.84851e-05
24 *2083:A1 *731:36 1.69668e-05
25 *2083:A1 *731:47 5.50049e-05
26 *2083:B1 *2078:B2 4.52618e-05
27 *2083:B1 *731:47 0.000146457
28 *2094:A_N *731:22 7.70761e-05
29 *2107:A1 *731:36 5.44764e-05
30 *2110:B1 *731:22 0
31 *2131:A *731:20 1.02561e-05
32 *2132:A *731:20 0
33 *2179:A *731:22 6.85472e-05
34 *2179:A *731:36 1.90943e-05
35 *2612:A *731:10 9.84851e-05
36 *2618:A *731:10 9.84851e-05
37 *2619:A *731:10 1.19796e-05
38 *195:8 *731:20 0
39 *195:12 *731:20 0
40 *195:18 *731:20 0
41 *196:54 *731:20 6.48142e-05
42 *197:10 *731:20 3.99845e-05
43 *197:12 *731:20 0.000246728
44 *197:12 *731:22 6.07611e-06
45 *211:21 *731:20 0
46 *216:64 *731:36 8.08673e-05
47 *317:14 *731:36 2.38252e-05
48 *319:69 *2078:B2 0.000208831
49 *319:69 *731:47 0.000271937
50 *320:46 *2094:B 1.27898e-05
51 *320:85 *731:36 0.00066056
52 *322:16 *731:20 0
53 *322:16 *731:22 0
54 *325:10 *731:36 0.000224308
55 *371:18 *731:36 0.000562418
56 *438:24 *2094:B 2.57636e-05
57 *451:27 *731:22 8.72173e-05
58 *451:27 *731:36 0.000316555
59 *457:64 *731:20 0.000163352
60 *459:25 *731:20 0.000137324
61 *497:8 *731:22 3.62323e-05
62 *501:12 *731:36 9.48514e-05
63 *716:50 *731:14 1.76557e-05
64 *716:50 *731:20 0.000137625
*RES
1 *2612:X *731:10 48.2536 
2 *731:10 *731:14 15.6214 
3 *731:14 *731:20 33.5393 
4 *731:20 *731:22 5.77929 
5 *731:22 *731:36 46.6784 
6 *731:36 *2083:B2 23 
7 *731:36 *731:47 3.64571 
8 *731:47 *1972:A 23.4971 
9 *731:47 *2078:B2 25.553 
10 *731:22 *2094:B 38.3004 
11 *731:20 *2095:A_N 38 
12 *731:14 *2172:A 23 
*END

*D_NET *732 0.00299056
*CONN
*I *2081:A I *D sky130_fd_sc_hd__xnor2_1
*I *1973:A I *D sky130_fd_sc_hd__inv_2
*I *2109:A I *D sky130_fd_sc_hd__xor2_1
*I *2613:X O *D sky130_fd_sc_hd__dlymetal6s2s_1
*CAP
1 *2081:A 0.000772966
2 *1973:A 0
3 *2109:A 9.59755e-05
4 *2613:X 9.10546e-05
5 *732:12 0.000214815
6 *732:8 0.00098286
7 *2081:A *2464:RESET_B 9.987e-05
8 *2081:A *760:81 0.000118423
9 *2109:A *2075:A 0.000228001
10 *732:8 *747:12 2.5415e-05
11 *732:12 *736:8 0
12 *732:12 *747:12 3.59943e-05
13 *828:DIODE *732:8 0
14 *828:DIODE *732:12 0
15 *5:9 *732:8 4.21594e-06
16 *242:20 *732:12 9.88575e-05
17 *708:137 *732:12 0.000222113
*RES
1 *2613:X *732:8 39.9057 
2 *732:8 *732:12 19.0186 
3 *732:12 *2109:A 25.5271 
4 *732:12 *1973:A 23 
5 *732:8 *2081:A 48.9993 
*END

*D_NET *733 0.0198803
*CONN
*I *820:DIODE I *D sky130_fd_sc_hd__diode_2
*I *2590:A I *D sky130_fd_sc_hd__buf_2
*I *2585:A I *D sky130_fd_sc_hd__clkbuf_2
*I *814:DIODE I *D sky130_fd_sc_hd__diode_2
*I *2581:A I *D sky130_fd_sc_hd__clkbuf_2
*I *813:DIODE I *D sky130_fd_sc_hd__diode_2
*I *830:DIODE I *D sky130_fd_sc_hd__diode_2
*I *2614:X O *D sky130_fd_sc_hd__dlymetal6s2s_1
*CAP
1 *820:DIODE 0
2 *2590:A 0
3 *2585:A 0.000101584
4 *814:DIODE 0
5 *2581:A 0.000107566
6 *813:DIODE 0
7 *830:DIODE 0
8 *2614:X 0.000311629
9 *733:83 0.00195445
10 *733:73 0.00290115
11 *733:49 0.000861309
12 *733:43 0.00246505
13 *733:39 0.00203995
14 *733:29 0.00162844
15 *733:25 0.00172245
16 *733:10 0.00178256
17 *733:25 *821:DIODE 4.06849e-05
18 *733:29 *821:DIODE 8.7283e-06
19 *733:29 *2482:SET_B 6.71408e-06
20 *733:29 *757:22 1.02949e-05
21 *733:39 *2482:SET_B 0.000267463
22 *733:73 *740:10 0
23 *733:83 *739:51 0
24 *733:83 *740:10 0
25 *733:83 *752:14 0
26 gpio_oeb[26] *733:25 0
27 gpio_oeb[2] *733:25 0
28 *2293:B *733:39 0.000542093
29 *2296:B *733:73 0
30 *2313:B1 *2581:A 9.72057e-06
31 *2313:B1 *733:49 0.000136743
32 *2320:B *733:73 6.48049e-05
33 *2321:A *733:73 0.000187335
34 *2325:A1 *733:49 9.5877e-05
35 *2325:A2 *733:49 0.0001164
36 *2325:A3 *733:49 1.05775e-05
37 *2325:B1 *733:49 6.94409e-05
38 *2332:B *733:73 4.41619e-05
39 *2410:A *733:73 9.92529e-07
40 *2410:A *733:83 0.000209806
41 *2482:CLK *733:39 0.000177899
42 *2605:A *733:83 0
43 *51:8 *733:10 0
44 *117:66 *733:43 0.000137651
45 *118:23 *2581:A 0.000242019
46 *118:23 *733:49 1.40958e-05
47 *118:93 *733:39 8.4047e-05
48 *120:23 *733:73 0
49 *120:52 *733:73 0
50 *121:41 *733:39 8.62783e-05
51 *123:35 *733:83 0
52 *123:39 *733:73 0
53 *123:39 *733:83 0
54 *123:141 *733:73 0.000218952
55 *124:79 *733:73 0.000100133
56 *139:8 *733:39 4.59048e-05
57 *146:29 *733:83 0
58 *148:12 *733:83 0.000133191
59 *338:10 *733:83 0
60 *359:85 *2585:A 0.000143655
61 *359:85 *733:83 7.63554e-05
62 *579:27 *733:83 0
63 *586:10 *733:39 5.61255e-06
64 *589:12 *733:39 1.21972e-05
65 *602:10 *733:39 0.000180218
66 *614:12 *733:73 0
67 *621:8 *733:73 1.22803e-05
68 *622:10 *733:73 0.000120201
69 *625:12 *733:83 0
70 *626:27 *733:83 0
71 *656:14 *733:73 0.000135557
72 *661:35 *733:73 3.27534e-05
73 *661:35 *733:83 3.35885e-06
74 *662:25 *733:83 0
75 *665:10 *733:73 6.32688e-05
76 *672:14 *733:83 0
77 *675:8 *733:83 7.03766e-05
78 *686:29 *733:83 8.62783e-05
79 *701:10 *733:83 0
80 *719:10 *733:83 0
*RES
1 *2614:X *733:10 43.7171 
2 *733:10 *830:DIODE 38 
3 *733:10 *733:25 43.0679 
4 *733:25 *733:29 3.85286 
5 *733:29 *733:39 38.1793 
6 *733:39 *733:43 23.7207 
7 *733:43 *733:49 11.2686 
8 *733:49 *813:DIODE 23 
9 *733:49 *2581:A 26.3764 
10 *733:43 *733:73 37.4854 
11 *733:73 *733:83 48.6711 
12 *733:83 *814:DIODE 23 
13 *733:83 *2585:A 25.7757 
14 *733:29 *2590:A 23 
15 *733:25 *820:DIODE 23 
*END

*D_NET *734 0.000253513
*CONN
*I *2623:A I *D sky130_fd_sc_hd__buf_2
*I *2553:X O *D sky130_fd_sc_hd__clkbuf_1
*CAP
1 *2623:A 0.000115242
2 *2553:X 0.000115242
3 *263:10 *2623:A 2.30292e-05
*RES
1 *2553:X *2623:A 48.4236 
*END

*D_NET *735 0.000537091
*CONN
*I *2624:A I *D sky130_fd_sc_hd__buf_2
*I *2554:X O *D sky130_fd_sc_hd__clkbuf_1
*CAP
1 *2624:A 0
2 *2554:X 0.000268545
3 *735:10 0.000268545
4 *735:10 *757:106 0
*RES
1 *2554:X *735:10 41.9564 
2 *735:10 *2624:A 38 
*END

*D_NET *736 0.00911482
*CONN
*I *2075:A I *D sky130_fd_sc_hd__xnor2_1
*I *1975:A I *D sky130_fd_sc_hd__inv_2
*I *2102:A I *D sky130_fd_sc_hd__xnor2_1
*I *2174:A1 I *D sky130_fd_sc_hd__o21ai_1
*I *2173:A1 I *D sky130_fd_sc_hd__a221o_1
*I *2021:B1 I *D sky130_fd_sc_hd__o2bb2a_1
*I *2615:X O *D sky130_fd_sc_hd__clkbuf_2
*CAP
1 *2075:A 0.000314392
2 *1975:A 2.41993e-05
3 *2102:A 4.01155e-05
4 *2174:A1 0.00012502
5 *2173:A1 0.000243575
6 *2021:B1 0.000309208
7 *2615:X 0.000357879
8 *736:35 0.000618788
9 *736:31 0.00125247
10 *736:12 0.00131655
11 *736:10 0.000164674
12 *736:8 0.000767566
13 *2021:B1 *758:63 0.000569793
14 *2173:A1 *759:27 0.000343073
15 *2174:A1 *759:27 0.000244517
16 *736:8 *756:205 0
17 *736:8 *760:12 0
18 *828:DIODE *736:8 0
19 *2109:A *2075:A 0.000228001
20 *2109:B *2075:A 0.000185434
21 *2148:A *2174:A1 9.67842e-05
22 *2181:A *1975:A 5.50106e-05
23 *2181:A *736:31 0.000146714
24 *2181:B *736:31 5.70419e-05
25 *219:31 *2021:B1 7.91871e-05
26 *219:39 *2021:B1 2.35199e-05
27 *242:12 *2075:A 2.4754e-05
28 *242:20 *2075:A 0.000102093
29 *326:12 *2075:A 0.000270682
30 *326:12 *736:10 3.5664e-05
31 *326:38 *2075:A 9.67842e-05
32 *332:54 *2021:B1 2.71302e-05
33 *369:10 *2021:B1 0
34 *369:10 *736:12 0
35 *434:10 *736:31 9.84851e-05
36 *441:12 *2021:B1 4.23714e-05
37 *441:12 *736:8 2.47097e-05
38 *441:12 *736:10 5.08899e-05
39 *441:12 *736:12 2.96909e-05
40 *466:20 *2174:A1 9.67842e-05
41 *470:12 *736:31 0.000144221
42 *470:27 *736:31 2.02872e-05
43 *471:8 *736:31 3.98818e-05
44 *471:8 *736:35 0.000109854
45 *499:8 *736:31 5.3304e-05
46 *708:109 *2173:A1 0.000167412
47 *708:109 *2174:A1 0.00011631
48 *708:137 *2021:B1 0
49 *708:137 *736:8 0
50 *708:137 *736:10 0
51 *732:12 *736:8 0
*RES
1 *2615:X *736:8 43.7793 
2 *736:8 *736:10 2.25786 
3 *736:10 *736:12 1.20143 
4 *736:12 *2021:B1 46.2443 
5 *736:12 *736:31 30.08 
6 *736:31 *736:35 19.4329 
7 *736:35 *2173:A1 43.8207 
8 *736:35 *2174:A1 42.4121 
9 *736:31 *2102:A 23.8493 
10 *736:10 *1975:A 38.6214 
11 *736:8 *2075:A 46.7414 
*END

*D_NET *737 0.0183558
*CONN
*I *2049:C I *D sky130_fd_sc_hd__and3b_1
*I *2066:C_N I *D sky130_fd_sc_hd__or3b_1
*I *2069:B1 I *D sky130_fd_sc_hd__o21ai_1
*I *2062:B1 I *D sky130_fd_sc_hd__o21ai_1
*I *2071:B1 I *D sky130_fd_sc_hd__o21ai_1
*I *2061:B I *D sky130_fd_sc_hd__and3b_1
*I *2046:A I *D sky130_fd_sc_hd__and3_1
*I *2037:A I *D sky130_fd_sc_hd__and3_1
*I *2043:C I *D sky130_fd_sc_hd__and3b_1
*I *2040:C I *D sky130_fd_sc_hd__and3b_1
*I *2571:X O *D sky130_fd_sc_hd__clkbuf_2
*CAP
1 *2049:C 0.000101814
2 *2066:C_N 0
3 *2069:B1 0
4 *2062:B1 0
5 *2071:B1 0
6 *2061:B 2.00578e-05
7 *2046:A 0.000479862
8 *2037:A 0
9 *2043:C 0
10 *2040:C 0.000410218
11 *2571:X 0
12 *737:122 0.00042188
13 *737:109 0.000600419
14 *737:98 0.000315506
15 *737:89 0.000811655
16 *737:83 0.000990586
17 *737:72 0.00101387
18 *737:62 0.00129169
19 *737:28 0.000887849
20 *737:18 0.00122326
21 *737:12 0.00149012
22 *737:4 0.00050266
23 *2040:C *790:DIODE 8.2747e-05
24 *737:62 *756:48 0.000175903
25 *737:89 *759:115 5.58152e-06
26 *737:89 *759:123 2.99565e-05
27 *737:122 *755:23 0.000469112
28 gpio_oeb[23] *737:122 0
29 gpio_out[25] *737:122 0
30 *2036:A *737:28 0.000371474
31 *2036:B *737:28 0.000249909
32 *2049:A_N *737:12 2.32101e-05
33 *2049:A_N *737:62 2.32004e-05
34 *2050:B *737:12 3.59619e-05
35 *2050:D *2046:A 6.51746e-05
36 *2057:A *737:72 2.4754e-05
37 *2059:A *737:72 6.8523e-05
38 *2059:B *737:72 0.000143655
39 *2061:A_N *737:72 0
40 *2061:C *737:72 5.6061e-05
41 *2061:C *737:83 3.7122e-06
42 *2062:A2 *737:109 5.12254e-05
43 *2070:B *737:122 5.67058e-05
44 *2076:A *737:18 0.000296529
45 *2076:B *737:18 0.000141308
46 *93:10 *737:122 0
47 *216:64 *737:18 0
48 *216:87 *737:12 1.25428e-05
49 *217:12 *737:98 1.37349e-05
50 *217:18 *737:98 7.81176e-05
51 *217:31 *737:89 0
52 *217:31 *737:98 0
53 *217:57 *737:72 0
54 *218:19 *737:89 0
55 *219:25 *737:109 1.66896e-05
56 *219:25 *737:122 2.44795e-05
57 *219:31 *737:109 0.000104048
58 *220:31 *737:89 0.000361027
59 *221:21 *737:28 0.000130433
60 *224:21 *2046:A 2.32004e-05
61 *224:25 *2046:A 0.000147734
62 *224:37 *737:12 1.89075e-05
63 *224:37 *737:18 0.000131381
64 *226:20 *2046:A 0.00026025
65 *229:14 *737:72 2.18409e-05
66 *229:24 *737:72 8.47306e-05
67 *233:10 *737:109 0.000361027
68 *233:10 *737:122 2.4754e-05
69 *237:10 *737:28 0.000361027
70 *237:21 *737:18 0.000188926
71 *237:21 *737:28 0
72 *238:12 *2046:A 0
73 *239:12 *737:72 0
74 *243:10 *737:72 0.000146787
75 *317:44 *737:18 4.83021e-05
76 *319:77 *737:18 0
77 *371:10 *737:89 0
78 *380:17 *737:72 0
79 *380:19 *2049:C 0
80 *380:19 *737:62 0
81 *382:10 *737:28 0.000111852
82 *383:8 *737:28 3.61397e-05
83 *389:10 *737:12 1.65299e-05
84 *389:10 *737:18 3.7473e-07
85 *390:6 *737:12 2.64616e-05
86 *390:12 *737:12 0.000159167
87 *391:18 *737:62 2.96154e-05
88 *392:10 *737:62 0.000102696
89 *392:10 *737:72 0.000424533
90 *394:14 *737:18 0
91 *396:10 *737:72 0
92 *396:19 *737:72 0.000574102
93 *399:6 *737:72 0.00010018
94 *399:30 *737:72 9.61969e-05
95 *399:40 *737:89 4.85126e-05
96 *399:47 *737:83 8.06804e-06
97 *400:10 *737:109 5.67058e-05
98 *402:38 *737:109 2.93747e-05
99 *403:20 *737:89 0
100 *404:40 *737:122 5.50106e-05
101 *410:8 *737:18 3.62323e-05
102 *419:14 *737:89 0
103 *422:10 *737:89 6.49713e-05
104 *708:67 *737:28 0.000377191
105 *709:117 *737:89 0.000247687
106 *709:117 *737:98 0.000258087
*RES
1 *2571:X *737:4 23 
2 *737:4 *737:12 19.6814 
3 *737:12 *737:18 29.065 
4 *737:18 *737:28 45.3286 
5 *737:28 *2040:C 28.3857 
6 *737:28 *2043:C 23 
7 *737:18 *2037:A 23 
8 *737:12 *2046:A 44.8357 
9 *737:4 *737:62 18.9046 
10 *737:62 *737:72 36.7396 
11 *737:72 *2061:B 23.4971 
12 *737:72 *737:83 15.6214 
13 *737:83 *737:89 32.4829 
14 *737:89 *2071:B1 23 
15 *737:83 *737:98 18.6664 
16 *737:98 *2062:B1 23 
17 *737:98 *737:109 6.38 
18 *737:109 *2069:B1 23 
19 *737:109 *737:122 40.0879 
20 *737:122 *2066:C_N 23 
21 *737:62 *2049:C 39.4189 
*END

*D_NET *738 0.0216973
*CONN
*I *2166:A1 I *D sky130_fd_sc_hd__o31a_1
*I *2163:B1 I *D sky130_fd_sc_hd__a21oi_1
*I *2149:B1 I *D sky130_fd_sc_hd__a21oi_1
*I *2144:A I *D sky130_fd_sc_hd__nor3_1
*I *2141:A I *D sky130_fd_sc_hd__nor3_1
*I *2138:A I *D sky130_fd_sc_hd__nor3_1
*I *2135:A_N I *D sky130_fd_sc_hd__and3b_1
*I *2126:A I *D sky130_fd_sc_hd__or3_1
*I *2123:A I *D sky130_fd_sc_hd__nor3_1
*I *2130:A I *D sky130_fd_sc_hd__nor3_1
*I *2572:X O *D sky130_fd_sc_hd__buf_2
*CAP
1 *2166:A1 0
2 *2163:B1 0
3 *2149:B1 0
4 *2144:A 0
5 *2141:A 4.02714e-05
6 *2138:A 0.000158987
7 *2135:A_N 0
8 *2126:A 0
9 *2123:A 0.000211897
10 *2130:A 0
11 *2572:X 0
12 *738:145 0.00174971
13 *738:133 0.0025799
14 *738:131 0.000982354
15 *738:121 0.00019518
16 *738:114 0.00169267
17 *738:93 0.00191088
18 *738:80 0.000938387
19 *738:65 0.000843672
20 *738:57 0.000903066
21 *738:42 0.000729947
22 *738:23 0.000416912
23 *738:14 0.000363375
24 *738:4 0.000456274
25 *738:93 *2519:RESET_B 0.000124523
26 *738:114 *2519:RESET_B 0.00015654
27 *738:114 *2521:RESET_B 2.64616e-05
28 *738:114 *761:18 1.69668e-05
29 *738:133 *2517:RESET_B 0.000290615
30 *1982:A *2123:A 2.02872e-05
31 *2097:A_N *738:133 0.000197558
32 *2108:A1 *738:133 0.000111864
33 *2110:B1 *738:133 0
34 *2118:A2 *2123:A 8.13892e-05
35 *2121:A *2123:A 5.87155e-05
36 *2121:A *738:23 2.64616e-05
37 *2121:A *738:42 2.53762e-05
38 *2121:B *738:23 9.67842e-05
39 *2123:C *2123:A 4.77554e-05
40 *2127:A *738:14 3.16665e-05
41 *2128:B *738:14 2.49733e-05
42 *2128:C *738:14 3.3746e-05
43 *2128:C *738:42 2.76611e-06
44 *2135:B *738:65 9.84851e-05
45 *2135:B *738:80 0.000136738
46 *2139:B *2141:A 0
47 *2144:B *738:114 0.000155375
48 *2152:B *738:145 8.49404e-06
49 *2167:A *738:57 0.000431513
50 *2170:B1 *738:42 0.000169674
51 *2171:A *738:57 2.36126e-05
52 *2171:D_N *738:57 0.000199412
53 *2519:CLK *2141:A 1.14452e-05
54 *188:23 *738:145 4.21594e-06
55 *190:40 *738:133 0
56 *191:10 *738:133 6.07611e-06
57 *191:10 *738:145 2.36993e-05
58 *192:10 *2123:A 6.7177e-06
59 *192:31 *2123:A 7.76364e-06
60 *192:31 *738:14 9.03979e-05
61 *192:31 *738:42 2.26489e-05
62 *193:10 *738:14 2.70366e-05
63 *197:10 *2138:A 2.54324e-05
64 *197:10 *738:80 1.39396e-05
65 *197:12 *2138:A 1.86869e-05
66 *197:61 *2138:A 6.7177e-06
67 *197:61 *2141:A 1.50071e-05
68 *198:18 *738:114 3.27248e-05
69 *200:30 *738:145 4.68153e-05
70 *201:18 *2123:A 9.5877e-05
71 *208:14 *738:14 5.25848e-05
72 *211:21 *2138:A 5.79413e-06
73 *211:21 *738:80 2.19236e-05
74 *214:31 *738:145 0.000291176
75 *322:16 *738:133 1.53281e-05
76 *335:22 *2123:A 1.37246e-05
77 *425:10 *738:133 0
78 *426:10 *738:133 0
79 *439:10 *738:133 0.000530399
80 *440:10 *738:133 2.54046e-05
81 *442:10 *738:133 0
82 *445:12 *738:65 1.59094e-05
83 *445:20 *738:65 0.000401816
84 *445:20 *738:131 6.16439e-05
85 *448:16 *738:23 0.000221079
86 *448:35 *738:14 0
87 *451:12 *738:14 3.20914e-05
88 *452:14 *738:14 3.35885e-05
89 *452:14 *738:23 8.06804e-06
90 *452:27 *2123:A 0.000137238
91 *452:27 *738:23 5.61255e-06
92 *452:27 *738:42 0.000102005
93 *454:12 *738:14 0.000163361
94 *457:12 *738:14 0.000135557
95 *457:23 *738:57 0.000103708
96 *457:23 *738:121 5.30121e-05
97 *459:25 *738:80 0.000300258
98 *461:14 *738:65 8.06804e-06
99 *462:10 *738:133 8.4047e-05
100 *464:10 *2138:A 0
101 *466:10 *2138:A 0.00018842
102 *470:52 *738:145 2.05503e-05
103 *489:16 *738:57 9.58444e-05
104 *489:16 *738:121 8.264e-05
105 *489:16 *738:131 0.000135037
106 *501:12 *738:145 0.000646004
107 *705:156 *738:133 0
108 *705:156 *738:145 0
109 *711:10 *738:65 2.72055e-05
110 *711:10 *738:131 5.94125e-05
111 *711:10 *738:133 2.95125e-05
112 *716:78 *738:65 0.000160386
113 *729:8 *738:114 0.000202413
114 *731:20 *2138:A 0
115 *731:20 *738:80 0
116 *731:22 *738:133 0
117 *731:36 *738:145 0
*RES
1 *2572:X *738:4 23 
2 *738:4 *738:14 38.2029 
3 *738:14 *2130:A 23 
4 *738:4 *738:23 17.5271 
5 *738:23 *2123:A 42.8264 
6 *738:23 *738:42 18.3143 
7 *738:42 *2126:A 23 
8 *738:42 *738:57 11.6621 
9 *738:57 *738:65 37.5814 
10 *738:65 *2135:A_N 23 
11 *738:65 *738:80 25.0361 
12 *738:80 *2138:A 41.4904 
13 *738:80 *738:93 8.48533 
14 *738:93 *2141:A 46.6732 
15 *738:93 *738:114 29.8123 
16 *738:114 *2144:A 23 
17 *738:57 *738:121 1.09786 
18 *738:121 *738:131 47.4236 
19 *738:131 *738:133 18.8086 
20 *738:133 *738:145 36.4382 
21 *738:145 *2149:B1 23 
22 *738:133 *2163:B1 38 
23 *738:121 *2166:A1 23 
*END

*D_NET *739 0.0176819
*CONN
*I *2436:B1 I *D sky130_fd_sc_hd__a32o_1
*I *2412:B1 I *D sky130_fd_sc_hd__a21oi_1
*I *2413:A2 I *D sky130_fd_sc_hd__a22o_1
*I *2392:B I *D sky130_fd_sc_hd__nand2_1
*I *2391:A2 I *D sky130_fd_sc_hd__a21bo_1
*I *2400:A1 I *D sky130_fd_sc_hd__o31ai_1
*I *2390:A I *D sky130_fd_sc_hd__or3b_1
*I *2437:A2 I *D sky130_fd_sc_hd__a22oi_1
*I *2435:A I *D sky130_fd_sc_hd__nor2_1
*I *2378:D_N I *D sky130_fd_sc_hd__or4b_1
*I *2573:X O *D sky130_fd_sc_hd__buf_2
*CAP
1 *2436:B1 0
2 *2412:B1 5.31485e-05
3 *2413:A2 0
4 *2392:B 0
5 *2391:A2 0
6 *2400:A1 7.10065e-05
7 *2390:A 0
8 *2437:A2 0
9 *2435:A 0
10 *2378:D_N 0
11 *2573:X 3.92298e-05
12 *739:141 0.000113426
13 *739:119 0.000189804
14 *739:101 0.000371772
15 *739:91 0.000738327
16 *739:87 0.000910376
17 *739:69 0.000572731
18 *739:55 0.000747727
19 *739:53 0.000523831
20 *739:51 0.00111687
21 *739:36 0.00108703
22 *739:32 0.00040466
23 *739:23 0.00110144
24 *739:14 0.000209674
25 *739:6 0.00114825
26 *739:6 *743:12 5.50049e-05
27 *739:14 *1997:B 4.09581e-05
28 *739:14 *742:103 2.01531e-05
29 *739:23 *743:12 9.84851e-05
30 *739:23 *743:129 0.000258245
31 *739:141 *752:14 1.69977e-05
32 *2378:A *739:14 0
33 *2388:A *739:69 0.000112463
34 *2392:A *739:101 6.17437e-06
35 *2399:C *2400:A1 9.70259e-06
36 *2400:A2 *2400:A1 0.000139352
37 *2411:B *2412:B1 9.5877e-05
38 *2413:B2 *2412:B1 1.32314e-05
39 *2420:A2 *739:51 0.000241616
40 *2420:A2 *739:53 1.14452e-05
41 *2428:A_N *739:32 5.3304e-05
42 *2437:A1 *739:36 5.90686e-05
43 *2437:A1 *739:51 0.000137046
44 *2573:A *739:23 9.24795e-06
45 *1:15 *739:23 0.00015916
46 *112:35 *739:14 0
47 *114:14 *739:14 4.90787e-05
48 *302:10 *739:36 1.21972e-05
49 *302:10 *739:141 0.000132142
50 *579:27 *739:141 3.32677e-05
51 *624:12 *739:101 0.00080206
52 *625:12 *739:51 0.000292089
53 *625:12 *739:55 9.69326e-05
54 *625:12 *739:69 0.000115392
55 *626:10 *739:51 0.000821284
56 *626:10 *739:53 0.000133316
57 *626:10 *739:55 0.000300108
58 *626:10 *739:69 0.000241365
59 *626:27 *739:51 0.000230039
60 *636:35 *739:14 9.84851e-05
61 *641:10 *739:14 9.84851e-05
62 *641:25 *739:14 3.70187e-05
63 *650:6 *739:23 5.67058e-05
64 *650:29 *739:23 0.000824314
65 *658:8 *739:69 0.000399364
66 *659:10 *739:87 3.70553e-06
67 *659:10 *739:91 0.000283808
68 *659:10 *739:101 5.50049e-05
69 *665:10 *739:69 5.67058e-05
70 *676:10 *739:53 0.000126343
71 *676:10 *739:55 9.26098e-05
72 *691:36 *739:32 1.28818e-05
73 *692:10 *739:32 2.98648e-05
74 *692:10 *739:36 6.17437e-06
75 *696:10 *739:141 4.36913e-05
76 *697:24 *739:36 3.3266e-05
77 *698:6 *739:32 0.000184527
78 *698:25 *739:32 0.000126114
79 *698:25 *739:141 3.33082e-05
80 *701:114 *739:51 3.7122e-06
81 *706:29 *739:119 6.68793e-05
82 *707:27 *739:101 0.000370869
83 *707:29 *739:101 0.000219882
84 *707:35 *739:101 0.000222113
85 *733:83 *739:51 0
*RES
1 *2573:X *739:6 23.6214 
2 *739:6 *739:14 34.4121 
3 *739:14 *2378:D_N 23 
4 *739:6 *739:23 15.6393 
5 *739:23 *2435:A 23 
6 *739:23 *739:32 4.93 
7 *739:32 *739:36 2.09732 
8 *739:36 *2437:A2 23 
9 *739:36 *739:51 38.5677 
10 *739:51 *739:53 1.90571 
11 *739:53 *739:55 4.01857 
12 *739:55 *739:69 27.2421 
13 *739:69 *2390:A 23 
14 *739:55 *2400:A1 39.5743 
15 *739:53 *739:87 19.4329 
16 *739:87 *739:91 9.09357 
17 *739:91 *739:101 42.6564 
18 *739:101 *2391:A2 23 
19 *739:91 *2392:B 23 
20 *739:87 *739:119 33.48 
21 *739:119 *2413:A2 23 
22 *739:51 *2412:B1 39.0979 
23 *739:32 *739:141 32.2889 
24 *739:141 *2436:B1 23 
*END

*D_NET *740 0.0207023
*CONN
*I *2331:S I *D sky130_fd_sc_hd__mux2_1
*I *2335:A2 I *D sky130_fd_sc_hd__o21ba_1
*I *2334:A2_N I *D sky130_fd_sc_hd__a2bb2o_1
*I *2333:C1 I *D sky130_fd_sc_hd__o211a_1
*I *2282:S I *D sky130_fd_sc_hd__mux2_1
*I *2295:S I *D sky130_fd_sc_hd__mux2_1
*I *2287:S I *D sky130_fd_sc_hd__mux2_1
*I *2311:A2 I *D sky130_fd_sc_hd__o21a_1
*I *2322:S I *D sky130_fd_sc_hd__mux2_1
*I *2310:B1 I *D sky130_fd_sc_hd__o21ai_1
*I *2574:X O *D sky130_fd_sc_hd__buf_2
*CAP
1 *2331:S 0.000678027
2 *2335:A2 0.00046787
3 *2334:A2_N 5.00859e-05
4 *2333:C1 8.50375e-05
5 *2282:S 0.000338125
6 *2295:S 0.000461929
7 *2287:S 0
8 *2311:A2 0.000467723
9 *2322:S 0
10 *2310:B1 0
11 *2574:X 9.01449e-05
12 *740:101 0.000635867
13 *740:97 0.00109695
14 *740:63 0.000461929
15 *740:50 0.000681202
16 *740:46 0.00103886
17 *740:39 0.000561617
18 *740:30 0.000854876
19 *740:20 0.00149508
20 *740:10 0.00157153
21 *740:6 0.00131181
22 *2335:A2 *2485:SET_B 0.000106299
23 *2335:A2 *756:112 2.79064e-05
24 *740:50 *2480:SET_B 9.63815e-05
25 *2284:A *740:30 0.000164291
26 *2284:B *740:30 3.49587e-05
27 *2292:C *740:30 0.000203783
28 *2295:A0 *2295:S 5.50106e-05
29 *2295:A1 *2295:S 7.13587e-05
30 *2311:A1 *2311:A2 7.03869e-05
31 *2322:A0 *740:20 6.17437e-06
32 *2322:A0 *740:30 0
33 *2322:A0 *740:39 4.04303e-05
34 *2322:A0 *740:46 0.000272377
35 *2330:A *740:20 0.000143655
36 *2331:A1 *2331:S 9.84851e-05
37 *2332:B *740:10 7.03766e-05
38 *2333:A2 *2333:C1 2.42898e-05
39 *2334:A1_N *2334:A2_N 9.84794e-05
40 *2410:A *740:10 5.44006e-05
41 *2482:CLK *2311:A2 0
42 *2484:CLK *2331:S 8.47188e-05
43 *2484:CLK *740:97 0.000123934
44 *2567:A *2334:A2_N 2.4754e-05
45 *122:83 *740:30 5.31444e-05
46 *122:96 *740:30 0.000120554
47 *124:75 *2333:C1 0
48 *133:14 *2282:S 2.4754e-05
49 *135:14 *2311:A2 2.08324e-05
50 *135:14 *740:50 6.42902e-05
51 *139:25 *2311:A2 0.000167434
52 *139:25 *740:50 0.000138459
53 *143:6 *2331:S 0.000254061
54 *143:17 *2331:S 4.95081e-05
55 *147:10 *2335:A2 0
56 *268:10 *2311:A2 0
57 *269:10 *740:20 0.000143655
58 *270:14 *2331:S 0.000292157
59 *271:10 *2335:A2 0.000111234
60 *339:10 *2335:A2 2.24973e-05
61 *512:25 *2331:S 0
62 *580:12 *740:30 0.000134279
63 *580:23 *740:30 0
64 *580:42 *2282:S 0.000684281
65 *580:42 *740:30 0
66 *580:42 *740:46 0.000828043
67 *582:10 *740:30 0
68 *587:10 *740:30 1.59208e-05
69 *589:8 *740:30 0.00037217
70 *606:6 *740:30 0.000102093
71 *606:12 *2311:A2 1.14452e-05
72 *616:10 *740:30 8.62876e-05
73 *617:8 *2333:C1 6.70005e-05
74 *617:21 *740:10 6.03737e-05
75 *618:16 *2333:C1 5.3304e-05
76 *618:16 *740:10 5.01986e-05
77 *618:16 *740:20 0.000113153
78 *622:10 *740:10 2.60152e-05
79 *624:8 *740:20 0.000179229
80 *624:8 *740:46 1.56665e-05
81 *625:12 *740:10 0.00149001
82 *626:10 *740:10 0
83 *626:27 *2335:A2 0.000127336
84 *663:12 *740:10 6.32792e-05
85 *664:12 *740:10 0.000138718
86 *665:10 *740:10 1.44813e-05
87 *695:6 *2334:A2_N 0.000141954
88 *701:120 *2335:A2 0.000243325
89 *706:88 *2335:A2 0
90 *707:50 *2311:A2 0
91 *707:50 *740:50 0
92 *733:73 *740:10 0
93 *733:83 *740:10 0
*RES
1 *2574:X *740:6 24.0979 
2 *740:6 *740:10 39.0907 
3 *740:10 *740:20 25.9164 
4 *740:20 *740:30 49.5957 
5 *740:30 *2310:B1 23 
6 *740:20 *740:39 1.595 
7 *740:39 *2322:S 23 
8 *740:39 *740:46 12.5321 
9 *740:46 *740:50 20.7793 
10 *740:50 *2311:A2 47.2179 
11 *740:50 *740:63 15 
12 *740:63 *2287:S 23 
13 *740:63 *2295:S 31.2443 
14 *740:46 *2282:S 31.2443 
15 *740:10 *2333:C1 40.0921 
16 *740:6 *740:97 3.95643 
17 *740:97 *740:101 16.5536 
18 *740:101 *2334:A2_N 40.0714 
19 *740:101 *2335:A2 49.7657 
20 *740:97 *2331:S 37.5 
*END

*D_NET *741 0.0245916
*CONN
*I *1987:B I *D sky130_fd_sc_hd__nand2_1
*I *765:DIODE I *D sky130_fd_sc_hd__diode_2
*I *812:DIODE I *D sky130_fd_sc_hd__diode_2
*I *1988:C I *D sky130_fd_sc_hd__and3_1
*I *766:DIODE I *D sky130_fd_sc_hd__diode_2
*I *785:DIODE I *D sky130_fd_sc_hd__diode_2
*I *2276:S I *D sky130_fd_sc_hd__mux2_1
*I *786:DIODE I *D sky130_fd_sc_hd__diode_2
*I *2277:S I *D sky130_fd_sc_hd__mux2_1
*I *783:DIODE I *D sky130_fd_sc_hd__diode_2
*I *784:DIODE I *D sky130_fd_sc_hd__diode_2
*I *2275:S I *D sky130_fd_sc_hd__mux2_1
*I *2274:S I *D sky130_fd_sc_hd__mux2_1
*I *782:DIODE I *D sky130_fd_sc_hd__diode_2
*I *2273:S I *D sky130_fd_sc_hd__mux2_1
*I *780:DIODE I *D sky130_fd_sc_hd__diode_2
*I *2271:S I *D sky130_fd_sc_hd__mux2_1
*I *2272:S I *D sky130_fd_sc_hd__mux2_1
*I *2270:S I *D sky130_fd_sc_hd__mux2_1
*I *779:DIODE I *D sky130_fd_sc_hd__diode_2
*I *781:DIODE I *D sky130_fd_sc_hd__diode_2
*I *2575:X O *D sky130_fd_sc_hd__clkbuf_4
*CAP
1 *1987:B 4.92053e-05
2 *765:DIODE 8.1184e-05
3 *812:DIODE 0
4 *1988:C 0.000148637
5 *766:DIODE 0
6 *785:DIODE 0
7 *2276:S 0
8 *786:DIODE 0
9 *2277:S 0.000144237
10 *783:DIODE 2.89044e-05
11 *784:DIODE 0
12 *2275:S 0
13 *2274:S 0.000172498
14 *782:DIODE 0
15 *2273:S 3.43162e-05
16 *780:DIODE 0
17 *2271:S 0
18 *2272:S 0
19 *2270:S 0.000210618
20 *779:DIODE 0
21 *781:DIODE 0.000172366
22 *2575:X 0.000201573
23 *741:214 0.000134988
24 *741:172 0.000144237
25 *741:158 8.00737e-05
26 *741:144 0.000210858
27 *741:142 8.95295e-05
28 *741:124 0.000471536
29 *741:111 0.000142495
30 *741:98 0.00035992
31 *741:73 0.0013568
32 *741:58 0.00136286
33 *741:56 0.000370202
34 *741:50 0.000657758
35 *741:46 0.000576532
36 *741:44 0.000407298
37 *741:42 0.000957655
38 *741:40 0.000808139
39 *741:34 0.000390548
40 *741:30 0.000799926
41 *741:26 0.00263065
42 *741:12 0.00202863
43 *741:10 0.000242015
44 *741:6 0.000357694
45 *741:26 *2504:RESET_B 0.000143933
46 *741:26 *743:45 5.40399e-05
47 *741:42 *2474:SET_B 0.000136486
48 *741:42 *2476:SET_B 0.000139657
49 *741:44 *2474:SET_B 0.000294055
50 *741:44 *744:82 0.000276784
51 *741:44 *744:89 0.000129504
52 *741:46 *744:82 6.48142e-05
53 *741:50 *744:60 5.55278e-05
54 *741:50 *744:82 8.4047e-05
55 *741:56 *2547:SET_B 0
56 *741:56 *744:60 0
57 *741:56 *744:66 3.71228e-05
58 *741:73 *2547:SET_B 2.06655e-05
59 *741:98 *744:66 1.39431e-05
60 *741:124 *2473:SET_B 3.92407e-05
61 *1987:A *741:6 4.72245e-05
62 *1993:A1 *741:6 1.33962e-05
63 *2270:A0 *2270:S 2.32004e-05
64 *2270:A0 *741:73 5.31757e-05
65 *2270:A1 *2270:S 0.000315857
66 *2271:A0 *741:98 1.71761e-05
67 *2271:A0 *741:111 0.000144494
68 *2272:A1 *741:44 0
69 *2272:A1 *741:46 0
70 *2272:A1 *741:50 0
71 *2272:A1 *741:56 0.000326983
72 *2273:A0 *2273:S 1.94693e-05
73 *2273:A0 *741:44 0
74 *2274:A1 *2274:S 0.000156058
75 *2274:A1 *741:144 4.00259e-06
76 *2275:A1 *741:42 0.00026104
77 *2275:A1 *741:44 6.07611e-06
78 *2276:A0 *741:42 0.000170817
79 *2276:A1 *741:40 0.000169683
80 *2277:A0 *2277:S 9.41704e-05
81 *2277:A0 *741:40 0.000130433
82 *2277:A0 *741:42 8.94487e-05
83 *2444:S *741:111 1.01436e-05
84 *2445:A1 *741:124 4.05794e-05
85 *2473:CLK *741:124 1.59094e-05
86 *2575:A *741:6 5.72975e-05
87 *110:27 *741:26 4.09238e-05
88 *112:55 *741:26 2.82589e-05
89 *112:65 *741:26 1.6873e-05
90 *112:90 *741:26 1.38855e-05
91 *151:10 *741:73 7.06733e-06
92 *160:10 *741:26 0
93 *161:36 *741:26 1.13013e-05
94 *164:40 *741:26 0.000135547
95 *164:59 *741:26 0.000295746
96 *167:27 *741:98 0.000100069
97 *168:8 *741:124 2.83091e-05
98 *170:16 *783:DIODE 0.00010018
99 *170:16 *2274:S 4.56951e-05
100 *170:16 *741:158 9.5877e-05
101 *173:16 *741:40 0
102 *177:33 *741:26 0.000267335
103 *177:45 *1987:B 0
104 *257:10 *741:98 0.000273006
105 *257:10 *741:111 6.91397e-05
106 *259:10 *741:124 0
107 *307:10 *741:56 0
108 *307:10 *741:58 0
109 *309:10 *741:44 5.26101e-05
110 *312:10 *741:40 8.85189e-05
111 *312:10 *741:42 0.00030458
112 *313:12 *741:10 0.000100176
113 *313:12 *741:12 0.000104111
114 *313:12 *741:26 0.000139713
115 *316:31 *741:26 0.00020824
116 *341:6 *1988:C 2.07484e-05
117 *341:23 *1988:C 5.86343e-05
118 *341:23 *741:10 0.000111852
119 *341:23 *741:12 9.03784e-05
120 *348:40 *741:26 0
121 *351:32 *741:26 2.24608e-05
122 *353:8 *741:26 0
123 *356:10 *1988:C 0.00017472
124 *447:10 *741:26 0.000449875
125 *628:10 *741:26 0.000276956
126 *629:35 *741:26 0.000188805
127 *635:10 *741:26 8.08615e-05
128 *646:12 *741:26 0.000413038
129 *647:10 *741:26 0.000150672
130 *699:20 *741:40 0
131 *699:45 *741:111 0.000156379
132 *702:40 *741:42 0
133 *702:42 *741:42 0
134 *702:69 *741:124 0.000185104
135 *702:71 *741:124 9.03784e-05
136 *702:79 *741:56 0
137 *702:79 *741:73 2.3191e-05
138 *702:92 *741:58 0
139 *702:92 *741:73 9.00922e-05
*RES
1 *2575:X *741:6 25.5271 
2 *741:6 *741:10 16.5536 
3 *741:10 *741:12 1.55357 
4 *741:12 *741:26 42.9407 
5 *741:26 *741:30 23.2443 
6 *741:30 *741:34 2.9 
7 *741:34 *741:40 20.6964 
8 *741:40 *741:42 14.5829 
9 *741:42 *741:44 9.30071 
10 *741:44 *741:46 0.849286 
11 *741:46 *741:50 17.61 
12 *741:50 *741:56 22.0014 
13 *741:56 *741:58 0.849286 
14 *741:58 *781:DIODE 40.2993 
15 *741:58 *741:73 30.3907 
16 *741:73 *779:DIODE 23 
17 *741:73 *2270:S 28.2821 
18 *741:56 *2272:S 38 
19 *741:50 *741:98 5.40643 
20 *741:98 *2271:S 23 
21 *741:98 *741:111 33.8321 
22 *741:111 *780:DIODE 23 
23 *741:46 *741:124 37.6229 
24 *741:124 *2273:S 38.6214 
25 *741:44 *782:DIODE 38 
26 *741:42 *741:142 15 
27 *741:142 *741:144 0.849286 
28 *741:144 *2274:S 27.4329 
29 *741:144 *2275:S 23 
30 *741:142 *741:158 1.09786 
31 *741:158 *784:DIODE 23 
32 *741:158 *783:DIODE 24.0979 
33 *741:40 *741:172 15 
34 *741:172 *2277:S 25.4236 
35 *741:172 *786:DIODE 23 
36 *741:34 *2276:S 23 
37 *741:30 *785:DIODE 23 
38 *741:12 *766:DIODE 38 
39 *741:10 *1988:C 41.3143 
40 *741:6 *741:214 0.621429 
41 *741:214 *812:DIODE 23 
42 *741:214 *765:DIODE 24.0979 
43 *741:6 *1987:B 23.8493 
*END

*D_NET *742 0.0124375
*CONN
*I *2357:B I *D sky130_fd_sc_hd__nor4_1
*I *2279:B I *D sky130_fd_sc_hd__nand2b_1
*I *1997:B I *D sky130_fd_sc_hd__or3_2
*I *2370:A1 I *D sky130_fd_sc_hd__a211o_1
*I *2365:A1 I *D sky130_fd_sc_hd__a31o_1
*I *2011:A I *D sky130_fd_sc_hd__or3_2
*I *2371:A1 I *D sky130_fd_sc_hd__a311oi_1
*I *2382:A1 I *D sky130_fd_sc_hd__a31o_1
*I *2002:A_N I *D sky130_fd_sc_hd__nand2b_1
*I *2353:A1 I *D sky130_fd_sc_hd__o31a_1
*I *2576:X O *D sky130_fd_sc_hd__clkbuf_2
*CAP
1 *2357:B 0
2 *2279:B 0.000529173
3 *1997:B 0.000409984
4 *2370:A1 6.5018e-05
5 *2365:A1 0
6 *2011:A 2.34823e-05
7 *2371:A1 0
8 *2382:A1 9.40558e-05
9 *2002:A_N 0
10 *2353:A1 0.000141829
11 *2576:X 0.000200855
12 *742:103 0.00107215
13 *742:90 0.000466822
14 *742:57 0.000309511
15 *742:40 0.000771571
16 *742:36 0.00059455
17 *742:32 0.000393026
18 *742:22 0.000645718
19 *742:18 0.000490049
20 *742:12 0.000443469
21 *742:6 0.000294931
22 *1997:B *743:12 0
23 *2353:A1 *743:37 5.83407e-05
24 *2353:A1 *743:45 1.94812e-05
25 *742:6 *2357:C 5.50106e-05
26 *742:12 *2357:C 0.000228903
27 *742:22 *2365:A2 2.22214e-05
28 *742:22 *743:92 5.8245e-05
29 *742:57 *2002:B 0.000164291
30 *742:57 *743:35 0.00025198
31 *742:57 *743:37 6.16045e-05
32 *742:57 *743:59 2.2924e-05
33 *1998:A *742:22 5.50049e-05
34 *2353:B1 *742:40 0.000209216
35 *2361:B *742:40 7.02269e-05
36 *2363:B *1997:B 0
37 *2363:B *742:103 0
38 *2365:A3 *742:90 2.33476e-05
39 *2367:A1 *742:90 0.000140404
40 *2374:A1 *2382:A1 3.3746e-05
41 *2374:A1 *742:40 9.88991e-05
42 *2378:A *1997:B 0
43 *2556:A *1997:B 4.66047e-05
44 *2573:A *2279:B 0.000414338
45 *2576:A *742:6 5.41385e-05
46 *112:27 *742:6 0.000397602
47 *112:39 *2279:B 6.16283e-05
48 *112:113 *1997:B 0
49 *114:14 *742:90 0
50 *315:6 *742:6 1.89178e-05
51 *315:21 *742:6 0.000128979
52 *315:21 *742:12 2.93747e-05
53 *315:29 *742:12 7.06229e-05
54 *315:29 *742:22 5.12055e-06
55 *348:40 *2382:A1 0
56 *349:10 *742:22 5.3304e-05
57 *351:14 *742:90 0
58 *353:8 *742:40 1.37271e-05
59 *354:8 *742:57 0.000418268
60 *354:10 *742:57 3.70094e-05
61 *358:18 *742:32 0
62 *359:10 *742:32 7.76538e-05
63 *359:16 *742:32 2.76611e-06
64 *359:16 *742:57 8.06804e-06
65 *579:12 *742:90 0.000110922
66 *631:6 *742:22 0.000113312
67 *631:6 *742:32 0.000128401
68 *631:19 *2382:A1 3.98496e-05
69 *631:19 *742:40 1.4471e-05
70 *632:26 *742:90 1.22803e-05
71 *633:22 *742:32 0.000112538
72 *636:35 *2370:A1 5.67058e-05
73 *638:10 *742:40 5.00353e-05
74 *638:10 *742:57 0.000223692
75 *639:24 *742:22 6.36349e-05
76 *639:24 *742:90 2.8682e-05
77 *641:25 *742:90 1.99391e-05
78 *641:25 *742:103 2.70469e-05
79 *642:8 *742:18 6.01895e-05
80 *642:8 *742:90 5.22591e-05
81 *643:12 *742:90 0.000187057
82 *643:12 *742:103 1.14452e-05
83 *645:12 *742:32 4.2573e-05
84 *645:12 *742:36 0.000221992
85 *650:29 *2279:B 3.03448e-05
86 *701:124 *1997:B 0.000274078
87 *714:10 *742:6 0.000136743
88 *739:14 *1997:B 4.09581e-05
89 *739:14 *742:103 2.01531e-05
*RES
1 *2576:X *742:6 29.3386 
2 *742:6 *742:12 18.1486 
3 *742:12 *742:18 16.4707 
4 *742:18 *742:22 7.31214 
5 *742:22 *742:32 34.7021 
6 *742:32 *742:36 17.5271 
7 *742:36 *742:40 21.1314 
8 *742:40 *2353:A1 25.5479 
9 *742:40 *742:57 39.6114 
10 *742:57 *2002:A_N 23 
11 *742:36 *2382:A1 39.9057 
12 *742:32 *2371:A1 23 
13 *742:22 *2011:A 23.4971 
14 *742:18 *2365:A1 23 
15 *742:12 *742:90 6.48357 
16 *742:90 *2370:A1 39.2429 
17 *742:90 *742:103 1.90571 
18 *742:103 *1997:B 44.9186 
19 *742:103 *2279:B 46.2909 
20 *742:6 *2357:B 23 
*END

*D_NET *743 0.0110261
*CONN
*I *2279:A_N I *D sky130_fd_sc_hd__nand2b_1
*I *1997:C I *D sky130_fd_sc_hd__or3_2
*I *2357:C I *D sky130_fd_sc_hd__nor4_1
*I *2365:A2 I *D sky130_fd_sc_hd__a31o_1
*I *2011:B I *D sky130_fd_sc_hd__or3_2
*I *2382:A2 I *D sky130_fd_sc_hd__a31o_1
*I *2371:A2 I *D sky130_fd_sc_hd__a311oi_1
*I *2353:A2 I *D sky130_fd_sc_hd__o31a_1
*I *2373:A2 I *D sky130_fd_sc_hd__o311a_1
*I *2002:B I *D sky130_fd_sc_hd__nand2b_1
*I *2577:X O *D sky130_fd_sc_hd__clkbuf_2
*CAP
1 *2279:A_N 0
2 *1997:C 0
3 *2357:C 0.000315159
4 *2365:A2 9.57643e-05
5 *2011:B 0
6 *2382:A2 7.60601e-05
7 *2371:A2 0
8 *2353:A2 0
9 *2373:A2 0
10 *2002:B 8.85298e-05
11 *2577:X 0
12 *743:129 0.000260476
13 *743:92 0.000802229
14 *743:85 0.000710294
15 *743:68 0.000479878
16 *743:59 0.000428034
17 *743:45 0.00018655
18 *743:37 0.000260997
19 *743:35 0.000539032
20 *743:18 0.00057572
21 *743:12 0.000733579
22 *743:4 0.000628245
23 *1997:B *743:12 0
24 *2280:C *743:129 0
25 *2353:A1 *743:37 5.83407e-05
26 *2353:A1 *743:45 1.94812e-05
27 *2361:B *743:59 0.000207845
28 *2377:A *743:129 4.17736e-05
29 *2378:A *743:129 2.05503e-05
30 *2382:A3 *2382:A2 5.50049e-05
31 *2556:A *743:18 0.000156058
32 *2573:A *743:129 1.21972e-05
33 *108:10 *2002:B 1.28818e-05
34 *112:39 *743:12 0.0005715
35 *112:39 *743:129 0.000187129
36 *112:55 *743:45 1.05441e-05
37 *112:65 *743:45 5.79466e-05
38 *112:113 *743:12 0.000195004
39 *156:29 *2002:B 1.37039e-05
40 *347:39 *743:45 6.01687e-05
41 *348:40 *2382:A2 2.4754e-05
42 *348:40 *743:85 0.000315852
43 *348:40 *743:92 8.43466e-05
44 *352:14 *743:45 6.32792e-05
45 *353:8 *2002:B 3.81391e-05
46 *353:8 *743:35 6.53787e-05
47 *353:8 *743:45 0
48 *353:8 *743:59 0.000233876
49 *354:8 *743:59 0
50 *358:10 *743:85 0
51 *359:16 *743:35 8.52481e-05
52 *359:16 *743:37 0.000301719
53 *359:16 *743:45 5.67058e-05
54 *359:16 *743:59 0
55 *631:6 *2382:A2 4.08664e-05
56 *631:6 *743:92 6.82611e-05
57 *631:19 *743:59 1.14452e-05
58 *631:19 *743:68 0.000175959
59 *631:19 *743:85 2.40336e-05
60 *633:22 *743:59 1.14452e-05
61 *633:22 *743:68 0.000176135
62 *639:24 *2365:A2 5.09961e-05
63 *641:43 *743:129 6.07611e-06
64 *739:6 *743:12 5.50049e-05
65 *739:23 *743:12 9.84851e-05
66 *739:23 *743:129 0.000258245
67 *741:26 *743:45 5.40399e-05
68 *742:6 *2357:C 5.50106e-05
69 *742:12 *2357:C 0.000228903
70 *742:22 *2365:A2 2.22214e-05
71 *742:22 *743:92 5.8245e-05
72 *742:57 *2002:B 0.000164291
73 *742:57 *743:35 0.00025198
74 *742:57 *743:37 6.16045e-05
75 *742:57 *743:59 2.2924e-05
*RES
1 *2577:X *743:4 23 
2 *743:4 *743:12 38.9486 
3 *743:12 *743:18 21.3593 
4 *743:18 *2002:B 40.408 
5 *743:18 *743:35 19.06 
6 *743:35 *743:37 3.48 
7 *743:37 *743:45 33.9357 
8 *743:45 *2373:A2 23 
9 *743:37 *2353:A2 23 
10 *743:35 *743:59 21.4836 
11 *743:59 *2371:A2 38 
12 *743:59 *743:68 2.61 
13 *743:68 *2382:A2 39.5743 
14 *743:68 *743:85 20.3029 
15 *743:85 *2011:B 23 
16 *743:85 *743:92 5.38571 
17 *743:92 *2365:A2 25.7136 
18 *743:92 *2357:C 27.9093 
19 *743:12 *1997:C 23 
20 *743:4 *743:129 35.5721 
21 *743:129 *2279:A_N 23 
*END

*D_NET *744 0.0126984
*CONN
*I *2545:SET_B I *D sky130_fd_sc_hd__dfstp_1
*I *2474:SET_B I *D sky130_fd_sc_hd__dfstp_1
*I *2500:SET_B I *D sky130_fd_sc_hd__dfstp_2
*I *2548:SET_B I *D sky130_fd_sc_hd__dfstp_1
*I *2549:SET_B I *D sky130_fd_sc_hd__dfstp_1
*I *2473:SET_B I *D sky130_fd_sc_hd__dfstp_1
*I *2472:SET_B I *D sky130_fd_sc_hd__dfstp_1
*I *2471:SET_B I *D sky130_fd_sc_hd__dfstp_1
*I *2547:SET_B I *D sky130_fd_sc_hd__dfstp_1
*I *2470:SET_B I *D sky130_fd_sc_hd__dfstp_1
*I *2578:X O *D sky130_fd_sc_hd__clkbuf_4
*CAP
1 *2545:SET_B 0
2 *2474:SET_B 0.000480719
3 *2500:SET_B 0.000249961
4 *2548:SET_B 3.60243e-05
5 *2549:SET_B 0
6 *2473:SET_B 7.48098e-05
7 *2472:SET_B 0.000170261
8 *2471:SET_B 0.000395039
9 *2547:SET_B 0.000676125
10 *2470:SET_B 0.00108308
11 *2578:X 0.000315304
12 *744:99 0.000584177
13 *744:89 0.000864215
14 *744:82 0.000304022
15 *744:66 0.000651412
16 *744:60 0.000865075
17 *744:28 0.000803293
18 *744:10 0.0011162
19 *2349:S *744:10 2.18506e-05
20 *2444:A0 *744:28 0.000493457
21 *2444:A1 *744:28 7.40718e-05
22 *2444:S *744:28 5.25436e-05
23 *2446:S *744:99 0.000298095
24 *2470:CLK *2470:SET_B 2.93747e-05
25 *2471:D *2471:SET_B 7.61692e-05
26 *2496:CLK *2470:SET_B 0
27 *2546:CLK *744:82 0
28 *2548:CLK *744:99 9.84794e-05
29 *122:20 *744:10 0
30 *150:29 *744:10 6.70914e-05
31 *151:25 *2470:SET_B 0.00014042
32 *151:25 *744:28 9.18694e-05
33 *153:14 *744:99 0.000206175
34 *165:10 *2470:SET_B 0.00010018
35 *165:10 *744:28 0.000111193
36 *167:19 *744:28 0.000128359
37 *167:27 *744:60 0
38 *169:10 *2474:SET_B 0.000201854
39 *258:10 *2472:SET_B 0
40 *307:10 *2471:SET_B 0
41 *307:10 *2547:SET_B 8.62876e-05
42 *307:10 *744:28 9.84851e-05
43 *308:14 *744:82 0
44 *350:56 *744:10 5.67058e-05
45 *699:41 *2500:SET_B 4.82162e-05
46 *699:43 *2500:SET_B 0
47 *702:42 *2474:SET_B 0
48 *702:44 *2474:SET_B 0
49 *702:46 *2474:SET_B 0
50 *702:46 *744:82 0
51 *702:46 *744:89 0
52 *702:71 *2472:SET_B 0.000137061
53 *702:71 *2473:SET_B 3.47879e-05
54 *702:79 *2472:SET_B 3.31127e-05
55 *702:79 *2547:SET_B 0
56 *702:92 *2471:SET_B 7.30875e-05
57 *702:92 *2547:SET_B 4.9662e-05
58 *703:65 *2470:SET_B 0
59 *703:65 *744:10 0
60 *703:97 *2470:SET_B 6.79006e-05
61 *741:42 *2474:SET_B 0.000136486
62 *741:44 *2474:SET_B 0.000294055
63 *741:44 *744:82 0.000276784
64 *741:44 *744:89 0.000129504
65 *741:46 *744:82 6.48142e-05
66 *741:50 *744:60 5.55278e-05
67 *741:50 *744:82 8.4047e-05
68 *741:56 *2547:SET_B 0
69 *741:56 *744:60 0
70 *741:56 *744:66 3.71228e-05
71 *741:73 *2547:SET_B 2.06655e-05
72 *741:98 *744:66 1.39431e-05
73 *741:124 *2473:SET_B 3.92407e-05
*RES
1 *2578:X *744:10 43.4686 
2 *744:10 *2470:SET_B 28.1018 
3 *2470:SET_B *744:28 24.6011 
4 *744:28 *2547:SET_B 19.6504 
5 *2547:SET_B *2471:SET_B 37.4675 
6 *744:28 *744:60 4.99214 
7 *744:60 *744:66 34.9093 
8 *744:66 *2472:SET_B 19.3707 
9 *744:66 *2473:SET_B 16.5536 
10 *744:60 *744:82 5.42714 
11 *744:82 *2549:SET_B 15 
12 *744:82 *744:89 1.90571 
13 *744:89 *744:99 23.4307 
14 *744:99 *2548:SET_B 0.776786 
15 *744:99 *2500:SET_B 34.4121 
16 *744:89 *2474:SET_B 24.6632 
17 *744:10 *2545:SET_B 15 
*END

*D_NET *745 0.0119099
*CONN
*I *2493:SET_B I *D sky130_fd_sc_hd__dfstp_1
*I *2501:SET_B I *D sky130_fd_sc_hd__dfstp_2
*I *2477:SET_B I *D sky130_fd_sc_hd__dfstp_1
*I *2476:SET_B I *D sky130_fd_sc_hd__dfstp_1
*I *2475:SET_B I *D sky130_fd_sc_hd__dfstp_1
*I *2551:SET_B I *D sky130_fd_sc_hd__dfstp_1
*I *2550:SET_B I *D sky130_fd_sc_hd__dfstp_1
*I *2492:SET_B I *D sky130_fd_sc_hd__dfstp_1
*I *2578:A I *D sky130_fd_sc_hd__clkbuf_4
*I *2546:SET_B I *D sky130_fd_sc_hd__dfstp_1
*I *2579:X O *D sky130_fd_sc_hd__clkbuf_4
*CAP
1 *2493:SET_B 0.000237555
2 *2501:SET_B 9.56106e-05
3 *2477:SET_B 0.000325605
4 *2476:SET_B 0.000451581
5 *2475:SET_B 0.000918025
6 *2551:SET_B 0.000441034
7 *2550:SET_B 0.000458165
8 *2492:SET_B 0.000169006
9 *2578:A 0
10 *2546:SET_B 0.000138612
11 *2579:X 0
12 *745:96 0.000411597
13 *745:45 0.00133812
14 *745:41 0.000703236
15 *745:31 0.000776869
16 *745:18 0.000581667
17 *745:6 0.000208275
18 *745:31 *748:35 0
19 *2275:A1 *2476:SET_B 0.000141879
20 *2275:A1 *2477:SET_B 3.2457e-05
21 *2276:A0 *2477:SET_B 6.96368e-05
22 *2338:S *2492:SET_B 1.40958e-05
23 *2338:S *745:31 8.10857e-05
24 *2448:A0 *2551:SET_B 0
25 *2490:CLK *745:31 8.57661e-05
26 *2501:CLK *2551:SET_B 0.00020457
27 *2550:D *2475:SET_B 5.01469e-05
28 *122:20 *2546:SET_B 0.000111824
29 *123:14 *2501:SET_B 7.88828e-05
30 *130:8 *2492:SET_B 3.32734e-05
31 *130:29 *2501:SET_B 2.02872e-05
32 *130:29 *745:41 1.69668e-05
33 *131:10 *2493:SET_B 3.28876e-05
34 *131:16 *2493:SET_B 2.76611e-06
35 *150:14 *2546:SET_B 0.000199252
36 *150:21 *2546:SET_B 3.32677e-05
37 *150:29 *2546:SET_B 5.91383e-05
38 *150:29 *745:18 7.80354e-05
39 *150:29 *745:31 0.00018732
40 *150:42 *2546:SET_B 9.84851e-05
41 *154:10 *745:45 6.04605e-05
42 *170:10 *2475:SET_B 2.27011e-05
43 *171:8 *2476:SET_B 1.05235e-05
44 *262:8 *2477:SET_B 0.000675708
45 *350:18 *2493:SET_B 0.000113571
46 *350:37 *2493:SET_B 0.00021673
47 *350:37 *745:31 0
48 *350:37 *745:41 0.000303278
49 *350:37 *745:96 0.000188926
50 *354:10 *2493:SET_B 6.7177e-06
51 *354:14 *2493:SET_B 0
52 *354:14 *745:96 0
53 *702:27 *2551:SET_B 5.02669e-05
54 *702:150 *2475:SET_B 0.000169675
55 *702:204 *2477:SET_B 0.000203929
56 *703:65 *2546:SET_B 1.83667e-05
57 *703:111 *2546:SET_B 4.07715e-05
58 *703:111 *745:18 6.93553e-05
59 *703:120 *745:18 1.47563e-05
60 *703:120 *745:31 0.00010763
61 *703:170 *2501:SET_B 5.3304e-05
62 *703:170 *745:41 3.70094e-05
63 *703:170 *745:96 0.000154147
64 *703:176 *2492:SET_B 0.000143367
65 *703:176 *745:41 0.000222113
66 *741:42 *2476:SET_B 0.000139657
*RES
1 *2579:X *745:6 38 
2 *745:6 *2546:SET_B 19.9611 
3 *745:6 *745:18 2.25786 
4 *745:18 *2578:A 38 
5 *745:18 *745:31 25.4193 
6 *745:31 *2492:SET_B 3.4075 
7 *745:31 *745:41 19.0186 
8 *745:41 *745:45 23.7207 
9 *745:45 *2550:SET_B 0.548929 
10 *2550:SET_B *2551:SET_B 38.5654 
11 *745:45 *2475:SET_B 12.1696 
12 *2475:SET_B *2476:SET_B 32.9311 
13 *2476:SET_B *2477:SET_B 40.8232 
14 *745:41 *745:96 2.61 
15 *745:96 *2501:SET_B 17.3511 
16 *745:96 *2493:SET_B 20.8414 
*END

*D_NET *746 0.00982921
*CONN
*I *2502:SET_B I *D sky130_fd_sc_hd__dfstp_1
*I *2498:SET_B I *D sky130_fd_sc_hd__dfstp_1
*I *2491:SET_B I *D sky130_fd_sc_hd__dfstp_1
*I *2490:SET_B I *D sky130_fd_sc_hd__dfstp_1
*I *2488:SET_B I *D sky130_fd_sc_hd__dfstp_1
*I *2487:SET_B I *D sky130_fd_sc_hd__dfstp_1
*I *2497:SET_B I *D sky130_fd_sc_hd__dfstp_1
*I *2496:SET_B I *D sky130_fd_sc_hd__dfstp_2
*I *2499:SET_B I *D sky130_fd_sc_hd__dfstp_1
*I *2495:SET_B I *D sky130_fd_sc_hd__dfstp_1
*I *2580:X O *D sky130_fd_sc_hd__clkbuf_4
*CAP
1 *2502:SET_B 0.000135294
2 *2498:SET_B 5.70618e-05
3 *2491:SET_B 0.000537729
4 *2490:SET_B 0.000693543
5 *2488:SET_B 0.000118711
6 *2487:SET_B 0
7 *2497:SET_B 0.000217017
8 *2496:SET_B 0.000764438
9 *2499:SET_B 0
10 *2495:SET_B 0.000237125
11 *2580:X 3.97175e-05
12 *746:93 0.000497139
13 *746:58 0.000376331
14 *746:51 0.000552915
15 *746:39 0.000749422
16 *746:25 0.00117438
17 *746:18 0.000261121
18 *746:6 0.00035151
19 *2495:SET_B *748:68 5.50106e-05
20 *746:18 *748:68 0.000116314
21 *746:25 *748:68 0.000210668
22 *2336:A0 *746:51 1.69668e-05
23 *2336:A1 *746:51 0
24 *2336:S *2490:SET_B 3.3123e-05
25 *2336:S *746:51 0.000124862
26 *2336:S *746:58 6.33511e-05
27 *2344:A0 *746:25 4.85126e-05
28 *2344:A0 *746:93 3.3746e-05
29 *2345:S *746:39 0.000141879
30 *2345:S *746:51 0.000115289
31 *2490:D *2491:SET_B 3.08719e-06
32 *2495:D *2495:SET_B 2.52027e-05
33 *2497:D *2497:SET_B 3.76692e-06
34 *117:8 *2495:SET_B 0.000120217
35 *117:18 *2495:SET_B 2.18506e-05
36 *117:18 *746:6 1.76557e-05
37 *118:23 *2496:SET_B 0.000746386
38 *118:31 *746:25 0
39 *119:12 *2497:SET_B 1.06929e-05
40 *119:33 *2497:SET_B 2.46007e-05
41 *120:12 *2498:SET_B 2.52027e-05
42 *122:20 *2502:SET_B 1.53169e-05
43 *125:19 *2490:SET_B 3.40853e-05
44 *126:10 *2488:SET_B 1.06929e-05
45 *126:10 *2490:SET_B 9.33529e-06
46 *128:8 *2491:SET_B 3.28708e-05
47 *149:27 *746:51 0
48 *151:38 *2490:SET_B 0
49 *151:38 *746:51 0
50 *151:38 *746:58 0
51 *152:29 *2488:SET_B 0.000352711
52 *153:31 *2502:SET_B 3.39231e-05
53 *153:31 *746:93 0.000101759
54 *273:8 *746:51 0.000141879
55 *276:8 *2490:SET_B 0.000138718
56 *350:56 *746:51 0.000142346
57 *354:45 *2490:SET_B 6.42902e-05
58 *354:45 *2491:SET_B 2.94414e-05
59 *703:18 *746:51 0
60 *703:31 *746:39 0
61 *703:31 *746:51 0
*RES
1 *2580:X *746:6 23.6214 
2 *746:6 *2495:SET_B 4.8575 
3 *746:6 *746:18 16.5536 
4 *746:18 *2499:SET_B 15 
5 *746:18 *746:25 4.37071 
6 *746:25 *2496:SET_B 25.7196 
7 *2496:SET_B *746:39 16.9057 
8 *746:39 *2497:SET_B 18.4075 
9 *746:39 *746:51 10.2743 
10 *746:51 *2487:SET_B 15 
11 *746:51 *746:58 1.90571 
12 *746:58 *2488:SET_B 18.8839 
13 *746:58 *2490:SET_B 19.785 
14 *2490:SET_B *2491:SET_B 7.95429 
15 *746:25 *746:93 5.42714 
16 *746:93 *2498:SET_B 16.0254 
17 *746:93 *2502:SET_B 17.5996 
*END

*D_NET *747 0.0104012
*CONN
*I *2073:A I *D sky130_fd_sc_hd__xnor2_1
*I *2025:A2 I *D sky130_fd_sc_hd__o221a_1
*I *1977:A I *D sky130_fd_sc_hd__inv_2
*I *2106:A1 I *D sky130_fd_sc_hd__o2111a_1
*I *2616:X O *D sky130_fd_sc_hd__clkbuf_2
*CAP
1 *2073:A 0.000394705
2 *2025:A2 0
3 *1977:A 0
4 *2106:A1 0.000177095
5 *2616:X 0.000609158
6 *747:61 0.00101836
7 *747:26 0.000775098
8 *747:18 0.000675609
9 *747:16 0.000911
10 *747:12 0.000818901
11 *2106:A1 *2523:RESET_B 0.00010018
12 *2106:A1 *761:18 5.68502e-05
13 *747:26 *1979:A 2.93747e-05
14 *747:26 *761:18 4.66519e-05
15 *747:61 *756:48 0.000146839
16 *2032:A *747:61 5.67058e-05
17 *2032:C *747:61 1.21972e-05
18 *2032:D *747:61 0.000651349
19 *2050:B *747:61 0
20 *2052:A *2073:A 0.000407414
21 *2052:A *747:61 1.14154e-05
22 *2052:C *2073:A 9.24795e-06
23 *2052:C *747:61 5.29672e-05
24 *2052:D_N *747:61 9.84851e-05
25 *2055:C1 *747:61 0.000136486
26 *2073:B *2073:A 5.50106e-05
27 *2173:B2 *747:26 3.7122e-06
28 *2571:A *747:61 0.000268221
29 *5:9 *747:12 0.000128401
30 *224:37 *747:61 2.39378e-05
31 *226:18 *747:61 1.01436e-05
32 *229:24 *747:18 9.0102e-05
33 *229:24 *747:26 0.000313255
34 *229:24 *747:61 0.00016064
35 *242:8 *747:12 0
36 *242:20 *747:12 0.000194318
37 *322:71 *747:16 9.03784e-05
38 *322:71 *747:18 1.40958e-05
39 *326:38 *747:12 6.68587e-05
40 *329:8 *747:18 5.25848e-05
41 *329:8 *747:26 1.22822e-05
42 *331:27 *747:26 0.000168181
43 *332:12 *747:26 5.3304e-05
44 *332:46 *747:26 0.00053003
45 *363:10 *747:16 0.000342125
46 *365:24 *747:16 7.76364e-06
47 *365:24 *747:61 9.67842e-05
48 *373:6 *747:18 6.17437e-06
49 *373:6 *747:61 0.0002314
50 *390:12 *747:61 8.12802e-06
51 *392:6 *747:61 1.21972e-05
52 *394:10 *747:61 5.50106e-05
53 *708:137 *747:12 0
54 *708:137 *747:16 9.52902e-05
55 *729:43 *2106:A1 0
56 *730:8 *747:12 0
57 *730:45 *2106:A1 4.21594e-06
58 *730:45 *747:26 4.91388e-05
59 *732:8 *747:12 2.5415e-05
60 *732:12 *747:12 3.59943e-05
*RES
1 *2616:X *747:12 49.2168 
2 *747:12 *747:16 20.6032 
3 *747:16 *747:18 2.05071 
4 *747:18 *747:26 28.7336 
5 *747:26 *2106:A1 41.7079 
6 *747:26 *1977:A 38 
7 *747:18 *2025:A2 23 
8 *747:16 *747:61 47.835 
9 *747:61 *2073:A 29.8564 
*END

*D_NET *748 0.0112237
*CONN
*I *2580:A I *D sky130_fd_sc_hd__clkbuf_4
*I *2494:SET_B I *D sky130_fd_sc_hd__dfstp_1
*I *2552:SET_B I *D sky130_fd_sc_hd__dfstp_1
*I *2489:SET_B I *D sky130_fd_sc_hd__dfstp_2
*I *2579:A I *D sky130_fd_sc_hd__clkbuf_4
*I *2581:X O *D sky130_fd_sc_hd__clkbuf_2
*CAP
1 *2580:A 0
2 *2494:SET_B 7.15383e-05
3 *2552:SET_B 0.000918621
4 *2489:SET_B 0
5 *2579:A 1.50079e-05
6 *2581:X 6.72505e-05
7 *748:68 0.000165863
8 *748:44 0.00129442
9 *748:35 0.000927627
10 *748:24 0.00111853
11 *748:18 0.00119776
12 *748:6 0.000950713
13 *2342:A0 *2552:SET_B 3.46673e-05
14 *2342:S *2552:SET_B 5.67058e-05
15 *2344:A0 *748:68 0.000324751
16 *2346:A1 *748:24 0.000310653
17 *2348:S *748:18 0.000182826
18 *2350:S *2552:SET_B 0.000397154
19 *2442:A0 *748:24 2.13733e-05
20 *2490:CLK *748:35 9.39159e-05
21 *2495:SET_B *748:68 5.50106e-05
22 *2496:CLK *748:24 1.83564e-05
23 *117:18 *748:68 0.00011835
24 *118:23 *748:6 3.16784e-05
25 *118:23 *748:18 7.38255e-05
26 *120:12 *748:18 0.000163352
27 *123:14 *2552:SET_B 4.5051e-05
28 *126:21 *748:35 0
29 *126:21 *748:44 0
30 *126:111 *748:44 0
31 *131:16 *2494:SET_B 4.2573e-05
32 *131:16 *2552:SET_B 0.000227208
33 *132:6 *2494:SET_B 1.39431e-05
34 *132:6 *2552:SET_B 4.71665e-05
35 *149:19 *748:24 7.43025e-06
36 *150:42 *2579:A 5.50049e-05
37 *151:25 *748:24 1.83667e-05
38 *151:38 *748:24 8.67875e-05
39 *151:38 *748:35 0.000404995
40 *152:42 *748:18 1.47563e-05
41 *156:10 *2552:SET_B 2.92259e-05
42 *275:8 *748:35 4.58924e-05
43 *281:10 *748:18 5.93381e-05
44 *284:10 *748:18 3.83778e-05
45 *285:10 *748:18 5.50106e-05
46 *287:10 *2552:SET_B 0.000182826
47 *350:37 *2552:SET_B 4.21281e-05
48 *350:37 *748:35 0
49 *350:37 *748:44 0
50 *350:78 *748:18 0.000156984
51 *350:78 *748:24 0.000226306
52 *703:31 *748:18 0.000100713
53 *703:63 *2579:A 5.50049e-05
54 *703:65 *748:24 9.28842e-05
55 *703:65 *748:35 1.22803e-05
56 *703:111 *748:35 0.000104143
57 *703:120 *748:35 0.000122386
58 *745:31 *748:35 0
59 *746:18 *748:68 0.000116314
60 *746:25 *748:68 0.000210668
*RES
1 *2581:X *748:6 24.0979 
2 *748:6 *748:18 43.8371 
3 *748:18 *748:24 25.2536 
4 *748:24 *2579:A 38.6214 
5 *748:24 *748:35 15.2871 
6 *748:35 *2489:SET_B 15 
7 *748:35 *748:44 19.7229 
8 *748:44 *2552:SET_B 18.9018 
9 *748:44 *2494:SET_B 1.75036 
10 *748:6 *748:68 35.6964 
11 *748:68 *2580:A 23 
*END

*D_NET *749 0.0107523
*CONN
*I *2504:RESET_B I *D sky130_fd_sc_hd__dfrtp_1
*I *2507:RESET_B I *D sky130_fd_sc_hd__dfrtp_1
*I *2531:RESET_B I *D sky130_fd_sc_hd__dfrtp_1
*I *2508:RESET_B I *D sky130_fd_sc_hd__dfrtp_1
*I *2542:SET_B I *D sky130_fd_sc_hd__dfstp_1
*I *2478:SET_B I *D sky130_fd_sc_hd__dfstp_1
*I *2541:RESET_B I *D sky130_fd_sc_hd__dfrtp_1
*I *2540:RESET_B I *D sky130_fd_sc_hd__dfrtp_1
*I *2544:SET_B I *D sky130_fd_sc_hd__dfstp_1
*I *2528:RESET_B I *D sky130_fd_sc_hd__dfrtp_1
*I *2582:X O *D sky130_fd_sc_hd__clkbuf_4
*CAP
1 *2504:RESET_B 0.000263595
2 *2507:RESET_B 0.000280157
3 *2531:RESET_B 2.93333e-05
4 *2508:RESET_B 0.000759683
5 *2542:SET_B 0
6 *2478:SET_B 0
7 *2541:RESET_B 0
8 *2540:RESET_B 0.000155618
9 *2544:SET_B 0
10 *2528:RESET_B 0.000615737
11 *2582:X 0.000822145
12 *749:50 0.000461467
13 *749:48 0.000541388
14 *749:39 0.000406715
15 *749:35 0.000349844
16 *749:33 0.00119899
17 *749:18 0.000956195
18 *749:8 0.00141047
19 *2508:RESET_B *2529:RESET_B 9.60606e-05
20 *2508:RESET_B *750:36 6.02277e-06
21 *2508:RESET_B *750:55 5.44006e-05
22 *2508:RESET_B *750:67 0
23 *2540:RESET_B *762:10 0
24 *749:8 *752:47 5.12254e-05
25 *749:50 *762:10 0
26 *2188:A1 *2528:RESET_B 0.000146195
27 *2188:A1 *2531:RESET_B 1.32314e-05
28 *2438:C *749:18 0.000113153
29 *2508:D *2508:RESET_B 0
30 *2528:CLK *749:33 5.50106e-05
31 *110:14 *2528:RESET_B 3.56537e-05
32 *110:27 *749:18 0
33 *110:43 *749:18 9.64022e-05
34 *113:6 *2504:RESET_B 0.00013506
35 *116:6 *749:8 0.000143059
36 *164:8 *2531:RESET_B 8.658e-06
37 *173:10 *749:50 5.20202e-05
38 *173:16 *2540:RESET_B 0.000157883
39 *173:16 *749:50 0.000224669
40 *174:10 *2508:RESET_B 0
41 *174:10 *749:35 0
42 *175:10 *2508:RESET_B 0.000195157
43 *176:10 *749:39 0
44 *176:10 *749:48 0
45 *177:12 *749:33 7.60287e-05
46 *177:12 *749:35 0.000102365
47 *177:12 *749:39 0
48 *177:12 *749:48 0
49 *177:12 *749:50 0
50 *264:10 *749:48 0
51 *264:10 *749:50 0
52 *294:10 *749:35 0
53 *303:10 *2540:RESET_B 0
54 *345:25 *2508:RESET_B 0
55 *346:10 *2508:RESET_B 0
56 *504:28 *2528:RESET_B 0.000262858
57 *505:16 *2528:RESET_B 0.000141888
58 *508:10 *2528:RESET_B 0
59 *704:12 *749:18 0.000104881
60 *704:27 *749:48 0
61 *704:33 *749:48 0
62 *704:108 *2508:RESET_B 0
63 *704:119 *2508:RESET_B 0
64 *704:130 *2508:RESET_B 0
65 *704:143 *2508:RESET_B 0
66 *712:10 *749:35 0
67 *713:8 *2508:RESET_B 8.51432e-05
68 *741:26 *2504:RESET_B 0.000143933
*RES
1 *2582:X *749:8 34.6 
2 *749:8 *749:18 40.2121 
3 *749:18 *2528:RESET_B 37.2914 
4 *2528:RESET_B *749:33 19.3604 
5 *749:33 *749:35 4.01857 
6 *749:35 *749:39 3.48 
7 *749:39 *2544:SET_B 15 
8 *749:39 *749:48 4.64 
9 *749:48 *749:50 7.54 
10 *749:50 *2540:RESET_B 19.0186 
11 *749:50 *2541:RESET_B 15 
12 *749:48 *2478:SET_B 15 
13 *749:35 *2542:SET_B 15 
14 *749:33 *2508:RESET_B 32.0479 
15 *749:18 *2531:RESET_B 0.548929 
16 *749:8 *2507:RESET_B 0.548929 
17 *2507:RESET_B *2504:RESET_B 35.9968 
*END

*D_NET *750 0.011854
*CONN
*I *2510:RESET_B I *D sky130_fd_sc_hd__dfrtp_1
*I *2515:RESET_B I *D sky130_fd_sc_hd__dfrtp_1
*I *2516:RESET_B I *D sky130_fd_sc_hd__dfrtp_1
*I *2511:RESET_B I *D sky130_fd_sc_hd__dfrtp_1
*I *2509:RESET_B I *D sky130_fd_sc_hd__dfrtp_1
*I *2512:RESET_B I *D sky130_fd_sc_hd__dfrtp_1
*I *2543:SET_B I *D sky130_fd_sc_hd__dfstp_1
*I *2529:RESET_B I *D sky130_fd_sc_hd__dfrtp_1
*I *2530:RESET_B I *D sky130_fd_sc_hd__dfrtp_1
*I *2583:X O *D sky130_fd_sc_hd__clkbuf_4
*CAP
1 *2510:RESET_B 4.07077e-05
2 *2515:RESET_B 1.27064e-05
3 *2516:RESET_B 0.000312514
4 *2511:RESET_B 0.00141317
5 *2509:RESET_B 0.000125892
6 *2512:RESET_B 4.08008e-05
7 *2543:SET_B 8.524e-05
8 *2529:RESET_B 0.00010411
9 *2530:RESET_B 0.000169909
10 *2583:X 0.000457433
11 *750:104 0.00134737
12 *750:71 0.000603864
13 *750:67 0.000622549
14 *750:55 0.000689961
15 *750:36 0.000278561
16 *750:34 0.000695768
17 *750:14 0.00107963
18 *1988:B *750:67 0
19 *2116:A_N *2530:RESET_B 2.84479e-05
20 *2187:B *750:14 0.000128964
21 *2190:C *750:36 2.3529e-05
22 *2190:C *750:55 8.51432e-05
23 *2191:B2 *750:14 5.3304e-05
24 *2508:RESET_B *2529:RESET_B 9.60606e-05
25 *2508:RESET_B *750:36 6.02277e-06
26 *2508:RESET_B *750:55 5.44006e-05
27 *2508:RESET_B *750:67 0
28 *2510:CLK *750:71 0
29 *2530:D *750:34 4.32397e-05
30 *161:8 *750:67 0.00010018
31 *161:23 *750:55 0
32 *161:23 *750:67 0
33 *162:38 *2530:RESET_B 3.0647e-05
34 *162:38 *750:14 4.6318e-06
35 *163:30 *750:55 0
36 *164:59 *750:14 9.17484e-05
37 *174:10 *2529:RESET_B 0.000140661
38 *174:10 *750:36 8.16253e-05
39 *175:10 *2543:SET_B 5.50049e-05
40 *175:10 *750:36 0.000194318
41 *175:10 *750:55 0.000188256
42 *179:6 *2509:RESET_B 3.71251e-05
43 *179:6 *2511:RESET_B 8.10976e-05
44 *179:14 *2511:RESET_B 0.000104617
45 *179:14 *750:67 0
46 *179:14 *750:71 0
47 *179:20 *750:67 0
48 *183:8 *750:67 0
49 *184:10 *2509:RESET_B 5.3304e-05
50 *184:10 *2511:RESET_B 0.000213869
51 *184:10 *750:67 1.01436e-05
52 *184:10 *750:71 9.85378e-05
53 *185:19 *2511:RESET_B 3.61611e-05
54 *185:19 *750:71 2.96369e-05
55 *193:10 *2516:RESET_B 9.40954e-05
56 *194:32 *2516:RESET_B 0.000103804
57 *207:10 *2516:RESET_B 0
58 *345:14 *750:67 0
59 *345:25 *750:67 0.000382555
60 *346:10 *750:67 4.23235e-05
61 *447:14 *750:14 5.85822e-06
62 *704:112 *750:34 0.000562654
63 *704:188 *750:104 0.000374045
64 *728:10 *750:67 0.000137788
*RES
1 *2583:X *750:14 45.105 
2 *750:14 *2530:RESET_B 17.8275 
3 *750:14 *750:34 38.8864 
4 *750:34 *750:36 2.96214 
5 *750:36 *2529:RESET_B 18.6664 
6 *750:36 *2543:SET_B 16.5018 
7 *750:34 *750:55 19.7229 
8 *750:55 *2512:RESET_B 0.548929 
9 *750:55 *750:67 26.7036 
10 *750:67 *750:71 16.9057 
11 *750:71 *2509:RESET_B 2.45464 
12 *750:71 *2511:RESET_B 38.41 
13 *2511:RESET_B *750:104 17.0789 
14 *750:104 *2516:RESET_B 36.5664 
15 *750:104 *2515:RESET_B 0.548929 
16 *750:67 *2510:RESET_B 15.6214 
*END

*D_NET *751 0.0154021
*CONN
*I *2538:SET_B I *D sky130_fd_sc_hd__dfstp_1
*I *2524:RESET_B I *D sky130_fd_sc_hd__dfrtp_1
*I *2503:RESET_B I *D sky130_fd_sc_hd__dfrtp_4
*I *2506:RESET_B I *D sky130_fd_sc_hd__dfrtp_1
*I *2517:RESET_B I *D sky130_fd_sc_hd__dfrtp_1
*I *2514:RESET_B I *D sky130_fd_sc_hd__dfrtp_1
*I *2513:RESET_B I *D sky130_fd_sc_hd__dfrtp_2
*I *2527:RESET_B I *D sky130_fd_sc_hd__dfrtp_1
*I *2526:RESET_B I *D sky130_fd_sc_hd__dfrtp_1
*I *2505:RESET_B I *D sky130_fd_sc_hd__dfrtp_1
*I *2584:X O *D sky130_fd_sc_hd__clkbuf_4
*CAP
1 *2538:SET_B 0.000148496
2 *2524:RESET_B 6.16183e-05
3 *2503:RESET_B 3.91738e-05
4 *2506:RESET_B 0.000318332
5 *2517:RESET_B 0.00030809
6 *2514:RESET_B 0.00148868
7 *2513:RESET_B 0.000754093
8 *2527:RESET_B 0
9 *2526:RESET_B 0
10 *2505:RESET_B 0.000213433
11 *2584:X 0.000164531
12 *751:107 0.00044671
13 *751:96 0.00135456
14 *751:55 0.0012964
15 *751:40 0.00106554
16 *751:28 0.000625465
17 *751:24 0.000948109
18 *751:18 0.00095459
19 *751:12 0.000650617
20 *751:8 0.000301572
21 *2505:RESET_B *752:37 0.000229315
22 *2513:RESET_B *752:47 0
23 *2514:RESET_B *752:47 0
24 *751:18 *752:14 0
25 *751:18 *752:23 0
26 *751:55 *752:47 0
27 *1982:A *751:96 4.95262e-06
28 *2108:B1 *751:96 0.000350612
29 *2118:A2 *2514:RESET_B 6.26356e-05
30 *2118:A2 *751:96 0
31 *2120:A2 *2514:RESET_B 6.08751e-05
32 *2121:A *751:96 1.05441e-05
33 *2122:B *751:96 6.24638e-05
34 *2506:CLK *751:12 6.17437e-06
35 *2513:D *2514:RESET_B 0
36 *2524:CLK *751:24 0.000750602
37 *115:10 *2506:RESET_B 4.42795e-05
38 *187:41 *2514:RESET_B 0.000128401
39 *191:10 *751:55 0
40 *192:47 *751:96 9.22663e-05
41 *195:8 *2517:RESET_B 0
42 *195:18 *2517:RESET_B 4.48731e-05
43 *201:18 *2514:RESET_B 0
44 *201:18 *751:96 1.45403e-05
45 *206:18 *751:96 8.4459e-05
46 *215:12 *751:55 0.000461567
47 *292:8 *2506:RESET_B 4.70852e-05
48 *301:10 *751:8 0
49 *302:10 *751:8 0
50 *315:12 *2506:RESET_B 0.000110922
51 *335:22 *751:96 0.000182183
52 *347:79 *2506:RESET_B 8.68903e-05
53 *347:89 *2506:RESET_B 6.6869e-05
54 *359:79 *2503:RESET_B 9.18694e-05
55 *446:8 *751:96 2.60093e-05
56 *453:12 *751:96 2.11066e-05
57 *459:25 *2517:RESET_B 0
58 *460:8 *2517:RESET_B 9.63815e-05
59 *461:27 *2517:RESET_B 0.000130138
60 *462:10 *2517:RESET_B 2.49836e-05
61 *651:10 *2506:RESET_B 0
62 *651:10 *751:28 8.62073e-06
63 *701:22 *751:28 2.76611e-06
64 *701:22 *751:40 3.21327e-05
65 *701:22 *751:55 2.22079e-05
66 *701:39 *751:55 0
67 *705:21 *751:55 0
68 *705:23 *751:40 0
69 *705:23 *751:55 0
70 *705:27 *751:28 0
71 *705:52 *751:28 0
72 *705:156 *751:55 8.4047e-05
73 *706:102 *2538:SET_B 5.8459e-05
74 *706:104 *2538:SET_B 2.18409e-05
75 *706:104 *751:12 0.000103647
76 *706:124 *751:8 0
77 *706:124 *751:18 0.000141879
78 *711:10 *2517:RESET_B 1.17049e-05
79 *715:8 *751:28 0.000191157
80 *738:133 *2517:RESET_B 0.000290615
*RES
1 *2584:X *751:8 40.9621 
2 *751:8 *751:12 17.0507 
3 *751:12 *751:18 37.1879 
4 *751:18 *751:24 26.7761 
5 *751:24 *751:28 5.99679 
6 *751:28 *2505:RESET_B 18.7804 
7 *751:28 *751:40 1.55357 
8 *751:40 *2526:RESET_B 15 
9 *751:40 *751:55 45.7429 
10 *751:55 *2527:RESET_B 15 
11 *751:55 *2513:RESET_B 20.4271 
12 *2513:RESET_B *2514:RESET_B 39.4354 
13 *2514:RESET_B *751:96 46.3539 
14 *751:96 *2517:RESET_B 37.8921 
15 *751:24 *751:107 1.3775 
16 *751:107 *2506:RESET_B 21.3282 
17 *751:107 *2503:RESET_B 16.0254 
18 *751:18 *2524:RESET_B 1.02536 
19 *751:12 *2538:SET_B 2.62036 
*END

*D_NET *752 0.0218874
*CONN
*I *2519:RESET_B I *D sky130_fd_sc_hd__dfrtp_1
*I *2518:RESET_B I *D sky130_fd_sc_hd__dfrtp_1
*I *2525:RESET_B I *D sky130_fd_sc_hd__dfrtp_1
*I *2582:A I *D sky130_fd_sc_hd__clkbuf_4
*I *2583:A I *D sky130_fd_sc_hd__clkbuf_4
*I *2584:A I *D sky130_fd_sc_hd__clkbuf_4
*I *2585:X O *D sky130_fd_sc_hd__clkbuf_2
*CAP
1 *2519:RESET_B 0.000715978
2 *2518:RESET_B 0
3 *2525:RESET_B 0.000781434
4 *2582:A 0
5 *2583:A 0.000320141
6 *2584:A 0
7 *2585:X 0
8 *752:103 0.000878616
9 *752:101 0.000878213
10 *752:73 0.00218571
11 *752:47 0.00123062
12 *752:39 0.000910476
13 *752:37 0.00119086
14 *752:23 0.00213575
15 *752:14 0.000692797
16 *752:6 0.000948986
17 *2525:RESET_B *2097:B 6.91814e-05
18 *752:73 *776:DIODE 1.92797e-05
19 *752:101 *759:27 0
20 *752:101 *759:31 1.67942e-05
21 *752:101 *760:55 0.000172433
22 *2097:A_N *2525:RESET_B 0.000139346
23 *2107:A1 *2525:RESET_B 3.62714e-05
24 *2117:A *2583:A 5.50106e-05
25 *2139:B *2519:RESET_B 1.95685e-05
26 *2173:A2 *752:101 0.000141869
27 *2436:A2 *752:14 7.44354e-05
28 *2436:B2 *752:14 5.50106e-05
29 *2505:CLK *752:37 1.32289e-05
30 *2505:D *752:37 0.000274255
31 *2505:RESET_B *752:37 0.000229315
32 *2513:RESET_B *752:47 0
33 *2514:RESET_B *752:47 0
34 *2522:D *752:73 0
35 *2525:D *2525:RESET_B 4.66549e-05
36 *2600:A *752:37 0.000196607
37 *2605:A *752:14 0
38 *114:14 *752:37 0.000121027
39 *116:14 *752:47 0.000138708
40 *116:20 *752:37 9.03784e-05
41 *146:29 *752:14 0
42 *161:57 *752:47 0.000225265
43 *187:10 *752:47 0
44 *187:19 *752:47 0
45 *189:10 *752:23 9.98891e-05
46 *189:10 *752:73 0.000136352
47 *189:50 *752:73 3.98286e-05
48 *190:8 *2525:RESET_B 5.3304e-05
49 *192:6 *2583:A 4.9662e-05
50 *202:19 *752:101 2.19476e-05
51 *203:10 *752:37 5.38249e-05
52 *204:23 *752:101 7.22364e-05
53 *210:23 *752:103 0
54 *214:31 *752:73 9.363e-05
55 *301:10 *752:14 3.22879e-05
56 *302:10 *752:14 0.000207447
57 *317:14 *2525:RESET_B 0.000174783
58 *320:66 *752:73 0
59 *358:10 *752:37 3.24466e-05
60 *358:10 *752:47 0.000122397
61 *447:50 *2583:A 0.000194908
62 *448:8 *752:47 0.000169674
63 *451:57 *752:73 0
64 *459:25 *2519:RESET_B 4.93359e-05
65 *464:10 *2519:RESET_B 9.21347e-06
66 *464:10 *752:103 6.38844e-05
67 *476:10 *752:73 0.000284219
68 *477:10 *752:73 0
69 *478:16 *752:37 5.50049e-05
70 *481:35 *2525:RESET_B 0.000539604
71 *481:35 *752:101 0.000114922
72 *489:16 *752:101 0.000137651
73 *491:8 *752:101 0.000130636
74 *492:16 *2519:RESET_B 9.98044e-05
75 *492:16 *752:101 0.000108559
76 *492:16 *752:103 0.000323812
77 *493:10 *752:101 0.000339937
78 *494:12 *752:73 0
79 *500:16 *752:73 0.00015409
80 *500:16 *752:101 2.12234e-05
81 *579:27 *752:14 0.000113125
82 *701:12 *752:37 0.00108256
83 *701:12 *752:73 0.000181131
84 *701:22 *752:37 0.000230604
85 *704:219 *752:47 0
86 *708:109 *752:101 0.000289652
87 *731:20 *2519:RESET_B 4.68153e-05
88 *731:36 *2525:RESET_B 0.000603499
89 *733:83 *752:14 0
90 *738:93 *2519:RESET_B 0.000124523
91 *738:114 *2519:RESET_B 0.00015654
92 *739:141 *752:14 1.69977e-05
93 *749:8 *752:47 5.12254e-05
94 *751:18 *752:14 0
95 *751:18 *752:23 0
96 *751:55 *752:47 0
*RES
1 *2585:X *752:6 38 
2 *752:6 *752:14 30.1836 
3 *752:14 *2584:A 23 
4 *752:6 *752:23 20.4271 
5 *752:23 *752:37 45.015 
6 *752:37 *752:39 15 
7 *752:39 *752:47 49.575 
8 *752:47 *2583:A 30.6229 
9 *752:39 *2582:A 23 
10 *752:23 *752:73 27.5839 
11 *752:73 *2525:RESET_B 37.3779 
12 *752:73 *752:101 46.0432 
13 *752:101 *752:103 4.37071 
14 *752:103 *2518:RESET_B 15 
15 *752:103 *2519:RESET_B 34.6523 
*END

*D_NET *753 0.0168128
*CONN
*I *2452:RESET_B I *D sky130_fd_sc_hd__dfrtp_4
*I *2537:SET_B I *D sky130_fd_sc_hd__dfstp_1
*I *2484:SET_B I *D sky130_fd_sc_hd__dfstp_1
*I *2536:SET_B I *D sky130_fd_sc_hd__dfstp_1
*I *2535:SET_B I *D sky130_fd_sc_hd__dfstp_1
*I *2534:SET_B I *D sky130_fd_sc_hd__dfstp_1
*I *2532:SET_B I *D sky130_fd_sc_hd__dfstp_1
*I *2533:SET_B I *D sky130_fd_sc_hd__dfstp_1
*I *2480:SET_B I *D sky130_fd_sc_hd__dfstp_1
*I *2483:SET_B I *D sky130_fd_sc_hd__dfstp_1
*I *2586:X O *D sky130_fd_sc_hd__clkbuf_4
*CAP
1 *2452:RESET_B 0.00024571
2 *2537:SET_B 0.000132657
3 *2484:SET_B 0.00022685
4 *2536:SET_B 5.10228e-05
5 *2535:SET_B 0.000704147
6 *2534:SET_B 0.000291156
7 *2532:SET_B 0
8 *2533:SET_B 0.000169314
9 *2480:SET_B 0.000344621
10 *2483:SET_B 0.000455017
11 *2586:X 0
12 *753:94 0.000579718
13 *753:92 0.000848071
14 *753:36 0.000910522
15 *753:32 0.000490443
16 *753:30 0.000327997
17 *753:28 0.000582867
18 *753:26 0.000971093
19 *753:22 0.00267105
20 *753:6 0.00241021
21 *2452:RESET_B *757:106 0
22 *753:22 *757:67 4.41136e-05
23 *753:22 *757:78 4.50051e-05
24 *753:22 *757:106 0
25 gpio_oeb[0] *753:22 1.95789e-05
26 gpio_out[27] *753:22 0.000141879
27 *2209:C *753:22 5.90675e-06
28 *2209:C *753:26 0.000101784
29 *2210:A1 *2535:SET_B 5.90675e-06
30 *2248:A2 *753:22 3.71251e-05
31 *2248:B1 *753:22 2.93845e-05
32 *2386:A1 *2534:SET_B 0.000141954
33 *2391:A1 *2480:SET_B 8.52481e-05
34 *2391:A1 *2483:SET_B 0.000446281
35 *2568:A *2535:SET_B 1.32314e-05
36 *103:10 *2452:RESET_B 4.75766e-05
37 *136:6 *2533:SET_B 7.67422e-05
38 *136:12 *2480:SET_B 9.48381e-06
39 *136:12 *753:36 0
40 *138:6 *2534:SET_B 0.000295424
41 *138:12 *753:28 7.30978e-05
42 *138:19 *2534:SET_B 0.000128723
43 *139:25 *2480:SET_B 0
44 *139:25 *753:28 0
45 *139:25 *753:30 0
46 *139:25 *753:32 0
47 *141:8 *2483:SET_B 7.29612e-06
48 *142:10 *753:94 3.32677e-05
49 *248:14 *2452:RESET_B 0.000140454
50 *295:8 *753:30 0
51 *295:8 *753:32 0
52 *296:10 *2483:SET_B 0.000184527
53 *513:12 *753:92 9.41704e-05
54 *514:10 *753:92 0
55 *521:8 *753:28 6.88552e-05
56 *521:14 *753:26 0.000400204
57 *522:10 *2535:SET_B 0
58 *522:10 *753:28 0
59 *523:10 *753:22 5.67058e-05
60 *624:12 *2535:SET_B 0
61 *624:12 *753:28 0
62 *624:12 *753:30 0
63 *624:12 *753:32 0
64 *624:12 *753:36 0
65 *624:12 *753:92 0.000450164
66 *650:31 *2484:SET_B 0
67 *650:31 *2537:SET_B 0.000404066
68 *650:37 *2534:SET_B 9.49056e-05
69 *654:20 *753:30 0
70 *658:14 *753:32 0
71 *658:14 *753:36 0
72 *701:193 *2537:SET_B 0.000404066
73 *706:14 *2484:SET_B 0
74 *706:16 *2484:SET_B 0
75 *706:29 *2484:SET_B 0
76 *707:12 *753:92 0
77 *707:16 *2535:SET_B 0.000216796
78 *740:50 *2480:SET_B 9.63815e-05
*RES
1 *2586:X *753:6 38 
2 *753:6 *753:22 47.6043 
3 *753:22 *753:26 22.7679 
4 *753:26 *753:28 4.37071 
5 *753:28 *753:30 1.90571 
6 *753:30 *753:32 4.01857 
7 *753:32 *753:36 16.9057 
8 *753:36 *2483:SET_B 9.60107 
9 *753:36 *2480:SET_B 36.8771 
10 *753:32 *2533:SET_B 17.9311 
11 *753:30 *2532:SET_B 15 
12 *753:28 *2534:SET_B 21.7425 
13 *753:26 *2535:SET_B 21.0589 
14 *2535:SET_B *753:92 38.1821 
15 *753:92 *753:94 5.38571 
16 *753:94 *2536:SET_B 1.04607 
17 *753:94 *2484:SET_B 33.8114 
18 *753:92 *2537:SET_B 35.4271 
19 *753:6 *2452:RESET_B 19.4846 
*END

*D_NET *754 0.0156259
*CONN
*I *2469:RESET_B I *D sky130_fd_sc_hd__dfrtp_1
*I *2455:RESET_B I *D sky130_fd_sc_hd__dfrtp_1
*I *2450:RESET_B I *D sky130_fd_sc_hd__dfrtp_1
*I *2461:RESET_B I *D sky130_fd_sc_hd__dfrtp_1
*I *2462:RESET_B I *D sky130_fd_sc_hd__dfrtp_1
*I *2456:RESET_B I *D sky130_fd_sc_hd__dfrtp_4
*I *2457:RESET_B I *D sky130_fd_sc_hd__dfrtp_2
*I *2459:RESET_B I *D sky130_fd_sc_hd__dfrtp_1
*I *2454:RESET_B I *D sky130_fd_sc_hd__dfrtp_1
*I *2451:RESET_B I *D sky130_fd_sc_hd__dfrtp_1
*I *2587:X O *D sky130_fd_sc_hd__clkbuf_4
*CAP
1 *2469:RESET_B 0.000207034
2 *2455:RESET_B 3.53968e-05
3 *2450:RESET_B 0
4 *2461:RESET_B 0.000349912
5 *2462:RESET_B 9.93877e-05
6 *2456:RESET_B 0
7 *2457:RESET_B 4.5831e-05
8 *2459:RESET_B 0.0010494
9 *2454:RESET_B 0.000273184
10 *2451:RESET_B 0.000230688
11 *2587:X 7.39772e-05
12 *754:130 0.000691818
13 *754:112 0.00078147
14 *754:105 0.000383033
15 *754:88 0.00068819
16 *754:81 0.00033009
17 *754:72 0.000554507
18 *754:56 0.00209696
19 *754:36 0.00120751
20 *754:24 0.000596943
21 *754:8 0.000475613
22 *754:8 *816:DIODE 4.79641e-05
23 *754:105 *757:130 0
24 *754:112 *757:130 0
25 *754:130 *771:DIODE 0.000138959
26 *754:130 *757:130 0
27 *754:130 *761:36 3.0647e-05
28 *2013:A *754:8 5.3304e-05
29 *2033:A2 *2461:RESET_B 0.000496356
30 *2072:A1 *754:130 0.000228903
31 *2072:A2 *754:130 5.67058e-05
32 *2072:B1 *754:130 5.67058e-05
33 *2261:A_N *754:36 5.67058e-05
34 *2261:B_N *754:36 3.90266e-05
35 *2261:C *754:36 0.000185434
36 *234:23 *754:130 0.00014411
37 *235:14 *754:88 0
38 *235:48 *2459:RESET_B 0.000141954
39 *235:48 *754:72 3.46673e-05
40 *237:38 *754:88 0
41 *240:8 *2461:RESET_B 0
42 *244:10 *754:130 0
43 *245:10 *2455:RESET_B 1.19087e-05
44 *245:10 *754:24 2.76611e-06
45 *245:10 *754:105 2.44497e-05
46 *245:10 *754:112 0.000106305
47 *246:27 *754:24 0.000178782
48 *246:31 *2451:RESET_B 0.000223043
49 *246:31 *754:24 3.47781e-05
50 *247:10 *2451:RESET_B 8.53353e-05
51 *251:8 *754:105 7.03766e-05
52 *359:108 *2454:RESET_B 7.44354e-05
53 *362:10 *2457:RESET_B 0.000120396
54 *362:10 *2461:RESET_B 0.000166513
55 *362:10 *754:81 0.00019747
56 *362:10 *754:88 0.000428682
57 *362:21 *2461:RESET_B 0.000376881
58 *362:34 *2461:RESET_B 0.0002644
59 *380:19 *2461:RESET_B 0.000166513
60 *383:8 *2457:RESET_B 0
61 *383:8 *754:81 0
62 *383:8 *754:88 0
63 *406:8 *754:130 4.27224e-05
64 *412:10 *2462:RESET_B 0.000139352
65 *424:8 *754:130 0
66 *571:36 *2451:RESET_B 3.70187e-05
67 *571:36 *754:24 0.000178782
68 *573:6 *2454:RESET_B 4.56504e-05
69 *573:6 *754:36 1.56665e-05
70 *574:33 *754:36 0.000289598
71 *574:47 *2451:RESET_B 0.000107146
72 *701:97 *754:88 4.18957e-05
73 *708:48 *2459:RESET_B 0.000167959
74 *708:67 *2459:RESET_B 1.76557e-05
75 *709:31 *2459:RESET_B 5.10805e-05
76 *709:31 *754:72 7.59794e-05
*RES
1 *2587:X *754:8 39.5743 
2 *754:8 *2451:RESET_B 21.0589 
3 *754:8 *754:24 3.31429 
4 *754:24 *754:36 23.0993 
5 *754:36 *2454:RESET_B 5.49964 
6 *754:36 *754:56 39.28 
7 *754:56 *2459:RESET_B 15.4839 
8 *754:56 *754:72 21.815 
9 *754:72 *2457:RESET_B 16.5536 
10 *754:72 *754:81 2.61 
11 *754:81 *2456:RESET_B 15 
12 *754:81 *754:88 5.77929 
13 *754:88 *2462:RESET_B 16.9782 
14 *754:88 *2461:RESET_B 26.0614 
15 *754:24 *754:105 2.96214 
16 *754:105 *2450:RESET_B 15 
17 *754:105 *754:112 5.77929 
18 *754:112 *2455:RESET_B 15.5489 
19 *754:112 *754:130 40.3571 
20 *754:130 *2469:RESET_B 17.9311 
*END

*D_NET *755 0.0104055
*CONN
*I *2468:RESET_B I *D sky130_fd_sc_hd__dfrtp_1
*I *2464:RESET_B I *D sky130_fd_sc_hd__dfrtp_1
*I *2463:RESET_B I *D sky130_fd_sc_hd__dfrtp_1
*I *2465:RESET_B I *D sky130_fd_sc_hd__dfrtp_1
*I *2466:RESET_B I *D sky130_fd_sc_hd__dfrtp_1
*I *2467:RESET_B I *D sky130_fd_sc_hd__dfrtp_1
*I *2588:X O *D sky130_fd_sc_hd__clkbuf_2
*CAP
1 *2468:RESET_B 1.27064e-05
2 *2464:RESET_B 0.000545009
3 *2463:RESET_B 0.000545009
4 *2465:RESET_B 0.000326607
5 *2466:RESET_B 0.000452985
6 *2467:RESET_B 0
7 *2588:X 0.000201552
8 *755:59 0.000631591
9 *755:44 0.00112343
10 *755:23 0.00133174
11 *755:10 0.00123283
12 *2464:RESET_B *760:81 9.987e-05
13 *755:10 *757:130 0.000138727
14 *755:23 *2589:A 8.24662e-05
15 *755:23 *757:130 0.000194299
16 gpio_out[18] *755:23 0
17 *2063:A2 *2465:RESET_B 0
18 *2068:A *755:23 4.5882e-05
19 *2081:A *2464:RESET_B 9.987e-05
20 *2081:B *2464:RESET_B 7.10099e-05
21 *2463:D *2464:RESET_B 0.000146297
22 *93:10 *755:23 0
23 *217:10 *2466:RESET_B 0.000111852
24 *217:49 *2466:RESET_B 5.50049e-05
25 *217:49 *755:59 0.00018282
26 *217:57 *755:59 0.000570587
27 *219:10 *755:23 8.47327e-05
28 *228:10 *2464:RESET_B 0.000222095
29 *231:21 *2465:RESET_B 0.000115013
30 *231:21 *755:44 0.000100778
31 *232:8 *755:23 0
32 *241:10 *2464:RESET_B 6.26356e-05
33 *241:10 *755:59 0
34 *399:40 *2465:RESET_B 0.000296017
35 *400:10 *2465:RESET_B 4.85126e-05
36 *401:10 *755:23 4.58924e-05
37 *402:16 *755:23 0
38 *403:8 *755:23 0
39 *404:10 *755:10 0
40 *404:10 *755:23 0
41 *409:8 *2464:RESET_B 8.08139e-06
42 *419:14 *2465:RESET_B 0.00036992
43 *709:117 *2465:RESET_B 0.000166278
44 *709:134 *2465:RESET_B 3.82852e-05
45 *709:134 *2466:RESET_B 4.08537e-05
46 *709:134 *755:44 0.000135162
47 *730:8 *2464:RESET_B 0
48 *737:122 *755:23 0.000469112
*RES
1 *2588:X *755:10 41.48 
2 *755:10 *2467:RESET_B 15 
3 *755:10 *755:23 36.5221 
4 *755:23 *2466:RESET_B 35.1993 
5 *2466:RESET_B *755:44 18.5318 
6 *755:44 *2465:RESET_B 24.6529 
7 *755:44 *755:59 39.7979 
8 *755:59 *2463:RESET_B 15 
9 *2463:RESET_B *2464:RESET_B 41.9521 
10 *755:23 *2468:RESET_B 0.548929 
*END

*D_NET *756 0.0284282
*CONN
*I *819:DIODE I *D sky130_fd_sc_hd__diode_2
*I *791:DIODE I *D sky130_fd_sc_hd__diode_2
*I *797:DIODE I *D sky130_fd_sc_hd__diode_2
*I *798:DIODE I *D sky130_fd_sc_hd__diode_2
*I *2521:RESET_B I *D sky130_fd_sc_hd__dfrtp_1
*I *2520:RESET_B I *D sky130_fd_sc_hd__dfrtp_1
*I *2523:RESET_B I *D sky130_fd_sc_hd__dfrtp_1
*I *800:DIODE I *D sky130_fd_sc_hd__diode_2
*I *2460:RESET_B I *D sky130_fd_sc_hd__dfrtp_1
*I *799:DIODE I *D sky130_fd_sc_hd__diode_2
*I *2522:RESET_B I *D sky130_fd_sc_hd__dfrtp_2
*I *790:DIODE I *D sky130_fd_sc_hd__diode_2
*I *795:DIODE I *D sky130_fd_sc_hd__diode_2
*I *796:DIODE I *D sky130_fd_sc_hd__diode_2
*I *801:DIODE I *D sky130_fd_sc_hd__diode_2
*I *2539:SET_B I *D sky130_fd_sc_hd__dfstp_1
*I *2485:SET_B I *D sky130_fd_sc_hd__dfstp_1
*I *2486:SET_B I *D sky130_fd_sc_hd__dfstp_1
*I *2458:RESET_B I *D sky130_fd_sc_hd__dfrtp_1
*I *817:DIODE I *D sky130_fd_sc_hd__diode_2
*I *2588:A I *D sky130_fd_sc_hd__clkbuf_2
*I *2589:X O *D sky130_fd_sc_hd__clkbuf_4
*CAP
1 *819:DIODE 0
2 *791:DIODE 0
3 *797:DIODE 0.000193213
4 *798:DIODE 0
5 *2521:RESET_B 0.000419762
6 *2520:RESET_B 0
7 *2523:RESET_B 0.000443052
8 *800:DIODE 0
9 *2460:RESET_B 5.10164e-05
10 *799:DIODE 0
11 *2522:RESET_B 8.96384e-05
12 *790:DIODE 0.000233989
13 *795:DIODE 0
14 *796:DIODE 0
15 *801:DIODE 0
16 *2539:SET_B 0.000276817
17 *2485:SET_B 0.000179222
18 *2486:SET_B 0.000182848
19 *2458:RESET_B 3.43461e-05
20 *817:DIODE 0
21 *2588:A 0.000109645
22 *2589:X 7.82515e-05
23 *756:207 0.000746354
24 *756:205 0.000663638
25 *756:196 0.000608868
26 *756:177 0.000810317
27 *756:173 0.000952914
28 *756:150 0.00048979
29 *756:112 0.000644522
30 *756:99 0.000546927
31 *756:85 0.000306061
32 *756:83 0.000457946
33 *756:77 0.000719385
34 *756:68 0.000420803
35 *756:66 0.00106499
36 *756:64 0.000552598
37 *756:62 0.000281351
38 *756:58 0.000875806
39 *756:48 0.00148956
40 *756:34 0.00221219
41 *756:28 0.00151024
42 *756:12 0.000282804
43 *756:8 0.00025141
44 *797:DIODE *760:81 2.2757e-05
45 *756:12 *757:130 0
46 *756:58 *759:115 5.03968e-05
47 *756:196 *760:14 0.000613786
48 *756:196 *760:20 0.000401961
49 *756:205 *760:12 0.000145969
50 *756:205 *760:14 0.000155068
51 *756:207 *760:81 3.82058e-06
52 *1970:A *756:58 0
53 *2017:A2 *756:58 8.69997e-05
54 *2017:A2 *756:196 0
55 *2017:C1 *756:177 8.10857e-05
56 *2018:A2 *756:58 9.53757e-05
57 *2022:A *2522:RESET_B 0
58 *2022:A *756:150 0.000398503
59 *2024:B1 *756:58 0
60 *2030:A2 *756:66 0.000190227
61 *2030:B2 *756:66 7.76364e-06
62 *2039:A2 *756:68 0
63 *2039:A2 *756:77 0
64 *2040:B *790:DIODE 2.93845e-05
65 *2040:C *790:DIODE 8.2747e-05
66 *2049:A_N *756:48 9.41704e-05
67 *2073:B *756:34 0.00022295
68 *2082:B *756:66 0
69 *2082:B *756:68 0
70 *2082:B *756:77 0
71 *2106:A1 *2523:RESET_B 0.00010018
72 *2144:C *2521:RESET_B 0.000182832
73 *2214:A *2539:SET_B 3.98456e-05
74 *2214:A *756:112 0.000326323
75 *2335:A2 *2485:SET_B 0.000106299
76 *2335:A2 *756:112 2.79064e-05
77 *2461:D *756:48 3.30827e-05
78 *2467:CLK *756:34 0.00016393
79 *2467:D *756:34 0.000119457
80 *92:10 *756:12 0
81 *93:10 *756:8 9.86551e-06
82 *146:29 *2486:SET_B 0.000278461
83 *146:29 *756:83 0.000217372
84 *146:29 *756:85 0.000185434
85 *147:10 *756:112 2.29192e-05
86 *148:12 *2539:SET_B 3.32734e-05
87 *198:18 *2521:RESET_B 3.9527e-05
88 *198:18 *756:207 9.88574e-06
89 *200:10 *2522:RESET_B 7.80291e-05
90 *218:8 *756:34 4.99718e-05
91 *221:44 *756:66 0
92 *221:44 *756:68 0
93 *224:10 *2460:RESET_B 6.17437e-06
94 *224:10 *756:58 5.79489e-05
95 *225:14 *756:48 6.59908e-05
96 *226:18 *756:58 1.47185e-05
97 *236:10 *790:DIODE 1.5769e-05
98 *236:10 *756:77 0
99 *238:12 *756:58 5.3304e-05
100 *238:12 *756:62 9.41704e-05
101 *272:10 *2539:SET_B 9.84851e-05
102 *272:10 *756:112 5.50049e-05
103 *317:44 *756:58 0.000178178
104 *319:44 *756:58 2.03909e-05
105 *319:44 *756:64 0.000100925
106 *319:44 *756:66 0.000459187
107 *319:44 *756:173 0.000197252
108 *320:66 *2460:RESET_B 3.08152e-05
109 *321:10 *756:64 9.28811e-05
110 *321:10 *756:66 0.000264976
111 *321:10 *756:173 0.000129796
112 *330:61 *756:196 6.28591e-05
113 *331:27 *756:196 0
114 *359:85 *790:DIODE 2.64616e-05
115 *359:85 *756:77 6.25829e-05
116 *359:85 *756:83 0.000352547
117 *362:34 *756:34 2.54046e-05
118 *370:8 *756:66 0
119 *370:8 *756:68 0
120 *389:22 *756:58 0.000513984
121 *390:12 *756:48 6.89634e-05
122 *391:18 *756:48 8.97949e-05
123 *437:16 *2523:RESET_B 9.81774e-05
124 *441:12 *756:196 0.000767924
125 *441:12 *756:205 6.38845e-05
126 *466:41 *2521:RESET_B 0.000151657
127 *468:6 *2521:RESET_B 5.50049e-05
128 *701:64 *2522:RESET_B 0.000221386
129 *701:72 *756:66 0.000216721
130 *706:88 *2485:SET_B 2.22079e-05
131 *708:25 *2460:RESET_B 0.00013273
132 *708:96 *2523:RESET_B 0.000215778
133 *716:28 *2522:RESET_B 5.41385e-05
134 *716:28 *756:150 5.29672e-05
135 *729:43 *756:173 0
136 *729:43 *756:196 0
137 *736:8 *756:205 0
138 *737:62 *756:48 0.000175903
139 *738:114 *2521:RESET_B 2.64616e-05
140 *747:61 *756:48 0.000146839
*RES
1 *2589:X *756:8 39.2014 
2 *756:8 *756:12 17.9621 
3 *756:12 *2588:A 24.595 
4 *756:12 *817:DIODE 23 
5 *756:8 *756:28 15 
6 *756:28 *756:34 35.88 
7 *756:34 *756:48 49.9211 
8 *756:48 *756:58 27.0299 
9 *756:58 *756:62 16.0979 
10 *756:62 *756:64 1.55357 
11 *756:64 *756:66 11.0614 
12 *756:66 *756:68 4.37071 
13 *756:68 *2458:RESET_B 15.6214 
14 *756:68 *756:77 2.61 
15 *756:77 *756:83 22.25 
16 *756:83 *756:85 2.05071 
17 *756:85 *2486:SET_B 34.7539 
18 *2486:SET_B *756:99 15 
19 *756:99 *2485:SET_B 19.0186 
20 *756:99 *756:112 20.9864 
21 *756:112 *2539:SET_B 4.52607 
22 *756:112 *801:DIODE 23 
23 *756:85 *796:DIODE 23 
24 *756:83 *795:DIODE 23 
25 *756:77 *790:DIODE 42.4329 
26 *756:66 *756:150 21.3386 
27 *756:150 *2522:RESET_B 3.42821 
28 *756:150 *799:DIODE 23 
29 *756:64 *2460:RESET_B 16.5018 
30 *756:62 *756:173 2.96214 
31 *756:173 *756:177 19.9093 
32 *756:177 *800:DIODE 23 
33 *756:177 *2523:RESET_B 8.58607 
34 *756:173 *756:196 14.935 
35 *756:196 *2520:RESET_B 15 
36 *756:196 *756:205 19.0186 
37 *756:205 *756:207 3.95643 
38 *756:207 *2521:RESET_B 6.90821 
39 *756:207 *798:DIODE 23 
40 *756:205 *797:DIODE 25.5271 
41 *756:58 *791:DIODE 23 
42 *756:28 *819:DIODE 23 
*END

*D_NET *757 0.0160776
*CONN
*I *821:DIODE I *D sky130_fd_sc_hd__diode_2
*I *794:DIODE I *D sky130_fd_sc_hd__diode_2
*I *2586:A I *D sky130_fd_sc_hd__clkbuf_4
*I *2589:A I *D sky130_fd_sc_hd__clkbuf_4
*I *818:DIODE I *D sky130_fd_sc_hd__diode_2
*I *2587:A I *D sky130_fd_sc_hd__clkbuf_4
*I *816:DIODE I *D sky130_fd_sc_hd__diode_2
*I *815:DIODE I *D sky130_fd_sc_hd__diode_2
*I *2453:RESET_B I *D sky130_fd_sc_hd__dfrtp_2
*I *789:DIODE I *D sky130_fd_sc_hd__diode_2
*I *793:DIODE I *D sky130_fd_sc_hd__diode_2
*I *2481:SET_B I *D sky130_fd_sc_hd__dfstp_1
*I *792:DIODE I *D sky130_fd_sc_hd__diode_2
*I *2479:SET_B I *D sky130_fd_sc_hd__dfstp_1
*I *2482:SET_B I *D sky130_fd_sc_hd__dfstp_1
*I *2590:X O *D sky130_fd_sc_hd__buf_2
*CAP
1 *821:DIODE 0.000133936
2 *794:DIODE 0
3 *2586:A 0.000118158
4 *2589:A 0.0001352
5 *818:DIODE 9.91127e-05
6 *2587:A 0.00014347
7 *816:DIODE 0.000192936
8 *815:DIODE 0
9 *2453:RESET_B 0
10 *789:DIODE 0
11 *793:DIODE 8.41354e-05
12 *2481:SET_B 3.92036e-05
13 *792:DIODE 0
14 *2479:SET_B 0.000345114
15 *2482:SET_B 0.000263277
16 *2590:X 0
17 *757:130 0.00150758
18 *757:108 0.000336406
19 *757:106 0.00222827
20 *757:102 0.00118968
21 *757:93 0.000728997
22 *757:78 0.00110957
23 *757:67 0.00165141
24 *757:48 0.000123339
25 *757:46 0.00159612
26 *757:35 0.000641362
27 *757:22 0.000356613
28 *757:4 0.000340405
29 gpio_oeb[12] *757:130 0.000130212
30 gpio_oeb[17] *757:106 3.84556e-05
31 gpio_oeb[24] *757:106 0
32 gpio_oeb[29] *757:130 0
33 gpio_out[0] *757:106 0
34 gpio_out[12] *757:106 0
35 gpio_out[12] *757:130 0
36 gpio_out[15] *757:130 0
37 gpio_out[17] *757:106 0
38 gpio_out[28] *757:130 0
39 *2013:A *816:DIODE 9.41704e-05
40 *2072:A2 *757:130 0
41 *2238:A1 *757:93 9.88574e-06
42 *2238:A1 *757:102 0
43 *2238:A2 *757:93 2.30292e-05
44 *2238:B1 *757:93 7.27182e-05
45 *2247:A *757:67 0
46 *2247:C_N *757:67 0
47 *2247:C_N *757:78 0
48 *2248:A2 *757:67 6.17437e-06
49 *2452:RESET_B *757:106 0
50 *2453:CLK *757:93 0.000132954
51 *2595:A *757:130 9.95713e-05
52 *92:10 *2589:A 1.01436e-05
53 *92:10 *757:130 0.00028211
54 *93:10 *2589:A 0
55 *103:10 *757:106 0
56 *133:10 *757:35 7.84431e-05
57 *133:10 *757:46 0
58 *133:10 *757:67 0
59 *137:8 *793:DIODE 0.000120222
60 *137:8 *2481:SET_B 9.18637e-05
61 *139:8 *2482:SET_B 0.000202251
62 *139:25 *2482:SET_B 0
63 *157:22 *757:106 7.41334e-05
64 *220:21 *757:130 4.16764e-05
65 *246:8 *757:130 0
66 *246:27 *757:106 9.48381e-06
67 *246:27 *757:130 4.73689e-05
68 *246:31 *757:106 0.000109361
69 *248:14 *757:106 0
70 *249:10 *757:106 0
71 *254:21 *757:78 0
72 *254:21 *757:93 0
73 *404:10 *757:130 0
74 *517:19 *757:67 0
75 *518:23 *757:67 0
76 *548:27 *757:93 3.58084e-06
77 *557:10 *757:67 0
78 *558:8 *757:67 9.57467e-05
79 *559:10 *757:67 0
80 *574:47 *757:106 0
81 *707:106 *757:93 5.3304e-05
82 *733:25 *821:DIODE 4.06849e-05
83 *733:29 *821:DIODE 8.7283e-06
84 *733:29 *2482:SET_B 6.71408e-06
85 *733:29 *757:22 1.02949e-05
86 *733:39 *2482:SET_B 0.000267463
87 *735:10 *757:106 0
88 *753:22 *757:67 4.41136e-05
89 *753:22 *757:78 4.50051e-05
90 *753:22 *757:106 0
91 *754:8 *816:DIODE 4.79641e-05
92 *754:105 *757:130 0
93 *754:112 *757:130 0
94 *754:130 *757:130 0
95 *755:10 *757:130 0.000138727
96 *755:23 *2589:A 8.24662e-05
97 *755:23 *757:130 0.000194299
98 *756:12 *757:130 0
*RES
1 *2590:X *757:4 23 
2 *757:4 *2482:SET_B 36.2039 
3 *757:4 *757:22 1.09786 
4 *757:22 *2479:SET_B 32.61 
5 *2479:SET_B *757:35 3.90464 
6 *757:35 *792:DIODE 23 
7 *757:35 *757:46 22.4779 
8 *757:46 *757:48 15 
9 *757:48 *2481:SET_B 1.02536 
10 *757:48 *793:DIODE 25.0507 
11 *757:46 *757:67 35.0721 
12 *757:67 *789:DIODE 23 
13 *757:67 *757:78 22.7471 
14 *757:78 *2453:RESET_B 15 
15 *757:78 *757:93 24.715 
16 *757:93 *815:DIODE 23 
17 *757:93 *757:102 2.29929 
18 *757:102 *757:106 32.7521 
19 *757:106 *757:108 15 
20 *757:108 *816:DIODE 25.5271 
21 *757:108 *2587:A 25.0714 
22 *757:106 *757:130 27.3221 
23 *757:130 *818:DIODE 39.0979 
24 *757:130 *2589:A 40.7757 
25 *757:102 *2586:A 25.0507 
26 *757:22 *794:DIODE 23 
27 *757:22 *821:DIODE 25.0507 
*END

*D_NET *758 0.0110687
*CONN
*I *2077:A I *D sky130_fd_sc_hd__xnor2_1
*I *2098:A I *D sky130_fd_sc_hd__xnor2_1
*I *2175:A1 I *D sky130_fd_sc_hd__a221o_1
*I *1978:A I *D sky130_fd_sc_hd__inv_2
*I *2617:X O *D sky130_fd_sc_hd__clkbuf_2
*CAP
1 *2077:A 0.000110092
2 *2098:A 0
3 *2175:A1 0.000472863
4 *1978:A 4.40386e-05
5 *2617:X 0.000406951
6 *758:63 0.00115967
7 *758:33 0.00139082
8 *758:16 0.0013224
9 *758:10 0.00140998
10 *758:8 0.000406951
11 *1978:A *761:18 2.96051e-05
12 *2175:A1 *759:27 0.000275961
13 *758:8 *760:12 0.00021289
14 *758:8 *760:14 0.000536731
15 *758:16 *761:18 9.176e-05
16 *758:33 *759:27 9.72008e-05
17 *1974:A *758:63 0.000162801
18 *2021:B1 *758:63 0.000569793
19 *2021:B2 *758:63 0.000223698
20 *2056:B *758:63 5.3304e-05
21 *2056:C *758:63 0.000137158
22 *2085:A *758:63 0
23 *2173:B2 *758:33 0.000733289
24 *2175:A2 *2175:A1 9.8933e-05
25 *198:18 *758:8 0
26 *217:57 *2077:A 0.000270682
27 *217:57 *758:63 0.000197479
28 *219:31 *758:63 0.000184958
29 *327:19 *758:63 0.000130423
30 *369:10 *758:63 5.67058e-05
31 *481:35 *2175:A1 3.84128e-05
32 *489:22 *758:33 6.70363e-05
33 *499:22 *2175:A1 2.82601e-05
34 *716:18 *2175:A1 0
35 *716:18 *758:33 0
36 *729:8 *758:8 0
37 *729:8 *758:16 4.54033e-05
38 *729:24 *758:16 3.3577e-05
39 *729:35 *1978:A 0
40 *729:35 *758:16 6.88885e-05
41 *729:43 *1978:A 0
*RES
1 *2617:X *758:8 48.005 
2 *758:8 *758:10 15 
3 *758:10 *758:16 22.0429 
4 *758:16 *1978:A 38.8493 
5 *758:16 *758:33 44.1686 
6 *758:33 *2175:A1 47.3214 
7 *758:33 *2098:A 38 
8 *758:10 *758:63 37.765 
9 *758:63 *2077:A 41.0036 
*END

*D_NET *759 0.0226579
*CONN
*I *770:DIODE I *D sky130_fd_sc_hd__diode_2
*I *769:DIODE I *D sky130_fd_sc_hd__diode_2
*I *2023:B I *D sky130_fd_sc_hd__xnor2_1
*I *2088:A I *D sky130_fd_sc_hd__xor2_1
*I *2184:A I *D sky130_fd_sc_hd__xnor2_1
*I *773:DIODE I *D sky130_fd_sc_hd__diode_2
*I *2096:B I *D sky130_fd_sc_hd__nand2b_1
*I *2093:A_N I *D sky130_fd_sc_hd__nand2b_1
*I *772:DIODE I *D sky130_fd_sc_hd__diode_2
*I *776:DIODE I *D sky130_fd_sc_hd__diode_2
*I *836:DIODE I *D sky130_fd_sc_hd__diode_2
*I *2618:X O *D sky130_fd_sc_hd__clkbuf_2
*CAP
1 *770:DIODE 0
2 *769:DIODE 0.000121266
3 *2023:B 0
4 *2088:A 0
5 *2184:A 0
6 *773:DIODE 0
7 *2096:B 0
8 *2093:A_N 1.40364e-05
9 *772:DIODE 0.000128574
10 *776:DIODE 0.000262422
11 *836:DIODE 0
12 *2618:X 8.91669e-05
13 *759:132 0.000301098
14 *759:123 0.00040296
15 *759:115 0.00198737
16 *759:102 0.000319322
17 *759:70 0.000210003
18 *759:66 0.000444976
19 *759:54 0.000417783
20 *759:52 0.000731814
21 *759:31 0.000879974
22 *759:27 0.00317235
23 *759:12 0.00124222
24 *759:8 0.000168552
25 *759:27 *760:55 4.44691e-05
26 *759:52 *761:102 2.61526e-05
27 *759:52 *761:114 0
28 *759:54 *761:114 9.84794e-05
29 *759:66 *761:114 2.71291e-05
30 *759:102 *761:114 3.47781e-05
31 *2093:B *772:DIODE 3.8458e-05
32 *2093:B *2093:A_N 1.14154e-05
33 *2093:B *759:70 3.22879e-05
34 *2096:A_N *2093:A_N 1.14154e-05
35 *2096:A_N *759:66 0
36 *2096:A_N *759:70 6.77529e-06
37 *2107:C1 *759:66 0.000147837
38 *2107:D1 *759:66 0.000301095
39 *2155:B *759:52 6.75295e-05
40 *2159:A *759:66 0.000181919
41 *2159:B *759:52 0
42 *2159:B *759:66 5.50049e-05
43 *2173:A1 *759:27 0.000343073
44 *2174:A1 *759:27 0.000244517
45 *2175:A1 *759:27 0.000275961
46 *2175:A2 *759:27 2.07642e-05
47 *2175:A2 *759:31 5.92738e-07
48 *2521:CLK *759:27 7.95668e-05
49 *189:14 *759:52 5.50106e-05
50 *189:35 *759:52 3.22364e-05
51 *189:50 *759:66 0.00101975
52 *189:50 *759:70 3.39023e-05
53 *196:8 *759:27 3.28979e-05
54 *196:12 *759:27 1.62015e-05
55 *202:19 *759:27 0.000209483
56 *205:21 *759:102 5.6916e-05
57 *205:38 *759:52 9.67842e-05
58 *213:10 *759:27 0.000140949
59 *214:31 *776:DIODE 3.32935e-05
60 *226:18 *759:115 0.00140942
61 *226:43 *759:115 0.000561303
62 *317:14 *759:115 0.000884605
63 *317:44 *759:115 0.00168043
64 *320:85 *759:115 5.84835e-05
65 *325:20 *759:115 2.24814e-05
66 *371:18 *759:115 0.000298788
67 *419:14 *759:115 1.20966e-05
68 *419:14 *759:123 9.3287e-05
69 *422:10 *759:123 2.93845e-05
70 *425:10 *772:DIODE 1.73399e-05
71 *451:44 *759:102 2.32004e-05
72 *451:57 *776:DIODE 0.000374674
73 *451:57 *759:31 5.94125e-05
74 *451:74 *759:31 0.000198321
75 *475:8 *759:31 2.47097e-05
76 *476:10 *759:52 5.3304e-05
77 *477:24 *759:52 3.44001e-05
78 *477:24 *759:54 0.000137651
79 *477:24 *759:66 0.000137651
80 *477:24 *759:102 0
81 *478:8 *759:102 5.3304e-05
82 *478:16 *759:102 3.47781e-05
83 *479:10 *759:66 9.88574e-06
84 *481:10 *759:66 6.16439e-05
85 *481:10 *759:102 0
86 *483:10 *759:52 1.24376e-05
87 *483:10 *759:54 1.56665e-05
88 *483:10 *759:102 5.561e-05
89 *489:22 *759:27 0.000169674
90 *490:10 *759:12 5.47808e-05
91 *494:12 *759:102 0.000237619
92 *500:16 *776:DIODE 0.000134981
93 *500:16 *759:31 0.000276324
94 *708:109 *759:27 1.79187e-05
95 *716:10 *759:27 0
96 *716:18 *759:27 0
97 *716:50 *759:27 5.60406e-05
98 *731:10 *759:8 0
99 *731:36 *759:115 0.000466548
100 *737:89 *759:115 5.58152e-06
101 *737:89 *759:123 2.99565e-05
102 *752:73 *776:DIODE 1.92797e-05
103 *752:101 *759:27 0
104 *752:101 *759:31 1.67942e-05
105 *756:58 *759:115 5.03968e-05
106 *758:33 *759:27 9.72008e-05
*RES
1 *2618:X *759:8 39.5536 
2 *759:8 *759:12 16.5743 
3 *759:12 *836:DIODE 23 
4 *759:12 *759:27 40.4475 
5 *759:27 *759:31 5.52036 
6 *759:31 *776:DIODE 43.1164 
7 *759:31 *759:52 21.525 
8 *759:52 *759:54 1.57429 
9 *759:54 *759:66 43.1018 
10 *759:66 *759:70 1.91607 
11 *759:70 *772:DIODE 25.5271 
12 *759:70 *2093:A_N 23.4971 
13 *759:66 *2096:B 23 
14 *759:54 *773:DIODE 23 
15 *759:52 *759:102 36.8771 
16 *759:102 *2184:A 23 
17 *759:27 *759:115 24.2768 
18 *759:115 *759:123 19.7021 
19 *759:123 *2088:A 23 
20 *759:123 *759:132 3.50071 
21 *759:132 *2023:B 23 
22 *759:132 *769:DIODE 25.0507 
23 *759:115 *770:DIODE 38 
*END

*D_NET *760 0.0166777
*CONN
*I *2080:A I *D sky130_fd_sc_hd__xnor2_1
*I *1979:A I *D sky130_fd_sc_hd__inv_2
*I *2175:B2 I *D sky130_fd_sc_hd__a221o_1
*I *2100:B I *D sky130_fd_sc_hd__nand2b_1
*I *2619:X O *D sky130_fd_sc_hd__clkbuf_2
*CAP
1 *2080:A 0
2 *1979:A 1.80505e-05
3 *2175:B2 0
4 *2100:B 0
5 *2619:X 0.00111968
6 *760:81 0.00155298
7 *760:55 0.000242428
8 *760:34 0.000562364
9 *760:20 0.00180271
10 *760:14 0.00131655
11 *760:12 0.00194399
12 *760:8 0.00121011
13 *760:8 *761:6 5.50049e-05
14 *760:8 *763:8 9.84794e-05
15 *797:DIODE *760:81 2.2757e-05
16 *825:DIODE *760:8 2.65879e-05
17 *2081:A *760:81 0.000118423
18 *2105:A2 *760:34 0.000487137
19 *2179:A *760:34 9.84851e-05
20 *2464:RESET_B *760:81 9.987e-05
21 *2608:A *760:8 0.00010018
22 *2612:A *760:8 0.00010018
23 *2618:A *760:8 0.00010018
24 *2620:A *760:8 0.00010018
25 *2622:A *760:8 5.67058e-05
26 *6:9 *760:8 0.000143655
27 *33:9 *760:8 4.39278e-05
28 *201:35 *760:34 4.96577e-05
29 *228:10 *760:81 5.3304e-05
30 *319:34 *760:34 2.31116e-05
31 *319:40 *760:20 0.000787685
32 *319:40 *760:34 0.000353775
33 *319:40 *760:55 5.04641e-05
34 *322:16 *760:14 1.4471e-05
35 *322:16 *760:20 0.000420656
36 *322:16 *760:34 0.000193173
37 *331:27 *1979:A 5.50049e-05
38 *332:12 *760:20 0.000108681
39 *415:8 *760:81 0.000205566
40 *432:8 *760:34 0.000101877
41 *492:16 *760:55 2.02517e-05
42 *493:10 *760:55 4.9662e-05
43 *499:22 *760:55 0.000105248
44 *716:10 *760:8 5.50049e-05
45 *729:8 *760:14 0
46 *729:35 *760:14 0
47 *729:43 *760:20 5.29514e-05
48 *731:10 *760:8 0.000240007
49 *736:8 *760:12 0
50 *747:26 *1979:A 2.93747e-05
51 *752:101 *760:55 0.000172433
52 *756:196 *760:14 0.000613786
53 *756:196 *760:20 0.000401961
54 *756:205 *760:12 0.000145969
55 *756:205 *760:14 0.000155068
56 *756:207 *760:81 3.82058e-06
57 *758:8 *760:12 0.00021289
58 *758:8 *760:14 0.000536731
59 *759:27 *760:55 4.44691e-05
*RES
1 *2619:X *760:8 46.5107 
2 *760:8 *760:12 17.9621 
3 *760:12 *760:14 10.3571 
4 *760:14 *760:20 16.7075 
5 *760:20 *760:34 30.8269 
6 *760:34 *2100:B 23 
7 *760:20 *760:55 27.461 
8 *760:55 *2175:B2 23 
9 *760:14 *1979:A 38.6214 
10 *760:12 *760:81 39.65 
11 *760:81 *2080:A 23 
*END

*D_NET *761 0.0194822
*CONN
*I *839:DIODE I *D sky130_fd_sc_hd__diode_2
*I *777:DIODE I *D sky130_fd_sc_hd__diode_2
*I *775:DIODE I *D sky130_fd_sc_hd__diode_2
*I *2186:A1 I *D sky130_fd_sc_hd__a211oi_1
*I *774:DIODE I *D sky130_fd_sc_hd__diode_2
*I *2097:B I *D sky130_fd_sc_hd__nand2b_1
*I *2101:A_N I *D sky130_fd_sc_hd__nand2b_1
*I *1980:A I *D sky130_fd_sc_hd__inv_2
*I *764:DIODE I *D sky130_fd_sc_hd__diode_2
*I *771:DIODE I *D sky130_fd_sc_hd__diode_2
*I *2090:A I *D sky130_fd_sc_hd__xnor2_1
*I *2620:X O *D sky130_fd_sc_hd__clkbuf_2
*CAP
1 *839:DIODE 0
2 *777:DIODE 0
3 *775:DIODE 0
4 *2186:A1 0.000174371
5 *774:DIODE 0
6 *2097:B 6.46893e-05
7 *2101:A_N 0
8 *1980:A 1.72234e-05
9 *764:DIODE 0
10 *771:DIODE 0.000176348
11 *2090:A 0
12 *2620:X 2.79296e-05
13 *761:139 0.000312401
14 *761:126 0.000347184
15 *761:122 0.00037373
16 *761:114 0.00035009
17 *761:102 0.00123134
18 *761:69 0.0010532
19 *761:60 7.98688e-05
20 *761:40 0.000210459
21 *761:36 0.00142468
22 *761:30 0.00206218
23 *761:18 0.00226709
24 *761:6 0.00159838
25 *761:18 *763:14 0
26 *1978:A *761:18 2.96051e-05
27 *2030:A2 *761:30 0.000224628
28 *2030:C1 *761:30 0.000141164
29 *2037:B *761:36 5.50106e-05
30 *2038:A *761:36 2.62931e-05
31 *2038:B *761:36 5.67058e-05
32 *2038:C *761:30 9.24795e-06
33 *2072:A2 *771:DIODE 5.50049e-05
34 *2072:B1 *771:DIODE 5.50049e-05
35 *2074:B *761:18 0
36 *2076:A *761:36 2.93845e-05
37 *2076:B *761:36 0.000681764
38 *2082:A *761:30 8.638e-05
39 *2082:B *761:30 5.50106e-05
40 *2090:B *771:DIODE 4.64974e-05
41 *2106:A1 *761:18 5.68502e-05
42 *2144:B *761:18 1.47563e-05
43 *2149:A1 *761:102 5.50106e-05
44 *2156:D *761:102 6.45243e-05
45 *2159:B *761:114 6.17437e-06
46 *2159:B *761:122 1.21972e-05
47 *2177:A *761:102 0
48 *2181:B *761:18 0.00019654
49 *2183:A2 *761:102 1.24376e-05
50 *2185:A1 *1980:A 3.22879e-05
51 *2185:A1 *761:102 1.55097e-05
52 *2186:C1 *2186:A1 9.67842e-05
53 *2525:D *2097:B 0.000150914
54 *2525:D *761:139 8.43466e-05
55 *2525:RESET_B *2097:B 6.91814e-05
56 *189:14 *761:102 2.18506e-05
57 *189:35 *761:102 0.000620644
58 *189:50 *761:102 0.000141954
59 *189:50 *761:114 0.000182832
60 *198:26 *761:18 0
61 *200:30 *761:18 0
62 *200:30 *761:30 0
63 *200:32 *761:102 9.84794e-05
64 *200:38 *761:102 5.50106e-05
65 *212:8 *761:18 0.000183885
66 *215:12 *2186:A1 2.93845e-05
67 *234:6 *771:DIODE 2.4754e-05
68 *238:12 *761:18 0
69 *244:10 *761:36 2.22079e-05
70 *317:10 *761:18 9.86551e-06
71 *333:23 *1980:A 3.22879e-05
72 *333:23 *761:60 5.50049e-05
73 *333:23 *761:69 4.19743e-05
74 *337:10 *761:18 8.25811e-05
75 *364:8 *761:18 0
76 *378:10 *761:30 4.5051e-05
77 *378:10 *761:36 0.000141954
78 *408:8 *761:18 0
79 *416:10 *761:30 0.000353214
80 *429:10 *2097:B 2.64616e-05
81 *429:10 *761:139 5.12254e-05
82 *451:27 *2186:A1 4.72367e-05
83 *451:27 *761:126 2.5343e-05
84 *451:27 *761:139 0.000114041
85 *451:44 *2186:A1 6.07611e-06
86 *451:44 *761:126 0
87 *451:57 *761:102 6.7177e-06
88 *451:74 *761:102 5.91593e-05
89 *468:12 *761:18 8.05077e-05
90 *469:8 *761:18 0
91 *470:27 *761:18 1.69668e-05
92 *470:35 *1980:A 5.67058e-05
93 *470:35 *761:18 0
94 *470:35 *761:102 0.000112203
95 *470:39 *761:69 0
96 *470:39 *761:102 1.62848e-05
97 *474:8 *761:102 0.000110913
98 *475:8 *761:102 9.28078e-06
99 *477:10 *761:102 2.98648e-05
100 *477:24 *761:102 4.17736e-05
101 *477:24 *761:114 0.000243559
102 *477:45 *2186:A1 0.000116467
103 *477:45 *761:122 5.09165e-05
104 *477:45 *761:126 0
105 *477:45 *761:139 0
106 *481:10 *2186:A1 1.22822e-05
107 *481:10 *761:114 7.76364e-06
108 *481:10 *761:139 0
109 *483:10 *761:114 5.50106e-05
110 *494:12 *761:114 2.24973e-05
111 *499:22 *761:18 0.000871475
112 *701:64 *761:30 0.000114074
113 *701:89 *761:36 0.0002263
114 *701:97 *761:36 5.12254e-05
115 *708:35 *761:102 0
116 *729:8 *761:18 0
117 *729:43 *761:18 0
118 *738:114 *761:18 1.69668e-05
119 *747:26 *761:18 4.66519e-05
120 *754:130 *771:DIODE 0.000138959
121 *754:130 *761:36 3.0647e-05
122 *758:16 *761:18 9.176e-05
123 *759:52 *761:102 2.61526e-05
124 *759:52 *761:114 0
125 *759:54 *761:114 9.84794e-05
126 *759:66 *761:114 2.71291e-05
127 *759:102 *761:114 3.47781e-05
128 *760:8 *761:6 5.50049e-05
*RES
1 *2620:X *761:6 23.6214 
2 *761:6 *761:18 47.6664 
3 *761:18 *761:30 29.5 
4 *761:30 *761:36 41.7214 
5 *761:36 *761:40 15.6214 
6 *761:40 *2090:A 23 
7 *761:40 *771:DIODE 27.5986 
8 *761:18 *761:60 15.6214 
9 *761:60 *764:DIODE 23 
10 *761:60 *761:69 1.595 
11 *761:69 *1980:A 24.0979 
12 *761:69 *761:102 49.0364 
13 *761:102 *761:114 36.2764 
14 *761:114 *761:122 16.9161 
15 *761:122 *761:126 1.41893 
16 *761:126 *2101:A_N 38 
17 *761:126 *761:139 19.4121 
18 *761:139 *2097:B 24.7296 
19 *761:139 *774:DIODE 23 
20 *761:122 *2186:A1 42.4846 
21 *761:114 *775:DIODE 23 
22 *761:102 *777:DIODE 23 
23 *761:6 *839:DIODE 23 
*END

*D_NET *762 0.00495432
*CONN
*I *2360:A1 I *D sky130_fd_sc_hd__a221o_2
*I *2544:D I *D sky130_fd_sc_hd__dfstp_1
*I *2278:A1 I *D sky130_fd_sc_hd__mux2_1
*I *2621:X O *D sky130_fd_sc_hd__buf_1
*CAP
1 *2360:A1 0
2 *2544:D 0
3 *2278:A1 0
4 *2621:X 0.000427982
5 *762:54 0.000798192
6 *762:33 0.000258024
7 *762:25 0.00117566
8 *762:14 0.000367933
9 *762:10 0.000676473
10 *2278:A0 *762:14 2.93747e-05
11 *2278:A0 *762:25 6.17437e-06
12 *2360:C1 *762:54 2.93431e-05
13 *2441:A1 *762:54 5.79559e-05
14 *2441:A2 *762:54 6.35321e-05
15 *2540:CLK *762:10 0.000135024
16 *2540:RESET_B *762:10 0
17 *112:90 *762:54 6.39489e-06
18 *173:16 *762:33 9.20311e-06
19 *173:40 *762:33 9.46108e-05
20 *177:12 *762:33 0.000438156
21 *264:10 *762:14 9.01041e-05
22 *630:8 *762:54 9.5956e-06
23 *699:10 *762:33 0
24 *699:10 *762:54 9.74235e-05
25 *699:14 *762:54 7.76364e-06
26 *704:25 *762:33 3.16665e-05
27 *704:33 *762:10 0.000143733
28 *749:50 *762:10 0
*RES
1 *2621:X *762:10 47.1143 
2 *762:10 *762:14 19.9093 
3 *762:14 *2278:A1 23 
4 *762:14 *762:25 2.21643 
5 *762:25 *762:33 37.2293 
6 *762:33 *2544:D 23 
7 *762:25 *762:54 43.4436 
8 *762:54 *2360:A1 23 
*END

*D_NET *763 0.00478232
*CONN
*I *2103:A1 I *D sky130_fd_sc_hd__o221a_1
*I *2016:A_N I *D sky130_fd_sc_hd__nand2b_1
*I *1964:A I *D sky130_fd_sc_hd__inv_2
*I *2622:X O *D sky130_fd_sc_hd__buf_1
*CAP
1 *2103:A1 0
2 *2016:A_N 0.00016917
3 *1964:A 0
4 *2622:X 6.94194e-05
5 *763:20 0.000593502
6 *763:14 0.00114895
7 *763:8 0.000794033
8 *2098:B *763:20 3.53997e-05
9 *2147:A *763:14 0.000137163
10 *196:25 *763:14 5.52508e-05
11 *196:25 *763:20 0
12 *198:26 *763:14 0.000239243
13 *199:29 *763:14 0
14 *324:20 *763:20 3.70432e-05
15 *336:21 *763:14 6.7177e-06
16 *337:10 *2016:A_N 1.40958e-05
17 *434:10 *763:14 0
18 *466:41 *763:14 0.000263878
19 *468:12 *763:14 0
20 *469:8 *763:14 4.83941e-05
21 *470:8 *763:14 3.71198e-05
22 *470:27 *763:14 3.52294e-05
23 *470:27 *763:20 0.000510247
24 *499:22 *2016:A_N 0.00010018
25 *499:22 *763:20 9.5877e-05
26 *708:96 *763:20 0.000287339
27 *716:10 *763:14 0
28 *716:18 *763:14 0
29 *730:45 *763:20 5.58873e-06
30 *760:8 *763:8 9.84794e-05
31 *761:18 *763:14 0
*RES
1 *2622:X *763:8 39.0979 
2 *763:8 *763:14 14.4171 
3 *763:14 *763:20 25.0464 
4 *763:20 *1964:A 23 
5 *763:20 *2016:A_N 26.48 
6 *763:14 *2103:A1 38 
*END
