*SPEF "ieee 1481-1999"
*DESIGN "team_00"
*DATE "10:29:24 Saturday April 25, 2026"
*VENDOR "The OpenROAD Project"
*PROGRAM "OpenROAD"
*VERSION "dcf36133a369abc8f3c5e5738cd4d82e4903c0e0"
*DESIGN_FLOW "NAME_SCOPE LOCAL" "PIN_CAP NONE"
*DIVIDER /
*DELIMITER :
*BUS_DELIMITER []
*T_UNIT 1 NS
*C_UNIT 1 PF
*R_UNIT 1 OHM
*L_UNIT 1 HENRY

*NAME_MAP
*1 clk
*2 done
*3 en
*4 gpio_in[0]
*5 gpio_in[10]
*6 gpio_in[11]
*7 gpio_in[12]
*8 gpio_in[13]
*9 gpio_in[14]
*10 gpio_in[15]
*11 gpio_in[16]
*12 gpio_in[17]
*13 gpio_in[18]
*14 gpio_in[19]
*15 gpio_in[1]
*16 gpio_in[20]
*17 gpio_in[21]
*18 gpio_in[22]
*19 gpio_in[23]
*20 gpio_in[24]
*21 gpio_in[25]
*22 gpio_in[26]
*23 gpio_in[27]
*24 gpio_in[28]
*25 gpio_in[29]
*26 gpio_in[2]
*27 gpio_in[30]
*28 gpio_in[31]
*29 gpio_in[32]
*30 gpio_in[33]
*31 gpio_in[3]
*32 gpio_in[4]
*33 gpio_in[5]
*34 gpio_in[6]
*35 gpio_in[7]
*36 gpio_in[8]
*37 gpio_in[9]
*38 gpio_oeb[0]
*39 gpio_oeb[10]
*40 gpio_oeb[11]
*41 gpio_oeb[12]
*42 gpio_oeb[13]
*43 gpio_oeb[14]
*44 gpio_oeb[15]
*45 gpio_oeb[16]
*46 gpio_oeb[17]
*47 gpio_oeb[18]
*48 gpio_oeb[19]
*49 gpio_oeb[1]
*50 gpio_oeb[20]
*51 gpio_oeb[21]
*52 gpio_oeb[22]
*53 gpio_oeb[23]
*54 gpio_oeb[24]
*55 gpio_oeb[25]
*56 gpio_oeb[26]
*57 gpio_oeb[27]
*58 gpio_oeb[28]
*59 gpio_oeb[29]
*60 gpio_oeb[2]
*61 gpio_oeb[30]
*62 gpio_oeb[31]
*63 gpio_oeb[32]
*64 gpio_oeb[33]
*65 gpio_oeb[3]
*66 gpio_oeb[4]
*67 gpio_oeb[5]
*68 gpio_oeb[6]
*69 gpio_oeb[7]
*70 gpio_oeb[8]
*71 gpio_oeb[9]
*72 gpio_out[0]
*73 gpio_out[10]
*74 gpio_out[11]
*75 gpio_out[12]
*76 gpio_out[13]
*77 gpio_out[14]
*78 gpio_out[15]
*79 gpio_out[16]
*80 gpio_out[17]
*81 gpio_out[18]
*82 gpio_out[19]
*83 gpio_out[1]
*84 gpio_out[20]
*85 gpio_out[21]
*86 gpio_out[22]
*87 gpio_out[23]
*88 gpio_out[24]
*89 gpio_out[25]
*90 gpio_out[26]
*91 gpio_out[27]
*92 gpio_out[28]
*93 gpio_out[29]
*94 gpio_out[2]
*95 gpio_out[30]
*96 gpio_out[31]
*97 gpio_out[32]
*98 gpio_out[33]
*99 gpio_out[3]
*100 gpio_out[4]
*101 gpio_out[5]
*102 gpio_out[6]
*103 gpio_out[7]
*104 gpio_out[8]
*105 gpio_out[9]
*106 la_data_in[0]
*107 la_data_in[10]
*108 la_data_in[11]
*109 la_data_in[12]
*110 la_data_in[13]
*111 la_data_in[14]
*112 la_data_in[15]
*113 la_data_in[16]
*114 la_data_in[17]
*115 la_data_in[18]
*116 la_data_in[19]
*117 la_data_in[1]
*118 la_data_in[20]
*119 la_data_in[21]
*120 la_data_in[22]
*121 la_data_in[23]
*122 la_data_in[24]
*123 la_data_in[25]
*124 la_data_in[26]
*125 la_data_in[27]
*126 la_data_in[28]
*127 la_data_in[29]
*128 la_data_in[2]
*129 la_data_in[30]
*130 la_data_in[31]
*131 la_data_in[3]
*132 la_data_in[4]
*133 la_data_in[5]
*134 la_data_in[6]
*135 la_data_in[7]
*136 la_data_in[8]
*137 la_data_in[9]
*138 net
*139 net157
*140 net158
*141 net159
*142 net160
*143 net161
*144 net162
*145 net163
*146 net164
*147 net165
*148 net166
*149 net148
*150 net167
*151 net168
*152 net169
*153 net170
*154 net171
*155 net172
*156 net173
*157 net174
*158 net175
*159 net176
*160 net149
*161 net177
*162 net178
*163 net150
*164 net151
*165 net152
*166 net153
*167 net154
*168 net155
*169 net156
*170 la_oenb[0]
*171 la_oenb[10]
*172 la_oenb[11]
*173 la_oenb[12]
*174 la_oenb[13]
*175 la_oenb[14]
*176 la_oenb[15]
*177 la_oenb[16]
*178 la_oenb[17]
*179 la_oenb[18]
*180 la_oenb[19]
*181 la_oenb[1]
*182 la_oenb[20]
*183 la_oenb[21]
*184 la_oenb[22]
*185 la_oenb[23]
*186 la_oenb[24]
*187 la_oenb[25]
*188 la_oenb[26]
*189 la_oenb[27]
*190 la_oenb[28]
*191 la_oenb[29]
*192 la_oenb[2]
*193 la_oenb[30]
*194 la_oenb[31]
*195 la_oenb[3]
*196 la_oenb[4]
*197 la_oenb[5]
*198 la_oenb[6]
*199 la_oenb[7]
*200 la_oenb[8]
*201 la_oenb[9]
*202 nrst
*203 prescaler[0]
*204 prescaler[10]
*205 prescaler[11]
*206 prescaler[12]
*207 prescaler[13]
*208 prescaler[1]
*209 prescaler[2]
*210 prescaler[3]
*211 prescaler[4]
*212 prescaler[5]
*213 prescaler[6]
*214 prescaler[7]
*215 prescaler[8]
*216 prescaler[9]
*219 _0000_
*220 _0001_
*221 _0002_
*222 _0003_
*223 _0004_
*224 _0005_
*225 _0006_
*226 _0007_
*227 _0008_
*228 _0009_
*229 _0010_
*230 _0011_
*231 _0012_
*232 _0013_
*233 _0014_
*234 _0015_
*235 _0016_
*236 _0017_
*237 _0018_
*238 _0019_
*239 _0020_
*240 _0021_
*241 _0022_
*242 _0023_
*243 _0024_
*244 _0025_
*245 _0026_
*246 _0027_
*247 _0028_
*248 _0029_
*249 _0030_
*250 _0031_
*251 _0032_
*252 _0033_
*253 _0034_
*254 _0035_
*255 _0036_
*256 _0037_
*257 _0038_
*258 _0039_
*259 _0040_
*260 _0041_
*261 _0042_
*262 _0043_
*263 _0044_
*264 _0045_
*265 _0046_
*266 _0047_
*267 _0048_
*268 _0049_
*269 _0050_
*270 _0051_
*271 _0052_
*272 _0053_
*273 _0054_
*274 _0055_
*275 _0056_
*276 _0057_
*277 _0058_
*278 _0059_
*279 _0060_
*280 _0061_
*281 _0062_
*282 _0063_
*283 _0064_
*284 _0065_
*285 _0066_
*286 _0067_
*287 _0068_
*288 _0069_
*289 _0070_
*290 _0071_
*291 _0072_
*292 _0073_
*293 _0074_
*294 _0075_
*295 _0076_
*296 _0077_
*297 _0078_
*298 _0079_
*299 _0080_
*300 _0081_
*301 _0082_
*302 _0083_
*303 _0084_
*304 _0085_
*305 _0086_
*306 _0087_
*307 _0088_
*308 _0089_
*309 _0090_
*310 _0091_
*311 _0092_
*312 _0093_
*313 _0094_
*314 _0095_
*315 _0096_
*316 _0097_
*317 _0098_
*318 _0099_
*319 _0100_
*320 _0101_
*321 _0102_
*322 _0103_
*323 _0104_
*324 _0105_
*325 _0106_
*326 _0107_
*327 _0108_
*328 _0109_
*329 _0110_
*330 _0111_
*331 _0112_
*332 _0113_
*333 _0114_
*334 _0115_
*335 _0116_
*336 _0117_
*337 _0118_
*338 _0119_
*339 _0120_
*340 _0121_
*341 _0122_
*342 _0123_
*343 _0124_
*344 _0125_
*345 _0126_
*346 _0127_
*347 _0128_
*348 _0129_
*349 _0130_
*350 _0131_
*351 _0132_
*352 _0133_
*353 _0134_
*354 _0135_
*355 _0136_
*356 _0137_
*357 _0138_
*358 _0139_
*359 _0140_
*360 _0141_
*361 _0142_
*362 _0143_
*363 _0144_
*364 _0145_
*365 _0146_
*366 _0147_
*367 _0148_
*368 _0149_
*369 _0150_
*370 _0151_
*371 _0152_
*372 _0153_
*373 _0154_
*374 _0155_
*375 _0156_
*376 _0157_
*377 _0158_
*378 _0159_
*379 _0160_
*380 _0161_
*381 _0162_
*382 _0163_
*383 _0164_
*384 _0165_
*385 _0166_
*386 _0167_
*387 _0168_
*388 _0169_
*389 _0170_
*390 _0171_
*391 _0172_
*392 _0173_
*393 _0174_
*394 _0175_
*395 _0176_
*396 _0177_
*397 _0178_
*398 _0179_
*399 _0180_
*400 _0181_
*401 _0182_
*402 _0183_
*403 _0184_
*404 _0185_
*405 _0186_
*406 _0187_
*407 _0188_
*408 _0189_
*409 _0190_
*410 _0191_
*411 _0192_
*412 _0193_
*413 _0194_
*414 _0195_
*415 _0196_
*416 _0197_
*417 _0198_
*418 _0199_
*419 _0200_
*420 _0201_
*421 _0202_
*422 _0203_
*423 _0204_
*424 _0205_
*425 _0206_
*426 _0207_
*427 _0208_
*428 _0209_
*429 _0210_
*430 _0211_
*431 _0212_
*432 _0213_
*433 _0214_
*434 _0215_
*435 _0216_
*436 _0217_
*437 _0218_
*438 _0219_
*439 _0220_
*440 _0221_
*441 _0222_
*442 _0223_
*443 _0224_
*444 _0225_
*445 _0226_
*446 _0227_
*447 _0228_
*448 _0229_
*449 _0230_
*450 _0231_
*451 _0232_
*452 _0233_
*453 _0234_
*454 _0235_
*455 _0236_
*456 _0237_
*457 _0238_
*458 _0239_
*459 _0240_
*460 _0241_
*461 _0242_
*462 _0243_
*463 _0244_
*464 _0245_
*465 _0246_
*466 _0247_
*467 _0248_
*468 _0249_
*469 _0250_
*470 _0251_
*471 _0252_
*472 _0253_
*473 _0254_
*474 _0255_
*475 _0256_
*476 _0257_
*477 _0258_
*478 _0259_
*479 _0260_
*480 _0261_
*481 _0262_
*482 _0263_
*483 _0264_
*484 _0265_
*485 _0266_
*486 _0267_
*487 _0268_
*488 _0269_
*489 _0270_
*490 _0271_
*491 _0272_
*492 _0273_
*493 _0274_
*494 _0275_
*495 _0276_
*496 _0277_
*497 _0278_
*498 _0279_
*499 _0280_
*500 _0281_
*501 _0282_
*502 _0283_
*503 _0284_
*504 _0285_
*505 _0286_
*506 _0287_
*507 _0288_
*508 _0289_
*509 _0290_
*510 _0291_
*511 _0292_
*512 _0293_
*513 _0294_
*514 _0295_
*515 _0296_
*516 _0297_
*517 _0298_
*518 _0299_
*519 _0300_
*520 _0301_
*521 _0302_
*522 _0303_
*523 _0304_
*524 _0305_
*525 _0306_
*526 _0307_
*527 _0308_
*528 _0309_
*529 _0310_
*530 _0311_
*531 _0312_
*532 _0313_
*533 _0314_
*534 _0315_
*535 _0316_
*536 _0317_
*537 _0318_
*538 _0319_
*539 _0320_
*540 _0321_
*541 _0322_
*542 _0323_
*543 _0324_
*544 _0325_
*545 _0326_
*546 _0327_
*547 _0328_
*548 _0329_
*549 _0330_
*550 _0331_
*551 _0332_
*552 _0333_
*553 _0334_
*554 _0335_
*555 _0336_
*556 _0337_
*557 _0338_
*558 _0339_
*559 _0340_
*560 _0341_
*561 _0342_
*562 _0343_
*563 _0344_
*564 _0345_
*565 _0346_
*566 _0347_
*567 _0348_
*568 _0349_
*569 _0350_
*570 _0351_
*571 _0352_
*572 _0353_
*573 _0354_
*574 _0355_
*575 _0356_
*576 _0357_
*577 _0358_
*578 _0359_
*579 _0360_
*580 _0361_
*581 _0362_
*582 _0363_
*583 _0364_
*584 _0365_
*585 _0366_
*586 _0367_
*587 _0368_
*588 _0369_
*589 _0370_
*590 _0371_
*591 _0372_
*592 _0373_
*593 _0374_
*594 _0375_
*595 _0376_
*596 _0377_
*597 _0378_
*598 _0379_
*599 _0380_
*600 _0381_
*601 _0382_
*602 _0383_
*603 _0384_
*604 _0385_
*605 _0386_
*606 _0387_
*607 _0388_
*608 _0389_
*609 _0390_
*610 _0391_
*611 _0392_
*612 _0393_
*613 _0394_
*614 _0395_
*615 _0396_
*616 _0397_
*617 _0398_
*618 _0399_
*619 _0400_
*620 _0401_
*621 _0402_
*622 _0403_
*623 _0404_
*624 _0405_
*625 _0406_
*626 _0407_
*627 _0408_
*628 _0409_
*629 _0410_
*630 _0411_
*631 _0412_
*632 _0413_
*633 _0414_
*634 _0415_
*635 _0416_
*636 _0417_
*637 _0418_
*638 _0419_
*639 _0420_
*640 _0421_
*641 _0422_
*642 _0423_
*643 _0424_
*644 _0425_
*645 _0426_
*646 _0427_
*647 _0428_
*648 _0429_
*649 _0430_
*650 _0431_
*651 _0432_
*652 _0433_
*653 _0434_
*654 _0435_
*655 _0436_
*656 _0437_
*657 _0438_
*658 _0439_
*659 _0440_
*660 _0441_
*661 _0442_
*662 _0443_
*663 _0444_
*664 _0445_
*665 _0446_
*666 _0447_
*667 _0448_
*668 _0449_
*669 _0450_
*670 _0451_
*671 _0452_
*672 _0453_
*673 _0454_
*674 _0455_
*675 _0456_
*676 _0457_
*677 _0458_
*678 _0459_
*679 _0460_
*680 _0461_
*681 _0462_
*682 _0463_
*683 _0464_
*684 _0465_
*685 _0466_
*686 _0467_
*687 _0468_
*688 _0469_
*689 _0470_
*690 _0471_
*691 _0472_
*692 _0473_
*693 _0474_
*694 _0475_
*695 _0476_
*696 _0477_
*697 _0478_
*698 _0479_
*699 _0480_
*700 _0481_
*701 _0482_
*702 _0483_
*703 _0484_
*704 _0485_
*705 _0486_
*706 _0487_
*707 _0488_
*708 _0489_
*709 _0490_
*710 _0491_
*711 _0492_
*712 _0493_
*713 _0494_
*714 _0495_
*715 _0496_
*716 _0497_
*717 _0498_
*718 _0499_
*719 _0500_
*720 _0501_
*721 _0502_
*722 _0503_
*723 _0504_
*724 _0505_
*725 _0506_
*726 _0507_
*727 _0508_
*728 _0509_
*729 _0510_
*730 _0511_
*731 _0512_
*732 _0513_
*733 _0514_
*734 _0515_
*735 _0516_
*736 _0517_
*737 _0518_
*738 _0519_
*739 _0520_
*740 _0521_
*741 _0522_
*742 _0523_
*743 _0524_
*744 _0525_
*745 _0526_
*746 _0527_
*747 _0528_
*748 _0529_
*749 _0530_
*750 _0531_
*751 _0532_
*752 _0533_
*753 _0534_
*754 _0535_
*755 _0536_
*756 _0537_
*757 _0538_
*758 _0539_
*759 _0540_
*760 _0541_
*761 _0542_
*762 _0543_
*763 _0544_
*764 _0545_
*765 _0546_
*766 _0547_
*767 _0548_
*768 _0549_
*769 _0550_
*770 _0551_
*771 _0552_
*772 _0553_
*773 _0554_
*774 _0555_
*775 _0556_
*776 _0557_
*777 _0558_
*778 _0559_
*779 _0560_
*780 _0561_
*781 _0562_
*782 _0563_
*783 _0564_
*784 _0565_
*785 _0566_
*786 _0567_
*787 _0568_
*788 _0569_
*789 _0570_
*790 _0571_
*791 _0572_
*792 _0573_
*793 _0574_
*794 _0575_
*795 _0576_
*796 _0577_
*797 _0578_
*798 _0579_
*799 _0580_
*800 _0581_
*801 _0582_
*802 _0583_
*803 _0584_
*804 _0585_
*805 _0586_
*806 _0587_
*807 _0588_
*808 _0589_
*809 _0590_
*810 _0591_
*811 _0592_
*812 _0593_
*813 _0594_
*814 _0595_
*815 _0596_
*816 _0597_
*817 _0598_
*818 _0599_
*819 _0600_
*820 _0601_
*821 _0602_
*822 _0603_
*823 _0604_
*824 _0605_
*825 _0606_
*826 _0607_
*827 _0608_
*828 _0609_
*829 _0610_
*830 _0611_
*831 _0612_
*832 _0613_
*833 _0614_
*834 _0615_
*835 _0616_
*836 _0617_
*837 _0618_
*838 _0619_
*839 _0620_
*840 _0621_
*841 _0622_
*842 _0623_
*843 _0624_
*844 _0625_
*845 _0626_
*846 _0627_
*847 _0628_
*848 _0629_
*849 _0630_
*850 _0631_
*851 _0632_
*852 _0633_
*853 _0634_
*854 _0635_
*855 _0636_
*856 _0637_
*857 _0638_
*858 _0639_
*859 _0640_
*860 _0641_
*861 _0642_
*862 _0643_
*863 _0644_
*864 _0645_
*865 _0646_
*866 _0647_
*867 _0648_
*868 _0649_
*869 _0650_
*870 _0651_
*871 _0652_
*872 _0653_
*873 _0654_
*874 _0655_
*875 _0656_
*876 _0657_
*877 _0658_
*878 _0659_
*879 _0660_
*880 _0661_
*881 _0662_
*882 _0663_
*883 _0664_
*884 _0665_
*885 _0666_
*886 _0667_
*887 _0668_
*888 _0669_
*889 _0670_
*890 _0671_
*891 _0672_
*892 _0673_
*893 _0674_
*894 _0675_
*895 _0676_
*896 _0677_
*897 _0678_
*898 _0679_
*899 _0680_
*900 _0681_
*901 _0682_
*902 _0683_
*903 _0684_
*904 _0685_
*905 clk_divider\.count_out\[0\]
*906 clk_divider\.count_out\[10\]
*907 clk_divider\.count_out\[11\]
*908 clk_divider\.count_out\[12\]
*909 clk_divider\.count_out\[13\]
*910 clk_divider\.count_out\[14\]
*911 clk_divider\.count_out\[15\]
*912 clk_divider\.count_out\[16\]
*913 clk_divider\.count_out\[17\]
*914 clk_divider\.count_out\[18\]
*915 clk_divider\.count_out\[19\]
*916 clk_divider\.count_out\[1\]
*917 clk_divider\.count_out\[20\]
*918 clk_divider\.count_out\[21\]
*919 clk_divider\.count_out\[22\]
*920 clk_divider\.count_out\[23\]
*921 clk_divider\.count_out\[24\]
*922 clk_divider\.count_out\[25\]
*923 clk_divider\.count_out\[26\]
*924 clk_divider\.count_out\[27\]
*925 clk_divider\.count_out\[2\]
*926 clk_divider\.count_out\[3\]
*927 clk_divider\.count_out\[4\]
*928 clk_divider\.count_out\[5\]
*929 clk_divider\.count_out\[6\]
*930 clk_divider\.count_out\[7\]
*931 clk_divider\.count_out\[8\]
*932 clk_divider\.count_out\[9\]
*933 clk_divider\.next_count\[0\]
*934 clk_divider\.next_count\[10\]
*935 clk_divider\.next_count\[11\]
*936 clk_divider\.next_count\[12\]
*937 clk_divider\.next_count\[13\]
*938 clk_divider\.next_count\[14\]
*939 clk_divider\.next_count\[15\]
*940 clk_divider\.next_count\[16\]
*941 clk_divider\.next_count\[17\]
*942 clk_divider\.next_count\[18\]
*943 clk_divider\.next_count\[19\]
*944 clk_divider\.next_count\[1\]
*945 clk_divider\.next_count\[20\]
*946 clk_divider\.next_count\[21\]
*947 clk_divider\.next_count\[22\]
*948 clk_divider\.next_count\[23\]
*949 clk_divider\.next_count\[24\]
*950 clk_divider\.next_count\[25\]
*951 clk_divider\.next_count\[26\]
*952 clk_divider\.next_count\[27\]
*953 clk_divider\.next_count\[2\]
*954 clk_divider\.next_count\[3\]
*955 clk_divider\.next_count\[4\]
*956 clk_divider\.next_count\[5\]
*957 clk_divider\.next_count\[6\]
*958 clk_divider\.next_count\[7\]
*959 clk_divider\.next_count\[8\]
*960 clk_divider\.next_count\[9\]
*961 clk_divider\.next_flag
*962 clk_divider\.rollover_flag
*963 clknet_0_clk
*964 clknet_2_0__leaf_clk
*965 clknet_2_1__leaf_clk
*966 clknet_2_2__leaf_clk
*967 clknet_2_3__leaf_clk
*968 count\[0\]
*969 count\[1\]
*970 count\[2\]
*971 count\[3\]
*972 count\[4\]
*973 count\[5\]
*974 counter_to_35\.next_count\[0\]
*975 counter_to_35\.next_count\[1\]
*976 counter_to_35\.next_count\[2\]
*977 counter_to_35\.next_count\[3\]
*978 counter_to_35\.next_count\[4\]
*979 counter_to_35\.next_count\[5\]
*980 counter_to_35\.next_flag
*981 net1
*982 net10
*983 net100
*984 net101
*985 net102
*986 net103
*987 net104
*988 net105
*989 net106
*990 net107
*991 net108
*992 net109
*993 net11
*994 net110
*995 net111
*996 net112
*997 net113
*998 net114
*999 net115
*1000 net116
*1001 net117
*1002 net118
*1003 net119
*1004 net12
*1005 net120
*1006 net121
*1007 net122
*1008 net123
*1009 net124
*1010 net125
*1011 net126
*1012 net127
*1013 net128
*1014 net129
*1015 net13
*1016 net130
*1017 net131
*1018 net132
*1019 net133
*1020 net134
*1021 net135
*1022 net136
*1023 net137
*1024 net138
*1025 net139
*1026 net14
*1027 net140
*1028 net141
*1029 net142
*1030 net143
*1031 net144
*1032 net145
*1033 net146
*1034 net147
*1035 net15
*1036 net16
*1037 net17
*1038 net18
*1039 net19
*1040 net2
*1041 net20
*1042 net21
*1043 net22
*1044 net23
*1045 net24
*1046 net25
*1047 net26
*1048 net27
*1049 net28
*1050 net29
*1051 net3
*1052 net30
*1053 net31
*1054 net32
*1055 net33
*1056 net34
*1057 net35
*1058 net36
*1059 net37
*1060 net38
*1061 net39
*1062 net4
*1063 net40
*1064 net41
*1065 net42
*1066 net43
*1067 net44
*1068 net45
*1069 net46
*1070 net47
*1071 net48
*1072 net49
*1073 net5
*1074 net50
*1075 net51
*1076 net52
*1077 net53
*1078 net54
*1079 net55
*1080 net56
*1081 net57
*1082 net58
*1083 net59
*1084 net6
*1085 net60
*1086 net61
*1087 net62
*1088 net63
*1089 net64
*1090 net65
*1091 net66
*1092 net67
*1093 net68
*1094 net69
*1095 net7
*1096 net70
*1097 net71
*1098 net72
*1099 net73
*1100 net74
*1101 net75
*1102 net76
*1103 net77
*1104 net78
*1105 net79
*1106 net8
*1107 net80
*1108 net81
*1109 net82
*1110 net83
*1111 net84
*1112 net85
*1113 net86
*1114 net87
*1115 net88
*1116 net89
*1117 net9
*1118 net90
*1119 net91
*1120 net92
*1121 net93
*1122 net94
*1123 net95
*1124 net96
*1125 net97
*1126 net98
*1127 net99
*1128 ANTENNA__0692__Y
*1129 ANTENNA__0695__Y
*1130 ANTENNA__0698__A
*1131 ANTENNA__0698__Y
*1132 ANTENNA__0713__X
*1133 ANTENNA__0715__B
*1134 ANTENNA__0716__B1
*1135 ANTENNA__0722__B1
*1136 ANTENNA__0733__A
*1137 ANTENNA__0735__A2
*1138 ANTENNA__0749__A1
*1139 ANTENNA__0753__A
*1140 ANTENNA__0754__A
*1141 ANTENNA__0763__A
*1142 ANTENNA__0767__A
*1143 ANTENNA__0771__A
*1144 ANTENNA__0776__A1
*1145 ANTENNA__0779__A
*1146 ANTENNA__0784__A1
*1147 ANTENNA__0789__A
*1148 ANTENNA__0792__A
*1149 ANTENNA__0800__B2
*1150 ANTENNA__0808__A
*1151 ANTENNA__0812__A
*1152 ANTENNA__0819__A2
*1153 ANTENNA__0822__A
*1154 ANTENNA__0823__B
*1155 ANTENNA__0855__A1
*1156 ANTENNA__0857__A2
*1157 ANTENNA__0859__A
*1158 ANTENNA__0860__A
*1159 ANTENNA__0879__A
*1160 ANTENNA__0880__A
*1161 ANTENNA__0881__A
*1162 ANTENNA__0902__A
*1163 ANTENNA__0903__B
*1164 ANTENNA__0904__A
*1165 ANTENNA__0904__B
*1166 ANTENNA__0905__B
*1167 ANTENNA__0906__A
*1168 ANTENNA__0906__B
*1169 ANTENNA__0908__A2
*1170 ANTENNA__0908__A3
*1171 ANTENNA__0908__B1
*1172 ANTENNA__0910__A
*1173 ANTENNA__0911__B
*1174 ANTENNA__0913__B
*1175 ANTENNA__0914__A
*1176 ANTENNA__0915__A
*1177 ANTENNA__0926__B1
*1178 ANTENNA__0928__A
*1179 ANTENNA__0928__B
*1180 ANTENNA__0942__A
*1181 ANTENNA__0942__B
*1182 ANTENNA__0943__A
*1183 ANTENNA__0945__A1
*1184 ANTENNA__0952__B
*1185 ANTENNA__0953__B
*1186 ANTENNA__0954__A
*1187 ANTENNA__0955__A
*1188 ANTENNA__0958__A1
*1189 ANTENNA__0965__A
*1190 ANTENNA__0967__A1
*1191 ANTENNA__1104__A1_N
*1192 ANTENNA__1105__A2
*1193 ANTENNA__1106__A1
*1194 ANTENNA__1108__B2
*1195 ANTENNA__1124__X
*1196 ANTENNA__1127__Y
*1197 ANTENNA__1129__A2
*1198 ANTENNA__1137__B
*1199 ANTENNA__1139__C1
*1200 ANTENNA__1141__C1
*1201 ANTENNA__1146__B
*1202 ANTENNA__1148__C1
*1203 ANTENNA__1149__B1
*1204 ANTENNA__1155__A3
*1205 ANTENNA__1156__A1
*1206 ANTENNA__1156__B1
*1207 ANTENNA__1157__A2
*1208 ANTENNA__1157__B1
*1209 ANTENNA__1160__B
*1210 ANTENNA__1162__C1
*1211 ANTENNA__1163__B1
*1212 ANTENNA__1169__B
*1213 ANTENNA__1170__C1
*1214 ANTENNA__1171__B1
*1215 ANTENNA__1176__B
*1216 ANTENNA__1178__C1
*1217 ANTENNA__1179__B1
*1218 ANTENNA__1183__B
*1219 ANTENNA__1184__C1
*1220 ANTENNA__1185__B1
*1221 ANTENNA__1187__C
*1222 ANTENNA__1191__B1
*1223 ANTENNA__1193__A1
*1224 ANTENNA__1193__C1
*1225 ANTENNA__1197__B
*1226 ANTENNA__1199__C1
*1227 ANTENNA__1200__B1
*1228 ANTENNA__1205__B
*1229 ANTENNA__1207__C1
*1230 ANTENNA__1208__B1
*1231 ANTENNA__1212__A2
*1232 ANTENNA__1213__A1
*1233 ANTENNA__1213__B1
*1234 ANTENNA__1214__B1
*1235 ANTENNA__1219__B
*1236 ANTENNA__1221__C1
*1237 ANTENNA__1222__B1
*1238 ANTENNA__1226__B
*1239 ANTENNA__1227__C1
*1240 ANTENNA__1229__C1
*1241 ANTENNA__1234__B
*1242 ANTENNA__1236__C1
*1243 ANTENNA__1237__B1
*1244 ANTENNA__1242__B
*1245 ANTENNA__1244__C1
*1246 ANTENNA__1245__B1
*1247 ANTENNA__1250__A3
*1248 ANTENNA__1251__A1
*1249 ANTENNA__1251__B1
*1250 ANTENNA__1252__B1
*1251 ANTENNA__1257__B
*1252 ANTENNA__1259__C1
*1253 ANTENNA__1260__B1
*1254 ANTENNA__1266__A3
*1255 ANTENNA__1267__A1
*1256 ANTENNA__1267__B1
*1257 ANTENNA__1268__B1
*1258 ANTENNA__1272__B
*1259 ANTENNA__1274__C1
*1260 ANTENNA__1275__B1
*1261 ANTENNA__1280__B
*1262 ANTENNA__1282__C1
*1263 ANTENNA__1283__B1
*1264 ANTENNA__1285__C
*1265 ANTENNA__1289__B1
*1266 ANTENNA__1290__B1
*1267 ANTENNA__1293__B
*1268 ANTENNA__1295__A1
*1269 ANTENNA__1296__B1
*1270 ANTENNA__1300__B
*1271 ANTENNA__1302__A2
*1272 ANTENNA__1302__B1
*1273 ANTENNA__1303__C1
*1274 ANTENNA__1304__B1
*1275 ANTENNA__1308__A3
*1276 ANTENNA__1310__C1
*1277 ANTENNA__1311__B1
*1278 ANTENNA__1312__A3
*1279 ANTENNA__1313__A2
*1280 ANTENNA__1313__B1
*1281 ANTENNA__1315__C
*1282 ANTENNA__1318__B1
*1283 ANTENNA__1320__A1
*1284 ANTENNA__1320__C1
*1285 ANTENNA__1321__C
*1286 ANTENNA__1324__B1
*1287 ANTENNA__1326__A1
*1288 ANTENNA__1326__C1
*1289 ANTENNA__1327__C
*1290 ANTENNA__1330__B1
*1291 ANTENNA__1331__B1
*1292 ANTENNA__1332__A1
*1293 ANTENNA__1340__A
*1294 ANTENNA__1343__A1
*1295 ANTENNA__1361__D1
*1296 ANTENNA__1363__B2
*1297 ANTENNA__1443__CLK
*1298 ANTENNA__1444__CLK
*1299 ANTENNA__1444__RESET_B
*1300 ANTENNA__1445__CLK
*1301 ANTENNA__1445__RESET_B
*1302 ANTENNA__1446__CLK
*1303 ANTENNA__1447__CLK
*1304 ANTENNA__1448__CLK
*1305 ANTENNA__1448__RESET_B
*1306 ANTENNA__1449__CLK
*1307 ANTENNA__1449__RESET_B
*1308 ANTENNA__1450__CLK
*1309 ANTENNA__1450__RESET_B
*1310 ANTENNA__1451__CLK
*1311 ANTENNA__1452__CLK
*1312 ANTENNA__1453__CLK
*1313 ANTENNA__1454__CLK
*1314 ANTENNA__1455__CLK
*1315 ANTENNA__1455__RESET_B
*1316 ANTENNA__1456__CLK
*1317 ANTENNA__1457__CLK
*1318 ANTENNA__1458__CLK
*1319 ANTENNA__1459__CLK
*1320 ANTENNA__1460__CLK
*1321 ANTENNA__1462__CLK
*1322 ANTENNA__1462__RESET_B
*1323 ANTENNA__1463__CLK
*1324 ANTENNA__1463__RESET_B
*1325 ANTENNA__1464__CLK
*1326 ANTENNA__1465__CLK
*1327 ANTENNA__1466__CLK
*1328 ANTENNA__1466__RESET_B
*1329 ANTENNA__1467__CLK
*1330 ANTENNA__1467__RESET_B
*1331 ANTENNA__1468__CLK
*1332 ANTENNA__1469__CLK
*1333 ANTENNA__1471__CLK
*1334 ANTENNA__1471__RESET_B
*1335 ANTENNA__1473__RESET_B
*1336 ANTENNA__1474__RESET_B
*1337 ANTENNA__1475__RESET_B
*1338 ANTENNA__1478__RESET_B
*1339 ANTENNA_clkbuf_0_clk_A
*1340 ANTENNA_clkbuf_2_0__f_clk_X
*1341 ANTENNA_clkbuf_2_1__f_clk_X
*1342 ANTENNA_clkbuf_2_2__f_clk_X
*1343 ANTENNA_fanout100_A
*1344 ANTENNA_fanout103_X
*1345 ANTENNA_fanout104_X
*1346 ANTENNA_fanout105_X
*1347 ANTENNA_fanout107_X
*1348 ANTENNA_fanout109_A
*1349 ANTENNA_fanout109_X
*1350 ANTENNA_fanout110_A
*1351 ANTENNA_fanout110_X
*1352 ANTENNA_fanout128_X
*1353 ANTENNA_fanout134_X
*1354 ANTENNA_fanout136_A
*1355 ANTENNA_fanout138_A
*1356 ANTENNA_fanout139_A
*1357 ANTENNA_fanout141_A
*1358 ANTENNA_fanout94_A
*1359 ANTENNA_fanout94_X
*1360 ANTENNA_fanout95_A
*1361 ANTENNA_fanout95_X
*1362 ANTENNA_fanout96_X
*1363 ANTENNA_fanout97_A
*1364 ANTENNA_fanout98_A
*1365 ANTENNA_fanout99_A
*1366 ANTENNA_input10_A
*1367 ANTENNA_input10_X
*1368 ANTENNA_input11_A
*1369 ANTENNA_input12_A
*1370 ANTENNA_input13_A
*1371 ANTENNA_input14_A
*1372 ANTENNA_input15_A
*1373 ANTENNA_input16_A
*1374 ANTENNA_input17_A
*1375 ANTENNA_input18_A
*1376 ANTENNA_input19_A
*1377 ANTENNA_input1_A
*1378 ANTENNA_input20_A
*1379 ANTENNA_input20_X
*1380 ANTENNA_input2_A
*1381 ANTENNA_input3_A
*1382 ANTENNA_input4_A
*1383 ANTENNA_input5_A
*1384 ANTENNA_input6_A
*1385 ANTENNA_input6_X
*1386 ANTENNA_input7_A
*1387 ANTENNA_input7_X
*1388 ANTENNA_input8_A
*1389 ANTENNA_input9_A
*1390 ANTENNA_input9_X
*1391 ANTENNA_load_slew137_X
*1392 ANTENNA_max_cap135_A
*1393 ANTENNA_wire142_X
*1394 FILLER_0_103
*1395 FILLER_0_108
*1396 FILLER_0_113
*1397 FILLER_0_124
*1398 FILLER_0_136
*1399 FILLER_0_141
*1400 FILLER_0_15
*1401 FILLER_0_153
*1402 FILLER_0_165
*1403 FILLER_0_167
*1404 FILLER_0_169
*1405 FILLER_0_181
*1406 FILLER_0_195
*1407 FILLER_0_197
*1408 FILLER_0_204
*1409 FILLER_0_216
*1410 FILLER_0_225
*1411 FILLER_0_237
*1412 FILLER_0_249
*1413 FILLER_0_251
*1414 FILLER_0_253
*1415 FILLER_0_265
*1416 FILLER_0_27
*1417 FILLER_0_277
*1418 FILLER_0_279
*1419 FILLER_0_281
*1420 FILLER_0_29
*1421 FILLER_0_293
*1422 FILLER_0_3
*1423 FILLER_0_300
*1424 FILLER_0_309
*1425 FILLER_0_321
*1426 FILLER_0_333
*1427 FILLER_0_335
*1428 FILLER_0_337
*1429 FILLER_0_344
*1430 FILLER_0_348
*1431 FILLER_0_360
*1432 FILLER_0_365
*1433 FILLER_0_369
*1434 FILLER_0_371
*1435 FILLER_0_41
*1436 FILLER_0_53
*1437 FILLER_0_65
*1438 FILLER_0_77
*1439 FILLER_0_81
*1440 FILLER_0_83
*1441 FILLER_0_85
*1442 FILLER_0_99
*1443 FILLER_10_109
*1444 FILLER_10_121
*1445 FILLER_10_133
*1446 FILLER_10_137
*1447 FILLER_10_139
*1448 FILLER_10_15
*1449 FILLER_10_164
*1450 FILLER_10_172
*1451 FILLER_10_174
*1452 FILLER_10_177
*1453 FILLER_10_180
*1454 FILLER_10_188
*1455 FILLER_10_190
*1456 FILLER_10_197
*1457 FILLER_10_209
*1458 FILLER_10_213
*1459 FILLER_10_230
*1460 FILLER_10_249
*1461 FILLER_10_251
*1462 FILLER_10_261
*1463 FILLER_10_27
*1464 FILLER_10_273
*1465 FILLER_10_285
*1466 FILLER_10_29
*1467 FILLER_10_297
*1468 FILLER_10_3
*1469 FILLER_10_305
*1470 FILLER_10_307
*1471 FILLER_10_309
*1472 FILLER_10_321
*1473 FILLER_10_333
*1474 FILLER_10_345
*1475 FILLER_10_357
*1476 FILLER_10_361
*1477 FILLER_10_363
*1478 FILLER_10_365
*1479 FILLER_10_373
*1480 FILLER_10_41
*1481 FILLER_10_53
*1482 FILLER_10_70
*1483 FILLER_10_82
*1484 FILLER_10_85
*1485 FILLER_10_97
*1486 FILLER_11_110
*1487 FILLER_11_113
*1488 FILLER_11_125
*1489 FILLER_11_131
*1490 FILLER_11_139
*1491 FILLER_11_145
*1492 FILLER_11_15
*1493 FILLER_11_164
*1494 FILLER_11_169
*1495 FILLER_11_178
*1496 FILLER_11_187
*1497 FILLER_11_199
*1498 FILLER_11_203
*1499 FILLER_11_209
*1500 FILLER_11_221
*1501 FILLER_11_223
*1502 FILLER_11_225
*1503 FILLER_11_237
*1504 FILLER_11_245
*1505 FILLER_11_269
*1506 FILLER_11_27
*1507 FILLER_11_277
*1508 FILLER_11_281
*1509 FILLER_11_292
*1510 FILLER_11_3
*1511 FILLER_11_304
*1512 FILLER_11_316
*1513 FILLER_11_328
*1514 FILLER_11_337
*1515 FILLER_11_349
*1516 FILLER_11_361
*1517 FILLER_11_365
*1518 FILLER_11_367
*1519 FILLER_11_372
*1520 FILLER_11_374
*1521 FILLER_11_39
*1522 FILLER_11_51
*1523 FILLER_11_55
*1524 FILLER_11_57
*1525 FILLER_11_65
*1526 FILLER_11_80
*1527 FILLER_11_98
*1528 FILLER_12_103
*1529 FILLER_12_110
*1530 FILLER_12_122
*1531 FILLER_12_139
*1532 FILLER_12_15
*1533 FILLER_12_154
*1534 FILLER_12_158
*1535 FILLER_12_213
*1536 FILLER_12_221
*1537 FILLER_12_241
*1538 FILLER_12_255
*1539 FILLER_12_258
*1540 FILLER_12_27
*1541 FILLER_12_29
*1542 FILLER_12_294
*1543 FILLER_12_3
*1544 FILLER_12_306
*1545 FILLER_12_309
*1546 FILLER_12_321
*1547 FILLER_12_333
*1548 FILLER_12_345
*1549 FILLER_12_357
*1550 FILLER_12_359
*1551 FILLER_12_365
*1552 FILLER_12_41
*1553 FILLER_12_49
*1554 FILLER_12_64
*1555 FILLER_12_68
*1556 FILLER_12_99
*1557 FILLER_13_106
*1558 FILLER_13_110
*1559 FILLER_13_113
*1560 FILLER_13_127
*1561 FILLER_13_139
*1562 FILLER_13_147
*1563 FILLER_13_15
*1564 FILLER_13_159
*1565 FILLER_13_167
*1566 FILLER_13_169
*1567 FILLER_13_173
*1568 FILLER_13_177
*1569 FILLER_13_189
*1570 FILLER_13_201
*1571 FILLER_13_214
*1572 FILLER_13_222
*1573 FILLER_13_225
*1574 FILLER_13_23
*1575 FILLER_13_237
*1576 FILLER_13_257
*1577 FILLER_13_265
*1578 FILLER_13_268
*1579 FILLER_13_281
*1580 FILLER_13_297
*1581 FILLER_13_3
*1582 FILLER_13_309
*1583 FILLER_13_321
*1584 FILLER_13_333
*1585 FILLER_13_335
*1586 FILLER_13_337
*1587 FILLER_13_349
*1588 FILLER_13_353
*1589 FILLER_13_37
*1590 FILLER_13_41
*1591 FILLER_13_57
*1592 FILLER_13_61
*1593 FILLER_13_68
*1594 FILLER_13_83
*1595 FILLER_13_87
*1596 FILLER_13_94
*1597 FILLER_14_13
*1598 FILLER_14_132
*1599 FILLER_14_141
*1600 FILLER_14_146
*1601 FILLER_14_160
*1602 FILLER_14_172
*1603 FILLER_14_184
*1604 FILLER_14_197
*1605 FILLER_14_212
*1606 FILLER_14_224
*1607 FILLER_14_226
*1608 FILLER_14_240
*1609 FILLER_14_253
*1610 FILLER_14_259
*1611 FILLER_14_266
*1612 FILLER_14_278
*1613 FILLER_14_286
*1614 FILLER_14_288
*1615 FILLER_14_29
*1616 FILLER_14_291
*1617 FILLER_14_303
*1618 FILLER_14_307
*1619 FILLER_14_309
*1620 FILLER_14_321
*1621 FILLER_14_333
*1622 FILLER_14_345
*1623 FILLER_14_349
*1624 FILLER_14_351
*1625 FILLER_14_365
*1626 FILLER_14_37
*1627 FILLER_14_54
*1628 FILLER_14_56
*1629 FILLER_14_76
*1630 FILLER_14_80
*1631 FILLER_14_9
*1632 FILLER_14_93
*1633 FILLER_15_107
*1634 FILLER_15_111
*1635 FILLER_15_113
*1636 FILLER_15_117
*1637 FILLER_15_119
*1638 FILLER_15_125
*1639 FILLER_15_132
*1640 FILLER_15_144
*1641 FILLER_15_165
*1642 FILLER_15_167
*1643 FILLER_15_169
*1644 FILLER_15_173
*1645 FILLER_15_175
*1646 FILLER_15_18
*1647 FILLER_15_185
*1648 FILLER_15_202
*1649 FILLER_15_22
*1650 FILLER_15_220
*1651 FILLER_15_225
*1652 FILLER_15_229
*1653 FILLER_15_239
*1654 FILLER_15_241
*1655 FILLER_15_250
*1656 FILLER_15_258
*1657 FILLER_15_269
*1658 FILLER_15_271
*1659 FILLER_15_28
*1660 FILLER_15_281
*1661 FILLER_15_285
*1662 FILLER_15_295
*1663 FILLER_15_321
*1664 FILLER_15_333
*1665 FILLER_15_335
*1666 FILLER_15_337
*1667 FILLER_15_345
*1668 FILLER_15_36
*1669 FILLER_15_38
*1670 FILLER_15_46
*1671 FILLER_15_54
*1672 FILLER_15_57
*1673 FILLER_15_6
*1674 FILLER_15_72
*1675 FILLER_15_80
*1676 FILLER_15_86
*1677 FILLER_15_94
*1678 FILLER_15_96
*1679 FILLER_16_110
*1680 FILLER_16_12
*1681 FILLER_16_122
*1682 FILLER_16_134
*1683 FILLER_16_138
*1684 FILLER_16_154
*1685 FILLER_16_165
*1686 FILLER_16_169
*1687 FILLER_16_17
*1688 FILLER_16_171
*1689 FILLER_16_195
*1690 FILLER_16_197
*1691 FILLER_16_201
*1692 FILLER_16_203
*1693 FILLER_16_223
*1694 FILLER_16_239
*1695 FILLER_16_241
*1696 FILLER_16_253
*1697 FILLER_16_257
*1698 FILLER_16_272
*1699 FILLER_16_276
*1700 FILLER_16_284
*1701 FILLER_16_286
*1702 FILLER_16_29
*1703 FILLER_16_296
*1704 FILLER_16_300
*1705 FILLER_16_306
*1706 FILLER_16_309
*1707 FILLER_16_321
*1708 FILLER_16_333
*1709 FILLER_16_345
*1710 FILLER_16_349
*1711 FILLER_16_351
*1712 FILLER_16_365
*1713 FILLER_16_41
*1714 FILLER_16_50
*1715 FILLER_16_64
*1716 FILLER_16_72
*1717 FILLER_16_81
*1718 FILLER_16_83
*1719 FILLER_16_98
*1720 FILLER_17_111
*1721 FILLER_17_113
*1722 FILLER_17_121
*1723 FILLER_17_123
*1724 FILLER_17_130
*1725 FILLER_17_142
*1726 FILLER_17_154
*1727 FILLER_17_156
*1728 FILLER_17_16
*1729 FILLER_17_160
*1730 FILLER_17_166
*1731 FILLER_17_169
*1732 FILLER_17_184
*1733 FILLER_17_195
*1734 FILLER_17_203
*1735 FILLER_17_205
*1736 FILLER_17_216
*1737 FILLER_17_225
*1738 FILLER_17_229
*1739 FILLER_17_231
*1740 FILLER_17_241
*1741 FILLER_17_271
*1742 FILLER_17_279
*1743 FILLER_17_294
*1744 FILLER_17_308
*1745 FILLER_17_320
*1746 FILLER_17_332
*1747 FILLER_17_337
*1748 FILLER_17_349
*1749 FILLER_17_50
*1750 FILLER_17_54
*1751 FILLER_17_70
*1752 FILLER_17_78
*1753 FILLER_17_84
*1754 FILLER_17_88
*1755 FILLER_17_90
*1756 FILLER_18_102
*1757 FILLER_18_135
*1758 FILLER_18_139
*1759 FILLER_18_162
*1760 FILLER_18_174
*1761 FILLER_18_186
*1762 FILLER_18_188
*1763 FILLER_18_194
*1764 FILLER_18_197
*1765 FILLER_18_201
*1766 FILLER_18_224
*1767 FILLER_18_242
*1768 FILLER_18_255
*1769 FILLER_18_27
*1770 FILLER_18_277
*1771 FILLER_18_285
*1772 FILLER_18_287
*1773 FILLER_18_293
*1774 FILLER_18_305
*1775 FILLER_18_307
*1776 FILLER_18_309
*1777 FILLER_18_321
*1778 FILLER_18_333
*1779 FILLER_18_34
*1780 FILLER_18_345
*1781 FILLER_18_347
*1782 FILLER_18_365
*1783 FILLER_18_38
*1784 FILLER_18_44
*1785 FILLER_18_48
*1786 FILLER_18_50
*1787 FILLER_18_64
*1788 FILLER_18_68
*1789 FILLER_18_8
*1790 FILLER_18_82
*1791 FILLER_18_85
*1792 FILLER_19_11
*1793 FILLER_19_113
*1794 FILLER_19_125
*1795 FILLER_19_137
*1796 FILLER_19_141
*1797 FILLER_19_166
*1798 FILLER_19_169
*1799 FILLER_19_17
*1800 FILLER_19_171
*1801 FILLER_19_181
*1802 FILLER_19_183
*1803 FILLER_19_199
*1804 FILLER_19_229
*1805 FILLER_19_242
*1806 FILLER_19_246
*1807 FILLER_19_248
*1808 FILLER_19_272
*1809 FILLER_19_278
*1810 FILLER_19_281
*1811 FILLER_19_285
*1812 FILLER_19_29
*1813 FILLER_19_293
*1814 FILLER_19_3
*1815 FILLER_19_31
*1816 FILLER_19_317
*1817 FILLER_19_329
*1818 FILLER_19_333
*1819 FILLER_19_335
*1820 FILLER_19_337
*1821 FILLER_19_345
*1822 FILLER_19_37
*1823 FILLER_19_49
*1824 FILLER_19_53
*1825 FILLER_19_55
*1826 FILLER_19_57
*1827 FILLER_19_69
*1828 FILLER_19_87
*1829 FILLER_19_99
*1830 FILLER_1_105
*1831 FILLER_1_109
*1832 FILLER_1_111
*1833 FILLER_1_113
*1834 FILLER_1_125
*1835 FILLER_1_137
*1836 FILLER_1_149
*1837 FILLER_1_15
*1838 FILLER_1_161
*1839 FILLER_1_165
*1840 FILLER_1_167
*1841 FILLER_1_169
*1842 FILLER_1_181
*1843 FILLER_1_193
*1844 FILLER_1_205
*1845 FILLER_1_217
*1846 FILLER_1_221
*1847 FILLER_1_223
*1848 FILLER_1_225
*1849 FILLER_1_237
*1850 FILLER_1_249
*1851 FILLER_1_261
*1852 FILLER_1_27
*1853 FILLER_1_273
*1854 FILLER_1_277
*1855 FILLER_1_279
*1856 FILLER_1_281
*1857 FILLER_1_293
*1858 FILLER_1_3
*1859 FILLER_1_305
*1860 FILLER_1_317
*1861 FILLER_1_329
*1862 FILLER_1_333
*1863 FILLER_1_335
*1864 FILLER_1_337
*1865 FILLER_1_349
*1866 FILLER_1_361
*1867 FILLER_1_39
*1868 FILLER_1_51
*1869 FILLER_1_55
*1870 FILLER_1_57
*1871 FILLER_1_69
*1872 FILLER_1_81
*1873 FILLER_1_93
*1874 FILLER_20_106
*1875 FILLER_20_108
*1876 FILLER_20_121
*1877 FILLER_20_133
*1878 FILLER_20_136
*1879 FILLER_20_141
*1880 FILLER_20_145
*1881 FILLER_20_147
*1882 FILLER_20_156
*1883 FILLER_20_164
*1884 FILLER_20_199
*1885 FILLER_20_20
*1886 FILLER_20_211
*1887 FILLER_20_223
*1888 FILLER_20_231
*1889 FILLER_20_240
*1890 FILLER_20_253
*1891 FILLER_20_268
*1892 FILLER_20_270
*1893 FILLER_20_277
*1894 FILLER_20_304
*1895 FILLER_20_309
*1896 FILLER_20_321
*1897 FILLER_20_333
*1898 FILLER_20_345
*1899 FILLER_20_347
*1900 FILLER_20_365
*1901 FILLER_20_42
*1902 FILLER_20_59
*1903 FILLER_20_67
*1904 FILLER_20_75
*1905 FILLER_20_8
*1906 FILLER_20_83
*1907 FILLER_20_85
*1908 FILLER_20_89
*1909 FILLER_20_98
*1910 FILLER_21_113
*1911 FILLER_21_115
*1912 FILLER_21_141
*1913 FILLER_21_153
*1914 FILLER_21_16
*1915 FILLER_21_165
*1916 FILLER_21_167
*1917 FILLER_21_169
*1918 FILLER_21_183
*1919 FILLER_21_185
*1920 FILLER_21_188
*1921 FILLER_21_20
*1922 FILLER_21_204
*1923 FILLER_21_208
*1924 FILLER_21_222
*1925 FILLER_21_225
*1926 FILLER_21_245
*1927 FILLER_21_257
*1928 FILLER_21_269
*1929 FILLER_21_273
*1930 FILLER_21_281
*1931 FILLER_21_285
*1932 FILLER_21_289
*1933 FILLER_21_301
*1934 FILLER_21_311
*1935 FILLER_21_323
*1936 FILLER_21_335
*1937 FILLER_21_337
*1938 FILLER_21_34
*1939 FILLER_21_345
*1940 FILLER_21_49
*1941 FILLER_21_53
*1942 FILLER_21_55
*1943 FILLER_21_57
*1944 FILLER_21_61
*1945 FILLER_21_67
*1946 FILLER_21_71
*1947 FILLER_21_73
*1948 FILLER_21_89
*1949 FILLER_21_93
*1950 FILLER_22_104
*1951 FILLER_22_108
*1952 FILLER_22_110
*1953 FILLER_22_131
*1954 FILLER_22_139
*1955 FILLER_22_141
*1956 FILLER_22_145
*1957 FILLER_22_159
*1958 FILLER_22_171
*1959 FILLER_22_175
*1960 FILLER_22_177
*1961 FILLER_22_185
*1962 FILLER_22_20
*1963 FILLER_22_22
*1964 FILLER_22_224
*1965 FILLER_22_236
*1966 FILLER_22_248
*1967 FILLER_22_253
*1968 FILLER_22_257
*1969 FILLER_22_271
*1970 FILLER_22_275
*1971 FILLER_22_282
*1972 FILLER_22_286
*1973 FILLER_22_29
*1974 FILLER_22_290
*1975 FILLER_22_3
*1976 FILLER_22_302
*1977 FILLER_22_306
*1978 FILLER_22_309
*1979 FILLER_22_321
*1980 FILLER_22_33
*1981 FILLER_22_333
*1982 FILLER_22_345
*1983 FILLER_22_349
*1984 FILLER_22_351
*1985 FILLER_22_365
*1986 FILLER_22_41
*1987 FILLER_22_45
*1988 FILLER_22_59
*1989 FILLER_22_61
*1990 FILLER_22_68
*1991 FILLER_22_82
*1992 FILLER_22_85
*1993 FILLER_22_89
*1994 FILLER_23_11
*1995 FILLER_23_111
*1996 FILLER_23_113
*1997 FILLER_23_125
*1998 FILLER_23_137
*1999 FILLER_23_145
*2000 FILLER_23_165
*2001 FILLER_23_167
*2002 FILLER_23_169
*2003 FILLER_23_17
*2004 FILLER_23_173
*2005 FILLER_23_183
*2006 FILLER_23_21
*2007 FILLER_23_213
*2008 FILLER_23_221
*2009 FILLER_23_223
*2010 FILLER_23_225
*2011 FILLER_23_229
*2012 FILLER_23_231
*2013 FILLER_23_25
*2014 FILLER_23_277
*2015 FILLER_23_279
*2016 FILLER_23_289
*2017 FILLER_23_295
*2018 FILLER_23_3
*2019 FILLER_23_319
*2020 FILLER_23_331
*2021 FILLER_23_335
*2022 FILLER_23_337
*2023 FILLER_23_345
*2024 FILLER_23_37
*2025 FILLER_23_45
*2026 FILLER_23_54
*2027 FILLER_23_57
*2028 FILLER_23_59
*2029 FILLER_23_73
*2030 FILLER_23_85
*2031 FILLER_23_89
*2032 FILLER_23_91
*2033 FILLER_23_99
*2034 FILLER_24_121
*2035 FILLER_24_129
*2036 FILLER_24_136
*2037 FILLER_24_141
*2038 FILLER_24_145
*2039 FILLER_24_157
*2040 FILLER_24_193
*2041 FILLER_24_209
*2042 FILLER_24_218
*2043 FILLER_24_222
*2044 FILLER_24_228
*2045 FILLER_24_240
*2046 FILLER_24_248
*2047 FILLER_24_264
*2048 FILLER_24_281
*2049 FILLER_24_285
*2050 FILLER_24_297
*2051 FILLER_24_305
*2052 FILLER_24_307
*2053 FILLER_24_317
*2054 FILLER_24_329
*2055 FILLER_24_341
*2056 FILLER_24_345
*2057 FILLER_24_347
*2058 FILLER_24_36
*2059 FILLER_24_365
*2060 FILLER_24_48
*2061 FILLER_24_60
*2062 FILLER_24_64
*2063 FILLER_24_67
*2064 FILLER_24_75
*2065 FILLER_24_93
*2066 FILLER_24_97
*2067 FILLER_25_109
*2068 FILLER_25_111
*2069 FILLER_25_113
*2070 FILLER_25_130
*2071 FILLER_25_134
*2072 FILLER_25_136
*2073 FILLER_25_155
*2074 FILLER_25_167
*2075 FILLER_25_169
*2076 FILLER_25_17
*2077 FILLER_25_181
*2078 FILLER_25_188
*2079 FILLER_25_206
*2080 FILLER_25_210
*2081 FILLER_25_233
*2082 FILLER_25_254
*2083 FILLER_25_276
*2084 FILLER_25_281
*2085 FILLER_25_293
*2086 FILLER_25_297
*2087 FILLER_25_3
*2088 FILLER_25_325
*2089 FILLER_25_333
*2090 FILLER_25_335
*2091 FILLER_25_337
*2092 FILLER_25_345
*2093 FILLER_25_47
*2094 FILLER_25_57
*2095 FILLER_25_93
*2096 FILLER_25_95
*2097 FILLER_26_104
*2098 FILLER_26_112
*2099 FILLER_26_134
*2100 FILLER_26_138
*2101 FILLER_26_141
*2102 FILLER_26_162
*2103 FILLER_26_197
*2104 FILLER_26_209
*2105 FILLER_26_223
*2106 FILLER_26_251
*2107 FILLER_26_253
*2108 FILLER_26_269
*2109 FILLER_26_27
*2110 FILLER_26_285
*2111 FILLER_26_289
*2112 FILLER_26_291
*2113 FILLER_26_3
*2114 FILLER_26_300
*2115 FILLER_26_317
*2116 FILLER_26_329
*2117 FILLER_26_34
*2118 FILLER_26_341
*2119 FILLER_26_345
*2120 FILLER_26_347
*2121 FILLER_26_64
*2122 FILLER_26_7
*2123 FILLER_26_76
*2124 FILLER_26_80
*2125 FILLER_26_92
*2126 FILLER_27_102
*2127 FILLER_27_110
*2128 FILLER_27_113
*2129 FILLER_27_117
*2130 FILLER_27_123
*2131 FILLER_27_135
*2132 FILLER_27_147
*2133 FILLER_27_159
*2134 FILLER_27_167
*2135 FILLER_27_169
*2136 FILLER_27_171
*2137 FILLER_27_192
*2138 FILLER_27_201
*2139 FILLER_27_213
*2140 FILLER_27_219
*2141 FILLER_27_22
*2142 FILLER_27_223
*2143 FILLER_27_225
*2144 FILLER_27_231
*2145 FILLER_27_233
*2146 FILLER_27_242
*2147 FILLER_27_250
*2148 FILLER_27_252
*2149 FILLER_27_266
*2150 FILLER_27_276
*2151 FILLER_27_297
*2152 FILLER_27_321
*2153 FILLER_27_333
*2154 FILLER_27_335
*2155 FILLER_27_337
*2156 FILLER_27_34
*2157 FILLER_27_345
*2158 FILLER_27_46
*2159 FILLER_27_54
*2160 FILLER_27_57
*2161 FILLER_27_68
*2162 FILLER_27_76
*2163 FILLER_27_85
*2164 FILLER_27_93
*2165 FILLER_28_106
*2166 FILLER_28_128
*2167 FILLER_28_141
*2168 FILLER_28_160
*2169 FILLER_28_172
*2170 FILLER_28_184
*2171 FILLER_28_188
*2172 FILLER_28_197
*2173 FILLER_28_20
*2174 FILLER_28_207
*2175 FILLER_28_211
*2176 FILLER_28_219
*2177 FILLER_28_239
*2178 FILLER_28_251
*2179 FILLER_28_253
*2180 FILLER_28_265
*2181 FILLER_28_277
*2182 FILLER_28_285
*2183 FILLER_28_294
*2184 FILLER_28_298
*2185 FILLER_28_306
*2186 FILLER_28_31
*2187 FILLER_28_318
*2188 FILLER_28_330
*2189 FILLER_28_342
*2190 FILLER_28_350
*2191 FILLER_28_39
*2192 FILLER_28_52
*2193 FILLER_28_8
*2194 FILLER_28_85
*2195 FILLER_28_87
*2196 FILLER_29_100
*2197 FILLER_29_113
*2198 FILLER_29_134
*2199 FILLER_29_146
*2200 FILLER_29_159
*2201 FILLER_29_16
*2202 FILLER_29_167
*2203 FILLER_29_176
*2204 FILLER_29_180
*2205 FILLER_29_189
*2206 FILLER_29_201
*2207 FILLER_29_213
*2208 FILLER_29_221
*2209 FILLER_29_223
*2210 FILLER_29_225
*2211 FILLER_29_244
*2212 FILLER_29_25
*2213 FILLER_29_252
*2214 FILLER_29_262
*2215 FILLER_29_266
*2216 FILLER_29_278
*2217 FILLER_29_281
*2218 FILLER_29_29
*2219 FILLER_29_290
*2220 FILLER_29_294
*2221 FILLER_29_317
*2222 FILLER_29_329
*2223 FILLER_29_333
*2224 FILLER_29_337
*2225 FILLER_29_344
*2226 FILLER_29_346
*2227 FILLER_29_57
*2228 FILLER_29_65
*2229 FILLER_29_73
*2230 FILLER_29_87
*2231 FILLER_2_109
*2232 FILLER_2_121
*2233 FILLER_2_133
*2234 FILLER_2_137
*2235 FILLER_2_139
*2236 FILLER_2_141
*2237 FILLER_2_153
*2238 FILLER_2_165
*2239 FILLER_2_177
*2240 FILLER_2_18
*2241 FILLER_2_189
*2242 FILLER_2_193
*2243 FILLER_2_195
*2244 FILLER_2_197
*2245 FILLER_2_209
*2246 FILLER_2_221
*2247 FILLER_2_233
*2248 FILLER_2_245
*2249 FILLER_2_249
*2250 FILLER_2_251
*2251 FILLER_2_253
*2252 FILLER_2_26
*2253 FILLER_2_265
*2254 FILLER_2_277
*2255 FILLER_2_289
*2256 FILLER_2_29
*2257 FILLER_2_301
*2258 FILLER_2_305
*2259 FILLER_2_307
*2260 FILLER_2_309
*2261 FILLER_2_321
*2262 FILLER_2_333
*2263 FILLER_2_345
*2264 FILLER_2_357
*2265 FILLER_2_361
*2266 FILLER_2_363
*2267 FILLER_2_365
*2268 FILLER_2_41
*2269 FILLER_2_53
*2270 FILLER_2_6
*2271 FILLER_2_65
*2272 FILLER_2_77
*2273 FILLER_2_81
*2274 FILLER_2_83
*2275 FILLER_2_85
*2276 FILLER_2_97
*2277 FILLER_30_109
*2278 FILLER_30_120
*2279 FILLER_30_132
*2280 FILLER_30_164
*2281 FILLER_30_189
*2282 FILLER_30_193
*2283 FILLER_30_195
*2284 FILLER_30_197
*2285 FILLER_30_205
*2286 FILLER_30_225
*2287 FILLER_30_229
*2288 FILLER_30_253
*2289 FILLER_30_267
*2290 FILLER_30_269
*2291 FILLER_30_277
*2292 FILLER_30_3
*2293 FILLER_30_302
*2294 FILLER_30_306
*2295 FILLER_30_318
*2296 FILLER_30_326
*2297 FILLER_30_48
*2298 FILLER_30_60
*2299 FILLER_30_7
*2300 FILLER_30_72
*2301 FILLER_30_78
*2302 FILLER_30_82
*2303 FILLER_30_85
*2304 FILLER_30_9
*2305 FILLER_30_97
*2306 FILLER_31_109
*2307 FILLER_31_111
*2308 FILLER_31_113
*2309 FILLER_31_134
*2310 FILLER_31_146
*2311 FILLER_31_167
*2312 FILLER_31_171
*2313 FILLER_31_184
*2314 FILLER_31_207
*2315 FILLER_31_21
*2316 FILLER_31_216
*2317 FILLER_31_225
*2318 FILLER_31_229
*2319 FILLER_31_243
*2320 FILLER_31_255
*2321 FILLER_31_267
*2322 FILLER_31_271
*2323 FILLER_31_279
*2324 FILLER_31_281
*2325 FILLER_31_287
*2326 FILLER_31_29
*2327 FILLER_31_295
*2328 FILLER_31_3
*2329 FILLER_31_324
*2330 FILLER_31_337
*2331 FILLER_31_346
*2332 FILLER_31_362
*2333 FILLER_31_41
*2334 FILLER_31_53
*2335 FILLER_31_55
*2336 FILLER_31_62
*2337 FILLER_31_68
*2338 FILLER_31_7
*2339 FILLER_31_70
*2340 FILLER_31_84
*2341 FILLER_31_92
*2342 FILLER_32_110
*2343 FILLER_32_131
*2344 FILLER_32_139
*2345 FILLER_32_169
*2346 FILLER_32_177
*2347 FILLER_32_180
*2348 FILLER_32_192
*2349 FILLER_32_205
*2350 FILLER_32_217
*2351 FILLER_32_229
*2352 FILLER_32_23
*2353 FILLER_32_241
*2354 FILLER_32_251
*2355 FILLER_32_253
*2356 FILLER_32_265
*2357 FILLER_32_267
*2358 FILLER_32_27
*2359 FILLER_32_283
*2360 FILLER_32_29
*2361 FILLER_32_295
*2362 FILLER_32_299
*2363 FILLER_32_307
*2364 FILLER_32_309
*2365 FILLER_32_321
*2366 FILLER_32_325
*2367 FILLER_32_327
*2368 FILLER_32_340
*2369 FILLER_32_41
*2370 FILLER_32_45
*2371 FILLER_32_66
*2372 FILLER_32_74
*2373 FILLER_32_76
*2374 FILLER_32_82
*2375 FILLER_33_105
*2376 FILLER_33_109
*2377 FILLER_33_111
*2378 FILLER_33_113
*2379 FILLER_33_123
*2380 FILLER_33_135
*2381 FILLER_33_147
*2382 FILLER_33_151
*2383 FILLER_33_16
*2384 FILLER_33_186
*2385 FILLER_33_190
*2386 FILLER_33_202
*2387 FILLER_33_220
*2388 FILLER_33_225
*2389 FILLER_33_233
*2390 FILLER_33_289
*2391 FILLER_33_291
*2392 FILLER_33_3
*2393 FILLER_33_334
*2394 FILLER_33_355
*2395 FILLER_33_41
*2396 FILLER_33_45
*2397 FILLER_33_53
*2398 FILLER_33_55
*2399 FILLER_33_63
*2400 FILLER_33_67
*2401 FILLER_33_7
*2402 FILLER_33_77
*2403 FILLER_33_94
*2404 FILLER_33_98
*2405 FILLER_34_105
*2406 FILLER_34_117
*2407 FILLER_34_125
*2408 FILLER_34_136
*2409 FILLER_34_15
*2410 FILLER_34_154
*2411 FILLER_34_156
*2412 FILLER_34_162
*2413 FILLER_34_166
*2414 FILLER_34_168
*2415 FILLER_34_178
*2416 FILLER_34_182
*2417 FILLER_34_19
*2418 FILLER_34_197
*2419 FILLER_34_209
*2420 FILLER_34_21
*2421 FILLER_34_228
*2422 FILLER_34_232
*2423 FILLER_34_234
*2424 FILLER_34_242
*2425 FILLER_34_250
*2426 FILLER_34_253
*2427 FILLER_34_257
*2428 FILLER_34_27
*2429 FILLER_34_283
*2430 FILLER_34_29
*2431 FILLER_34_3
*2432 FILLER_34_300
*2433 FILLER_34_309
*2434 FILLER_34_313
*2435 FILLER_34_321
*2436 FILLER_34_342
*2437 FILLER_34_35
*2438 FILLER_34_39
*2439 FILLER_34_54
*2440 FILLER_34_66
*2441 FILLER_34_78
*2442 FILLER_34_82
*2443 FILLER_34_85
*2444 FILLER_34_97
*2445 FILLER_35_113
*2446 FILLER_35_121
*2447 FILLER_35_123
*2448 FILLER_35_144
*2449 FILLER_35_156
*2450 FILLER_35_169
*2451 FILLER_35_177
*2452 FILLER_35_181
*2453 FILLER_35_193
*2454 FILLER_35_197
*2455 FILLER_35_204
*2456 FILLER_35_206
*2457 FILLER_35_218
*2458 FILLER_35_234
*2459 FILLER_35_242
*2460 FILLER_35_245
*2461 FILLER_35_257
*2462 FILLER_35_261
*2463 FILLER_35_269
*2464 FILLER_35_275
*2465 FILLER_35_279
*2466 FILLER_35_281
*2467 FILLER_35_289
*2468 FILLER_35_291
*2469 FILLER_35_299
*2470 FILLER_35_31
*2471 FILLER_35_311
*2472 FILLER_35_315
*2473 FILLER_35_324
*2474 FILLER_35_334
*2475 FILLER_35_343
*2476 FILLER_35_39
*2477 FILLER_35_50
*2478 FILLER_35_54
*2479 FILLER_35_57
*2480 FILLER_35_65
*2481 FILLER_35_77
*2482 FILLER_35_84
*2483 FILLER_35_96
*2484 FILLER_35_98
*2485 FILLER_36_103
*2486 FILLER_36_123
*2487 FILLER_36_127
*2488 FILLER_36_136
*2489 FILLER_36_141
*2490 FILLER_36_149
*2491 FILLER_36_163
*2492 FILLER_36_167
*2493 FILLER_36_170
*2494 FILLER_36_187
*2495 FILLER_36_197
*2496 FILLER_36_199
*2497 FILLER_36_238
*2498 FILLER_36_25
*2499 FILLER_36_260
*2500 FILLER_36_27
*2501 FILLER_36_282
*2502 FILLER_36_29
*2503 FILLER_36_294
*2504 FILLER_36_298
*2505 FILLER_36_3
*2506 FILLER_36_309
*2507 FILLER_36_321
*2508 FILLER_36_325
*2509 FILLER_36_327
*2510 FILLER_36_336
*2511 FILLER_36_348
*2512 FILLER_36_365
*2513 FILLER_36_38
*2514 FILLER_36_46
*2515 FILLER_36_48
*2516 FILLER_36_64
*2517 FILLER_36_68
*2518 FILLER_36_70
*2519 FILLER_36_85
*2520 FILLER_36_93
*2521 FILLER_37_100
*2522 FILLER_37_113
*2523 FILLER_37_125
*2524 FILLER_37_137
*2525 FILLER_37_145
*2526 FILLER_37_169
*2527 FILLER_37_19
*2528 FILLER_37_193
*2529 FILLER_37_195
*2530 FILLER_37_204
*2531 FILLER_37_206
*2532 FILLER_37_21
*2533 FILLER_37_217
*2534 FILLER_37_229
*2535 FILLER_37_233
*2536 FILLER_37_262
*2537 FILLER_37_270
*2538 FILLER_37_272
*2539 FILLER_37_316
*2540 FILLER_37_328
*2541 FILLER_37_337
*2542 FILLER_37_345
*2543 FILLER_37_347
*2544 FILLER_37_35
*2545 FILLER_37_362
*2546 FILLER_37_364
*2547 FILLER_37_373
*2548 FILLER_37_57
*2549 FILLER_37_61
*2550 FILLER_37_63
*2551 FILLER_37_7
*2552 FILLER_37_71
*2553 FILLER_37_84
*2554 FILLER_37_92
*2555 FILLER_37_94
*2556 FILLER_38_113
*2557 FILLER_38_125
*2558 FILLER_38_13
*2559 FILLER_38_136
*2560 FILLER_38_146
*2561 FILLER_38_161
*2562 FILLER_38_173
*2563 FILLER_38_182
*2564 FILLER_38_187
*2565 FILLER_38_195
*2566 FILLER_38_197
*2567 FILLER_38_209
*2568 FILLER_38_238
*2569 FILLER_38_25
*2570 FILLER_38_253
*2571 FILLER_38_27
*2572 FILLER_38_284
*2573 FILLER_38_29
*2574 FILLER_38_292
*2575 FILLER_38_304
*2576 FILLER_38_309
*2577 FILLER_38_311
*2578 FILLER_38_318
*2579 FILLER_38_326
*2580 FILLER_38_328
*2581 FILLER_38_335
*2582 FILLER_38_343
*2583 FILLER_38_345
*2584 FILLER_38_360
*2585 FILLER_38_365
*2586 FILLER_38_40
*2587 FILLER_38_48
*2588 FILLER_38_5
*2589 FILLER_38_50
*2590 FILLER_38_76
*2591 FILLER_38_85
*2592 FILLER_38_9
*2593 FILLER_38_93
*2594 FILLER_39_108
*2595 FILLER_39_121
*2596 FILLER_39_125
*2597 FILLER_39_127
*2598 FILLER_39_143
*2599 FILLER_39_154
*2600 FILLER_39_164
*2601 FILLER_39_169
*2602 FILLER_39_171
*2603 FILLER_39_178
*2604 FILLER_39_190
*2605 FILLER_39_198
*2606 FILLER_39_208
*2607 FILLER_39_221
*2608 FILLER_39_223
*2609 FILLER_39_233
*2610 FILLER_39_235
*2611 FILLER_39_259
*2612 FILLER_39_26
*2613 FILLER_39_263
*2614 FILLER_39_277
*2615 FILLER_39_279
*2616 FILLER_39_281
*2617 FILLER_39_293
*2618 FILLER_39_3
*2619 FILLER_39_302
*2620 FILLER_39_314
*2621 FILLER_39_326
*2622 FILLER_39_328
*2623 FILLER_39_335
*2624 FILLER_39_337
*2625 FILLER_39_339
*2626 FILLER_39_34
*2627 FILLER_39_38
*2628 FILLER_39_45
*2629 FILLER_39_53
*2630 FILLER_39_55
*2631 FILLER_39_57
*2632 FILLER_39_69
*2633 FILLER_39_73
*2634 FILLER_39_75
*2635 FILLER_39_87
*2636 FILLER_39_96
*2637 FILLER_3_105
*2638 FILLER_3_109
*2639 FILLER_3_111
*2640 FILLER_3_113
*2641 FILLER_3_125
*2642 FILLER_3_137
*2643 FILLER_3_149
*2644 FILLER_3_15
*2645 FILLER_3_161
*2646 FILLER_3_165
*2647 FILLER_3_167
*2648 FILLER_3_169
*2649 FILLER_3_181
*2650 FILLER_3_193
*2651 FILLER_3_205
*2652 FILLER_3_217
*2653 FILLER_3_221
*2654 FILLER_3_223
*2655 FILLER_3_225
*2656 FILLER_3_237
*2657 FILLER_3_249
*2658 FILLER_3_261
*2659 FILLER_3_27
*2660 FILLER_3_273
*2661 FILLER_3_277
*2662 FILLER_3_279
*2663 FILLER_3_281
*2664 FILLER_3_293
*2665 FILLER_3_3
*2666 FILLER_3_305
*2667 FILLER_3_317
*2668 FILLER_3_329
*2669 FILLER_3_333
*2670 FILLER_3_335
*2671 FILLER_3_337
*2672 FILLER_3_349
*2673 FILLER_3_361
*2674 FILLER_3_369
*2675 FILLER_3_371
*2676 FILLER_3_39
*2677 FILLER_3_51
*2678 FILLER_3_55
*2679 FILLER_3_57
*2680 FILLER_3_69
*2681 FILLER_3_81
*2682 FILLER_3_93
*2683 FILLER_40_107
*2684 FILLER_40_118
*2685 FILLER_40_126
*2686 FILLER_40_128
*2687 FILLER_40_136
*2688 FILLER_40_141
*2689 FILLER_40_149
*2690 FILLER_40_155
*2691 FILLER_40_159
*2692 FILLER_40_18
*2693 FILLER_40_183
*2694 FILLER_40_195
*2695 FILLER_40_218
*2696 FILLER_40_26
*2697 FILLER_40_262
*2698 FILLER_40_276
*2699 FILLER_40_280
*2700 FILLER_40_29
*2701 FILLER_40_307
*2702 FILLER_40_309
*2703 FILLER_40_323
*2704 FILLER_40_33
*2705 FILLER_40_332
*2706 FILLER_40_336
*2707 FILLER_40_338
*2708 FILLER_40_349
*2709 FILLER_40_35
*2710 FILLER_40_365
*2711 FILLER_40_55
*2712 FILLER_40_67
*2713 FILLER_40_81
*2714 FILLER_40_83
*2715 FILLER_40_85
*2716 FILLER_40_89
*2717 FILLER_40_95
*2718 FILLER_41_102
*2719 FILLER_41_111
*2720 FILLER_41_113
*2721 FILLER_41_117
*2722 FILLER_41_126
*2723 FILLER_41_134
*2724 FILLER_41_142
*2725 FILLER_41_146
*2726 FILLER_41_152
*2727 FILLER_41_164
*2728 FILLER_41_169
*2729 FILLER_41_17
*2730 FILLER_41_178
*2731 FILLER_41_187
*2732 FILLER_41_213
*2733 FILLER_41_221
*2734 FILLER_41_223
*2735 FILLER_41_230
*2736 FILLER_41_234
*2737 FILLER_41_236
*2738 FILLER_41_247
*2739 FILLER_41_251
*2740 FILLER_41_253
*2741 FILLER_41_259
*2742 FILLER_41_261
*2743 FILLER_41_272
*2744 FILLER_41_281
*2745 FILLER_41_29
*2746 FILLER_41_293
*2747 FILLER_41_3
*2748 FILLER_41_314
*2749 FILLER_41_323
*2750 FILLER_41_325
*2751 FILLER_41_337
*2752 FILLER_41_349
*2753 FILLER_41_42
*2754 FILLER_41_54
*2755 FILLER_41_57
*2756 FILLER_41_69
*2757 FILLER_41_7
*2758 FILLER_41_78
*2759 FILLER_41_86
*2760 FILLER_41_94
*2761 FILLER_42_105
*2762 FILLER_42_121
*2763 FILLER_42_123
*2764 FILLER_42_141
*2765 FILLER_42_15
*2766 FILLER_42_153
*2767 FILLER_42_161
*2768 FILLER_42_169
*2769 FILLER_42_180
*2770 FILLER_42_192
*2771 FILLER_42_197
*2772 FILLER_42_201
*2773 FILLER_42_205
*2774 FILLER_42_209
*2775 FILLER_42_211
*2776 FILLER_42_217
*2777 FILLER_42_229
*2778 FILLER_42_237
*2779 FILLER_42_239
*2780 FILLER_42_249
*2781 FILLER_42_251
*2782 FILLER_42_253
*2783 FILLER_42_261
*2784 FILLER_42_263
*2785 FILLER_42_271
*2786 FILLER_42_283
*2787 FILLER_42_285
*2788 FILLER_42_29
*2789 FILLER_42_296
*2790 FILLER_42_3
*2791 FILLER_42_309
*2792 FILLER_42_321
*2793 FILLER_42_329
*2794 FILLER_42_335
*2795 FILLER_42_337
*2796 FILLER_42_373
*2797 FILLER_42_43
*2798 FILLER_42_55
*2799 FILLER_42_72
*2800 FILLER_42_85
*2801 FILLER_42_93
*2802 FILLER_43_103
*2803 FILLER_43_113
*2804 FILLER_43_121
*2805 FILLER_43_133
*2806 FILLER_43_145
*2807 FILLER_43_147
*2808 FILLER_43_171
*2809 FILLER_43_183
*2810 FILLER_43_195
*2811 FILLER_43_203
*2812 FILLER_43_225
*2813 FILLER_43_246
*2814 FILLER_43_258
*2815 FILLER_43_260
*2816 FILLER_43_266
*2817 FILLER_43_272
*2818 FILLER_43_299
*2819 FILLER_43_3
*2820 FILLER_43_303
*2821 FILLER_43_305
*2822 FILLER_43_313
*2823 FILLER_43_321
*2824 FILLER_43_34
*2825 FILLER_43_345
*2826 FILLER_43_357
*2827 FILLER_43_46
*2828 FILLER_43_48
*2829 FILLER_43_5
*2830 FILLER_43_70
*2831 FILLER_43_95
*2832 FILLER_44_104
*2833 FILLER_44_116
*2834 FILLER_44_138
*2835 FILLER_44_141
*2836 FILLER_44_15
*2837 FILLER_44_153
*2838 FILLER_44_182
*2839 FILLER_44_197
*2840 FILLER_44_217
*2841 FILLER_44_253
*2842 FILLER_44_257
*2843 FILLER_44_3
*2844 FILLER_44_309
*2845 FILLER_44_31
*2846 FILLER_44_321
*2847 FILLER_44_347
*2848 FILLER_44_35
*2849 FILLER_44_365
*2850 FILLER_44_43
*2851 FILLER_44_64
*2852 FILLER_44_72
*2853 FILLER_44_74
*2854 FILLER_44_80
*2855 FILLER_44_85
*2856 FILLER_44_89
*2857 FILLER_45_101
*2858 FILLER_45_109
*2859 FILLER_45_111
*2860 FILLER_45_113
*2861 FILLER_45_117
*2862 FILLER_45_119
*2863 FILLER_45_128
*2864 FILLER_45_15
*2865 FILLER_45_155
*2866 FILLER_45_167
*2867 FILLER_45_169
*2868 FILLER_45_173
*2869 FILLER_45_175
*2870 FILLER_45_201
*2871 FILLER_45_205
*2872 FILLER_45_212
*2873 FILLER_45_225
*2874 FILLER_45_23
*2875 FILLER_45_237
*2876 FILLER_45_249
*2877 FILLER_45_25
*2878 FILLER_45_251
*2879 FILLER_45_273
*2880 FILLER_45_277
*2881 FILLER_45_279
*2882 FILLER_45_281
*2883 FILLER_45_293
*2884 FILLER_45_3
*2885 FILLER_45_301
*2886 FILLER_45_325
*2887 FILLER_45_329
*2888 FILLER_45_345
*2889 FILLER_45_40
*2890 FILLER_45_44
*2891 FILLER_45_46
*2892 FILLER_45_52
*2893 FILLER_45_57
*2894 FILLER_45_65
*2895 FILLER_45_67
*2896 FILLER_45_80
*2897 FILLER_45_86
*2898 FILLER_45_94
*2899 FILLER_46_108
*2900 FILLER_46_126
*2901 FILLER_46_138
*2902 FILLER_46_15
*2903 FILLER_46_151
*2904 FILLER_46_163
*2905 FILLER_46_175
*2906 FILLER_46_187
*2907 FILLER_46_19
*2908 FILLER_46_195
*2909 FILLER_46_203
*2910 FILLER_46_215
*2911 FILLER_46_225
*2912 FILLER_46_233
*2913 FILLER_46_235
*2914 FILLER_46_241
*2915 FILLER_46_249
*2916 FILLER_46_251
*2917 FILLER_46_266
*2918 FILLER_46_278
*2919 FILLER_46_282
*2920 FILLER_46_284
*2921 FILLER_46_3
*2922 FILLER_46_330
*2923 FILLER_46_332
*2924 FILLER_46_343
*2925 FILLER_46_345
*2926 FILLER_46_360
*2927 FILLER_46_365
*2928 FILLER_46_42
*2929 FILLER_46_46
*2930 FILLER_46_72
*2931 FILLER_46_82
*2932 FILLER_46_85
*2933 FILLER_46_87
*2934 FILLER_47_106
*2935 FILLER_47_110
*2936 FILLER_47_113
*2937 FILLER_47_115
*2938 FILLER_47_129
*2939 FILLER_47_131
*2940 FILLER_47_150
*2941 FILLER_47_162
*2942 FILLER_47_166
*2943 FILLER_47_169
*2944 FILLER_47_17
*2945 FILLER_47_181
*2946 FILLER_47_188
*2947 FILLER_47_192
*2948 FILLER_47_200
*2949 FILLER_47_223
*2950 FILLER_47_243
*2951 FILLER_47_25
*2952 FILLER_47_255
*2953 FILLER_47_267
*2954 FILLER_47_279
*2955 FILLER_47_281
*2956 FILLER_47_29
*2957 FILLER_47_293
*2958 FILLER_47_305
*2959 FILLER_47_31
*2960 FILLER_47_317
*2961 FILLER_47_329
*2962 FILLER_47_333
*2963 FILLER_47_335
*2964 FILLER_47_337
*2965 FILLER_47_339
*2966 FILLER_47_39
*2967 FILLER_47_5
*2968 FILLER_47_70
*2969 FILLER_47_82
*2970 FILLER_47_94
*2971 FILLER_48_105
*2972 FILLER_48_112
*2973 FILLER_48_116
*2974 FILLER_48_118
*2975 FILLER_48_122
*2976 FILLER_48_134
*2977 FILLER_48_138
*2978 FILLER_48_141
*2979 FILLER_48_148
*2980 FILLER_48_160
*2981 FILLER_48_172
*2982 FILLER_48_184
*2983 FILLER_48_197
*2984 FILLER_48_209
*2985 FILLER_48_21
*2986 FILLER_48_213
*2987 FILLER_48_222
*2988 FILLER_48_234
*2989 FILLER_48_246
*2990 FILLER_48_250
*2991 FILLER_48_253
*2992 FILLER_48_265
*2993 FILLER_48_277
*2994 FILLER_48_289
*2995 FILLER_48_301
*2996 FILLER_48_305
*2997 FILLER_48_307
*2998 FILLER_48_309
*2999 FILLER_48_31
*3000 FILLER_48_321
*3001 FILLER_48_333
*3002 FILLER_48_365
*3003 FILLER_48_41
*3004 FILLER_48_53
*3005 FILLER_48_57
*3006 FILLER_48_65
*3007 FILLER_48_68
*3008 FILLER_48_80
*3009 FILLER_48_85
*3010 FILLER_48_89
*3011 FILLER_48_9
*3012 FILLER_48_97
*3013 FILLER_49_111
*3014 FILLER_49_113
*3015 FILLER_49_125
*3016 FILLER_49_137
*3017 FILLER_49_149
*3018 FILLER_49_16
*3019 FILLER_49_161
*3020 FILLER_49_165
*3021 FILLER_49_167
*3022 FILLER_49_169
*3023 FILLER_49_181
*3024 FILLER_49_193
*3025 FILLER_49_205
*3026 FILLER_49_217
*3027 FILLER_49_221
*3028 FILLER_49_223
*3029 FILLER_49_225
*3030 FILLER_49_237
*3031 FILLER_49_24
*3032 FILLER_49_249
*3033 FILLER_49_261
*3034 FILLER_49_273
*3035 FILLER_49_277
*3036 FILLER_49_279
*3037 FILLER_49_281
*3038 FILLER_49_293
*3039 FILLER_49_305
*3040 FILLER_49_317
*3041 FILLER_49_329
*3042 FILLER_49_333
*3043 FILLER_49_335
*3044 FILLER_49_337
*3045 FILLER_49_345
*3046 FILLER_49_42
*3047 FILLER_49_46
*3048 FILLER_49_62
*3049 FILLER_49_75
*3050 FILLER_49_93
*3051 FILLER_4_109
*3052 FILLER_4_121
*3053 FILLER_4_133
*3054 FILLER_4_137
*3055 FILLER_4_139
*3056 FILLER_4_141
*3057 FILLER_4_153
*3058 FILLER_4_165
*3059 FILLER_4_177
*3060 FILLER_4_18
*3061 FILLER_4_189
*3062 FILLER_4_193
*3063 FILLER_4_195
*3064 FILLER_4_197
*3065 FILLER_4_209
*3066 FILLER_4_221
*3067 FILLER_4_233
*3068 FILLER_4_245
*3069 FILLER_4_249
*3070 FILLER_4_251
*3071 FILLER_4_253
*3072 FILLER_4_26
*3073 FILLER_4_265
*3074 FILLER_4_277
*3075 FILLER_4_289
*3076 FILLER_4_29
*3077 FILLER_4_301
*3078 FILLER_4_305
*3079 FILLER_4_307
*3080 FILLER_4_309
*3081 FILLER_4_321
*3082 FILLER_4_333
*3083 FILLER_4_345
*3084 FILLER_4_357
*3085 FILLER_4_361
*3086 FILLER_4_363
*3087 FILLER_4_365
*3088 FILLER_4_373
*3089 FILLER_4_41
*3090 FILLER_4_53
*3091 FILLER_4_6
*3092 FILLER_4_65
*3093 FILLER_4_77
*3094 FILLER_4_81
*3095 FILLER_4_83
*3096 FILLER_4_85
*3097 FILLER_4_97
*3098 FILLER_50_103
*3099 FILLER_50_115
*3100 FILLER_50_127
*3101 FILLER_50_13
*3102 FILLER_50_139
*3103 FILLER_50_141
*3104 FILLER_50_153
*3105 FILLER_50_165
*3106 FILLER_50_177
*3107 FILLER_50_189
*3108 FILLER_50_193
*3109 FILLER_50_195
*3110 FILLER_50_197
*3111 FILLER_50_209
*3112 FILLER_50_221
*3113 FILLER_50_233
*3114 FILLER_50_245
*3115 FILLER_50_249
*3116 FILLER_50_25
*3117 FILLER_50_251
*3118 FILLER_50_253
*3119 FILLER_50_265
*3120 FILLER_50_27
*3121 FILLER_50_277
*3122 FILLER_50_289
*3123 FILLER_50_29
*3124 FILLER_50_301
*3125 FILLER_50_305
*3126 FILLER_50_307
*3127 FILLER_50_309
*3128 FILLER_50_31
*3129 FILLER_50_321
*3130 FILLER_50_333
*3131 FILLER_50_345
*3132 FILLER_50_353
*3133 FILLER_50_355
*3134 FILLER_50_365
*3135 FILLER_50_49
*3136 FILLER_50_53
*3137 FILLER_50_68
*3138 FILLER_50_82
*3139 FILLER_50_92
*3140 FILLER_51_105
*3141 FILLER_51_109
*3142 FILLER_51_111
*3143 FILLER_51_113
*3144 FILLER_51_125
*3145 FILLER_51_137
*3146 FILLER_51_149
*3147 FILLER_51_161
*3148 FILLER_51_165
*3149 FILLER_51_167
*3150 FILLER_51_169
*3151 FILLER_51_181
*3152 FILLER_51_193
*3153 FILLER_51_205
*3154 FILLER_51_21
*3155 FILLER_51_217
*3156 FILLER_51_221
*3157 FILLER_51_223
*3158 FILLER_51_225
*3159 FILLER_51_237
*3160 FILLER_51_249
*3161 FILLER_51_261
*3162 FILLER_51_273
*3163 FILLER_51_277
*3164 FILLER_51_279
*3165 FILLER_51_281
*3166 FILLER_51_29
*3167 FILLER_51_293
*3168 FILLER_51_305
*3169 FILLER_51_31
*3170 FILLER_51_317
*3171 FILLER_51_329
*3172 FILLER_51_333
*3173 FILLER_51_335
*3174 FILLER_51_337
*3175 FILLER_51_349
*3176 FILLER_51_361
*3177 FILLER_51_44
*3178 FILLER_51_57
*3179 FILLER_51_65
*3180 FILLER_51_69
*3181 FILLER_51_81
*3182 FILLER_51_9
*3183 FILLER_51_93
*3184 FILLER_52_109
*3185 FILLER_52_121
*3186 FILLER_52_133
*3187 FILLER_52_137
*3188 FILLER_52_139
*3189 FILLER_52_141
*3190 FILLER_52_153
*3191 FILLER_52_165
*3192 FILLER_52_17
*3193 FILLER_52_177
*3194 FILLER_52_189
*3195 FILLER_52_193
*3196 FILLER_52_195
*3197 FILLER_52_197
*3198 FILLER_52_209
*3199 FILLER_52_221
*3200 FILLER_52_233
*3201 FILLER_52_245
*3202 FILLER_52_249
*3203 FILLER_52_25
*3204 FILLER_52_251
*3205 FILLER_52_253
*3206 FILLER_52_265
*3207 FILLER_52_27
*3208 FILLER_52_277
*3209 FILLER_52_289
*3210 FILLER_52_29
*3211 FILLER_52_301
*3212 FILLER_52_305
*3213 FILLER_52_307
*3214 FILLER_52_309
*3215 FILLER_52_321
*3216 FILLER_52_333
*3217 FILLER_52_345
*3218 FILLER_52_357
*3219 FILLER_52_361
*3220 FILLER_52_363
*3221 FILLER_52_365
*3222 FILLER_52_41
*3223 FILLER_52_5
*3224 FILLER_52_53
*3225 FILLER_52_65
*3226 FILLER_52_77
*3227 FILLER_52_81
*3228 FILLER_52_83
*3229 FILLER_52_85
*3230 FILLER_52_97
*3231 FILLER_53_105
*3232 FILLER_53_109
*3233 FILLER_53_111
*3234 FILLER_53_113
*3235 FILLER_53_125
*3236 FILLER_53_137
*3237 FILLER_53_149
*3238 FILLER_53_15
*3239 FILLER_53_161
*3240 FILLER_53_165
*3241 FILLER_53_167
*3242 FILLER_53_169
*3243 FILLER_53_181
*3244 FILLER_53_193
*3245 FILLER_53_205
*3246 FILLER_53_217
*3247 FILLER_53_221
*3248 FILLER_53_223
*3249 FILLER_53_225
*3250 FILLER_53_237
*3251 FILLER_53_249
*3252 FILLER_53_261
*3253 FILLER_53_27
*3254 FILLER_53_273
*3255 FILLER_53_277
*3256 FILLER_53_279
*3257 FILLER_53_281
*3258 FILLER_53_293
*3259 FILLER_53_3
*3260 FILLER_53_305
*3261 FILLER_53_317
*3262 FILLER_53_329
*3263 FILLER_53_333
*3264 FILLER_53_335
*3265 FILLER_53_337
*3266 FILLER_53_349
*3267 FILLER_53_361
*3268 FILLER_53_373
*3269 FILLER_53_39
*3270 FILLER_53_51
*3271 FILLER_53_55
*3272 FILLER_53_57
*3273 FILLER_53_69
*3274 FILLER_53_81
*3275 FILLER_53_93
*3276 FILLER_54_109
*3277 FILLER_54_121
*3278 FILLER_54_133
*3279 FILLER_54_137
*3280 FILLER_54_139
*3281 FILLER_54_141
*3282 FILLER_54_15
*3283 FILLER_54_153
*3284 FILLER_54_165
*3285 FILLER_54_177
*3286 FILLER_54_189
*3287 FILLER_54_193
*3288 FILLER_54_195
*3289 FILLER_54_197
*3290 FILLER_54_209
*3291 FILLER_54_221
*3292 FILLER_54_233
*3293 FILLER_54_245
*3294 FILLER_54_249
*3295 FILLER_54_251
*3296 FILLER_54_253
*3297 FILLER_54_265
*3298 FILLER_54_27
*3299 FILLER_54_277
*3300 FILLER_54_289
*3301 FILLER_54_29
*3302 FILLER_54_3
*3303 FILLER_54_301
*3304 FILLER_54_305
*3305 FILLER_54_307
*3306 FILLER_54_309
*3307 FILLER_54_321
*3308 FILLER_54_333
*3309 FILLER_54_345
*3310 FILLER_54_357
*3311 FILLER_54_361
*3312 FILLER_54_363
*3313 FILLER_54_365
*3314 FILLER_54_369
*3315 FILLER_54_371
*3316 FILLER_54_41
*3317 FILLER_54_53
*3318 FILLER_54_65
*3319 FILLER_54_77
*3320 FILLER_54_81
*3321 FILLER_54_83
*3322 FILLER_54_85
*3323 FILLER_54_97
*3324 FILLER_55_105
*3325 FILLER_55_109
*3326 FILLER_55_111
*3327 FILLER_55_113
*3328 FILLER_55_125
*3329 FILLER_55_137
*3330 FILLER_55_149
*3331 FILLER_55_15
*3332 FILLER_55_161
*3333 FILLER_55_165
*3334 FILLER_55_167
*3335 FILLER_55_169
*3336 FILLER_55_181
*3337 FILLER_55_193
*3338 FILLER_55_205
*3339 FILLER_55_217
*3340 FILLER_55_221
*3341 FILLER_55_223
*3342 FILLER_55_225
*3343 FILLER_55_237
*3344 FILLER_55_249
*3345 FILLER_55_261
*3346 FILLER_55_27
*3347 FILLER_55_273
*3348 FILLER_55_277
*3349 FILLER_55_279
*3350 FILLER_55_281
*3351 FILLER_55_293
*3352 FILLER_55_3
*3353 FILLER_55_305
*3354 FILLER_55_317
*3355 FILLER_55_329
*3356 FILLER_55_333
*3357 FILLER_55_335
*3358 FILLER_55_337
*3359 FILLER_55_349
*3360 FILLER_55_361
*3361 FILLER_55_373
*3362 FILLER_55_39
*3363 FILLER_55_51
*3364 FILLER_55_55
*3365 FILLER_55_57
*3366 FILLER_55_69
*3367 FILLER_55_81
*3368 FILLER_55_93
*3369 FILLER_56_109
*3370 FILLER_56_121
*3371 FILLER_56_133
*3372 FILLER_56_137
*3373 FILLER_56_139
*3374 FILLER_56_141
*3375 FILLER_56_15
*3376 FILLER_56_153
*3377 FILLER_56_165
*3378 FILLER_56_177
*3379 FILLER_56_189
*3380 FILLER_56_193
*3381 FILLER_56_195
*3382 FILLER_56_197
*3383 FILLER_56_209
*3384 FILLER_56_221
*3385 FILLER_56_233
*3386 FILLER_56_245
*3387 FILLER_56_249
*3388 FILLER_56_251
*3389 FILLER_56_253
*3390 FILLER_56_265
*3391 FILLER_56_27
*3392 FILLER_56_277
*3393 FILLER_56_289
*3394 FILLER_56_29
*3395 FILLER_56_3
*3396 FILLER_56_301
*3397 FILLER_56_305
*3398 FILLER_56_307
*3399 FILLER_56_309
*3400 FILLER_56_321
*3401 FILLER_56_333
*3402 FILLER_56_345
*3403 FILLER_56_357
*3404 FILLER_56_361
*3405 FILLER_56_363
*3406 FILLER_56_365
*3407 FILLER_56_373
*3408 FILLER_56_41
*3409 FILLER_56_53
*3410 FILLER_56_65
*3411 FILLER_56_77
*3412 FILLER_56_81
*3413 FILLER_56_83
*3414 FILLER_56_85
*3415 FILLER_56_97
*3416 FILLER_57_105
*3417 FILLER_57_109
*3418 FILLER_57_111
*3419 FILLER_57_113
*3420 FILLER_57_125
*3421 FILLER_57_137
*3422 FILLER_57_149
*3423 FILLER_57_15
*3424 FILLER_57_161
*3425 FILLER_57_165
*3426 FILLER_57_167
*3427 FILLER_57_169
*3428 FILLER_57_181
*3429 FILLER_57_193
*3430 FILLER_57_205
*3431 FILLER_57_217
*3432 FILLER_57_221
*3433 FILLER_57_223
*3434 FILLER_57_225
*3435 FILLER_57_237
*3436 FILLER_57_249
*3437 FILLER_57_261
*3438 FILLER_57_27
*3439 FILLER_57_273
*3440 FILLER_57_277
*3441 FILLER_57_279
*3442 FILLER_57_281
*3443 FILLER_57_293
*3444 FILLER_57_3
*3445 FILLER_57_305
*3446 FILLER_57_317
*3447 FILLER_57_329
*3448 FILLER_57_333
*3449 FILLER_57_335
*3450 FILLER_57_337
*3451 FILLER_57_349
*3452 FILLER_57_361
*3453 FILLER_57_39
*3454 FILLER_57_51
*3455 FILLER_57_55
*3456 FILLER_57_57
*3457 FILLER_57_69
*3458 FILLER_57_81
*3459 FILLER_57_93
*3460 FILLER_58_109
*3461 FILLER_58_121
*3462 FILLER_58_133
*3463 FILLER_58_137
*3464 FILLER_58_139
*3465 FILLER_58_141
*3466 FILLER_58_153
*3467 FILLER_58_165
*3468 FILLER_58_177
*3469 FILLER_58_18
*3470 FILLER_58_189
*3471 FILLER_58_193
*3472 FILLER_58_195
*3473 FILLER_58_197
*3474 FILLER_58_209
*3475 FILLER_58_221
*3476 FILLER_58_233
*3477 FILLER_58_245
*3478 FILLER_58_249
*3479 FILLER_58_251
*3480 FILLER_58_253
*3481 FILLER_58_26
*3482 FILLER_58_265
*3483 FILLER_58_277
*3484 FILLER_58_289
*3485 FILLER_58_29
*3486 FILLER_58_301
*3487 FILLER_58_305
*3488 FILLER_58_307
*3489 FILLER_58_309
*3490 FILLER_58_321
*3491 FILLER_58_333
*3492 FILLER_58_345
*3493 FILLER_58_357
*3494 FILLER_58_361
*3495 FILLER_58_363
*3496 FILLER_58_365
*3497 FILLER_58_41
*3498 FILLER_58_53
*3499 FILLER_58_6
*3500 FILLER_58_65
*3501 FILLER_58_77
*3502 FILLER_58_81
*3503 FILLER_58_83
*3504 FILLER_58_85
*3505 FILLER_58_97
*3506 FILLER_59_109
*3507 FILLER_59_111
*3508 FILLER_59_113
*3509 FILLER_59_125
*3510 FILLER_59_137
*3511 FILLER_59_139
*3512 FILLER_59_141
*3513 FILLER_59_15
*3514 FILLER_59_152
*3515 FILLER_59_156
*3516 FILLER_59_160
*3517 FILLER_59_169
*3518 FILLER_59_184
*3519 FILLER_59_197
*3520 FILLER_59_209
*3521 FILLER_59_214
*3522 FILLER_59_222
*3523 FILLER_59_225
*3524 FILLER_59_237
*3525 FILLER_59_249
*3526 FILLER_59_251
*3527 FILLER_59_253
*3528 FILLER_59_265
*3529 FILLER_59_27
*3530 FILLER_59_277
*3531 FILLER_59_279
*3532 FILLER_59_281
*3533 FILLER_59_288
*3534 FILLER_59_29
*3535 FILLER_59_292
*3536 FILLER_59_3
*3537 FILLER_59_304
*3538 FILLER_59_309
*3539 FILLER_59_324
*3540 FILLER_59_332
*3541 FILLER_59_337
*3542 FILLER_59_341
*3543 FILLER_59_349
*3544 FILLER_59_361
*3545 FILLER_59_363
*3546 FILLER_59_365
*3547 FILLER_59_373
*3548 FILLER_59_41
*3549 FILLER_59_53
*3550 FILLER_59_55
*3551 FILLER_59_57
*3552 FILLER_59_69
*3553 FILLER_59_81
*3554 FILLER_59_83
*3555 FILLER_59_85
*3556 FILLER_59_97
*3557 FILLER_5_105
*3558 FILLER_5_109
*3559 FILLER_5_111
*3560 FILLER_5_113
*3561 FILLER_5_125
*3562 FILLER_5_137
*3563 FILLER_5_149
*3564 FILLER_5_15
*3565 FILLER_5_161
*3566 FILLER_5_165
*3567 FILLER_5_167
*3568 FILLER_5_169
*3569 FILLER_5_181
*3570 FILLER_5_193
*3571 FILLER_5_205
*3572 FILLER_5_217
*3573 FILLER_5_221
*3574 FILLER_5_223
*3575 FILLER_5_225
*3576 FILLER_5_237
*3577 FILLER_5_249
*3578 FILLER_5_261
*3579 FILLER_5_27
*3580 FILLER_5_273
*3581 FILLER_5_277
*3582 FILLER_5_279
*3583 FILLER_5_281
*3584 FILLER_5_293
*3585 FILLER_5_3
*3586 FILLER_5_305
*3587 FILLER_5_317
*3588 FILLER_5_329
*3589 FILLER_5_333
*3590 FILLER_5_335
*3591 FILLER_5_337
*3592 FILLER_5_349
*3593 FILLER_5_361
*3594 FILLER_5_373
*3595 FILLER_5_39
*3596 FILLER_5_51
*3597 FILLER_5_55
*3598 FILLER_5_57
*3599 FILLER_5_69
*3600 FILLER_5_81
*3601 FILLER_5_93
*3602 FILLER_6_109
*3603 FILLER_6_121
*3604 FILLER_6_133
*3605 FILLER_6_137
*3606 FILLER_6_139
*3607 FILLER_6_141
*3608 FILLER_6_15
*3609 FILLER_6_153
*3610 FILLER_6_165
*3611 FILLER_6_177
*3612 FILLER_6_189
*3613 FILLER_6_193
*3614 FILLER_6_195
*3615 FILLER_6_197
*3616 FILLER_6_232
*3617 FILLER_6_244
*3618 FILLER_6_253
*3619 FILLER_6_265
*3620 FILLER_6_27
*3621 FILLER_6_277
*3622 FILLER_6_289
*3623 FILLER_6_29
*3624 FILLER_6_3
*3625 FILLER_6_301
*3626 FILLER_6_305
*3627 FILLER_6_307
*3628 FILLER_6_309
*3629 FILLER_6_321
*3630 FILLER_6_333
*3631 FILLER_6_345
*3632 FILLER_6_357
*3633 FILLER_6_361
*3634 FILLER_6_363
*3635 FILLER_6_365
*3636 FILLER_6_373
*3637 FILLER_6_41
*3638 FILLER_6_53
*3639 FILLER_6_65
*3640 FILLER_6_77
*3641 FILLER_6_81
*3642 FILLER_6_83
*3643 FILLER_6_85
*3644 FILLER_6_97
*3645 FILLER_7_105
*3646 FILLER_7_109
*3647 FILLER_7_111
*3648 FILLER_7_113
*3649 FILLER_7_125
*3650 FILLER_7_137
*3651 FILLER_7_149
*3652 FILLER_7_15
*3653 FILLER_7_161
*3654 FILLER_7_165
*3655 FILLER_7_167
*3656 FILLER_7_171
*3657 FILLER_7_183
*3658 FILLER_7_191
*3659 FILLER_7_197
*3660 FILLER_7_209
*3661 FILLER_7_221
*3662 FILLER_7_223
*3663 FILLER_7_225
*3664 FILLER_7_252
*3665 FILLER_7_264
*3666 FILLER_7_27
*3667 FILLER_7_276
*3668 FILLER_7_281
*3669 FILLER_7_293
*3670 FILLER_7_3
*3671 FILLER_7_305
*3672 FILLER_7_317
*3673 FILLER_7_329
*3674 FILLER_7_333
*3675 FILLER_7_335
*3676 FILLER_7_337
*3677 FILLER_7_349
*3678 FILLER_7_361
*3679 FILLER_7_373
*3680 FILLER_7_39
*3681 FILLER_7_51
*3682 FILLER_7_55
*3683 FILLER_7_57
*3684 FILLER_7_69
*3685 FILLER_7_81
*3686 FILLER_7_93
*3687 FILLER_8_109
*3688 FILLER_8_121
*3689 FILLER_8_133
*3690 FILLER_8_137
*3691 FILLER_8_139
*3692 FILLER_8_141
*3693 FILLER_8_15
*3694 FILLER_8_153
*3695 FILLER_8_169
*3696 FILLER_8_180
*3697 FILLER_8_184
*3698 FILLER_8_192
*3699 FILLER_8_202
*3700 FILLER_8_206
*3701 FILLER_8_211
*3702 FILLER_8_217
*3703 FILLER_8_219
*3704 FILLER_8_230
*3705 FILLER_8_261
*3706 FILLER_8_27
*3707 FILLER_8_273
*3708 FILLER_8_285
*3709 FILLER_8_29
*3710 FILLER_8_297
*3711 FILLER_8_3
*3712 FILLER_8_305
*3713 FILLER_8_307
*3714 FILLER_8_309
*3715 FILLER_8_321
*3716 FILLER_8_333
*3717 FILLER_8_345
*3718 FILLER_8_357
*3719 FILLER_8_361
*3720 FILLER_8_363
*3721 FILLER_8_365
*3722 FILLER_8_373
*3723 FILLER_8_41
*3724 FILLER_8_53
*3725 FILLER_8_65
*3726 FILLER_8_77
*3727 FILLER_8_81
*3728 FILLER_8_83
*3729 FILLER_8_85
*3730 FILLER_8_97
*3731 FILLER_9_105
*3732 FILLER_9_109
*3733 FILLER_9_111
*3734 FILLER_9_113
*3735 FILLER_9_125
*3736 FILLER_9_137
*3737 FILLER_9_141
*3738 FILLER_9_143
*3739 FILLER_9_15
*3740 FILLER_9_167
*3741 FILLER_9_169
*3742 FILLER_9_183
*3743 FILLER_9_192
*3744 FILLER_9_199
*3745 FILLER_9_219
*3746 FILLER_9_223
*3747 FILLER_9_233
*3748 FILLER_9_237
*3749 FILLER_9_264
*3750 FILLER_9_27
*3751 FILLER_9_272
*3752 FILLER_9_281
*3753 FILLER_9_293
*3754 FILLER_9_3
*3755 FILLER_9_305
*3756 FILLER_9_317
*3757 FILLER_9_329
*3758 FILLER_9_333
*3759 FILLER_9_335
*3760 FILLER_9_337
*3761 FILLER_9_349
*3762 FILLER_9_361
*3763 FILLER_9_373
*3764 FILLER_9_39
*3765 FILLER_9_51
*3766 FILLER_9_55
*3767 FILLER_9_57
*3768 FILLER_9_69
*3769 FILLER_9_81
*3770 FILLER_9_93
*3771 PHY_EDGE_ROW_0_Left_60
*3772 PHY_EDGE_ROW_0_Right_0
*3773 PHY_EDGE_ROW_10_Left_70
*3774 PHY_EDGE_ROW_10_Right_10
*3775 PHY_EDGE_ROW_11_Left_71
*3776 PHY_EDGE_ROW_11_Right_11
*3777 PHY_EDGE_ROW_12_Left_72
*3778 PHY_EDGE_ROW_12_Right_12
*3779 PHY_EDGE_ROW_13_Left_73
*3780 PHY_EDGE_ROW_13_Right_13
*3781 PHY_EDGE_ROW_14_Left_74
*3782 PHY_EDGE_ROW_14_Right_14
*3783 PHY_EDGE_ROW_15_Left_75
*3784 PHY_EDGE_ROW_15_Right_15
*3785 PHY_EDGE_ROW_16_Left_76
*3786 PHY_EDGE_ROW_16_Right_16
*3787 PHY_EDGE_ROW_17_Left_77
*3788 PHY_EDGE_ROW_17_Right_17
*3789 PHY_EDGE_ROW_18_Left_78
*3790 PHY_EDGE_ROW_18_Right_18
*3791 PHY_EDGE_ROW_19_Left_79
*3792 PHY_EDGE_ROW_19_Right_19
*3793 PHY_EDGE_ROW_1_Left_61
*3794 PHY_EDGE_ROW_1_Right_1
*3795 PHY_EDGE_ROW_20_Left_80
*3796 PHY_EDGE_ROW_20_Right_20
*3797 PHY_EDGE_ROW_21_Left_81
*3798 PHY_EDGE_ROW_21_Right_21
*3799 PHY_EDGE_ROW_22_Left_82
*3800 PHY_EDGE_ROW_22_Right_22
*3801 PHY_EDGE_ROW_23_Left_83
*3802 PHY_EDGE_ROW_23_Right_23
*3803 PHY_EDGE_ROW_24_Left_84
*3804 PHY_EDGE_ROW_24_Right_24
*3805 PHY_EDGE_ROW_25_Left_85
*3806 PHY_EDGE_ROW_25_Right_25
*3807 PHY_EDGE_ROW_26_Left_86
*3808 PHY_EDGE_ROW_26_Right_26
*3809 PHY_EDGE_ROW_27_Left_87
*3810 PHY_EDGE_ROW_27_Right_27
*3811 PHY_EDGE_ROW_28_Left_88
*3812 PHY_EDGE_ROW_28_Right_28
*3813 PHY_EDGE_ROW_29_Left_89
*3814 PHY_EDGE_ROW_29_Right_29
*3815 PHY_EDGE_ROW_2_Left_62
*3816 PHY_EDGE_ROW_2_Right_2
*3817 PHY_EDGE_ROW_30_Left_90
*3818 PHY_EDGE_ROW_30_Right_30
*3819 PHY_EDGE_ROW_31_Left_91
*3820 PHY_EDGE_ROW_31_Right_31
*3821 PHY_EDGE_ROW_32_Left_92
*3822 PHY_EDGE_ROW_32_Right_32
*3823 PHY_EDGE_ROW_33_Left_93
*3824 PHY_EDGE_ROW_33_Right_33
*3825 PHY_EDGE_ROW_34_Left_94
*3826 PHY_EDGE_ROW_34_Right_34
*3827 PHY_EDGE_ROW_35_Left_95
*3828 PHY_EDGE_ROW_35_Right_35
*3829 PHY_EDGE_ROW_36_Left_96
*3830 PHY_EDGE_ROW_36_Right_36
*3831 PHY_EDGE_ROW_37_Left_97
*3832 PHY_EDGE_ROW_37_Right_37
*3833 PHY_EDGE_ROW_38_Left_98
*3834 PHY_EDGE_ROW_38_Right_38
*3835 PHY_EDGE_ROW_39_Left_99
*3836 PHY_EDGE_ROW_39_Right_39
*3837 PHY_EDGE_ROW_3_Left_63
*3838 PHY_EDGE_ROW_3_Right_3
*3839 PHY_EDGE_ROW_40_Left_100
*3840 PHY_EDGE_ROW_40_Right_40
*3841 PHY_EDGE_ROW_41_Left_101
*3842 PHY_EDGE_ROW_41_Right_41
*3843 PHY_EDGE_ROW_42_Left_102
*3844 PHY_EDGE_ROW_42_Right_42
*3845 PHY_EDGE_ROW_43_Left_103
*3846 PHY_EDGE_ROW_43_Right_43
*3847 PHY_EDGE_ROW_44_Left_104
*3848 PHY_EDGE_ROW_44_Right_44
*3849 PHY_EDGE_ROW_45_Left_105
*3850 PHY_EDGE_ROW_45_Right_45
*3851 PHY_EDGE_ROW_46_Left_106
*3852 PHY_EDGE_ROW_46_Right_46
*3853 PHY_EDGE_ROW_47_Left_107
*3854 PHY_EDGE_ROW_47_Right_47
*3855 PHY_EDGE_ROW_48_Left_108
*3856 PHY_EDGE_ROW_48_Right_48
*3857 PHY_EDGE_ROW_49_Left_109
*3858 PHY_EDGE_ROW_49_Right_49
*3859 PHY_EDGE_ROW_4_Left_64
*3860 PHY_EDGE_ROW_4_Right_4
*3861 PHY_EDGE_ROW_50_Left_110
*3862 PHY_EDGE_ROW_50_Right_50
*3863 PHY_EDGE_ROW_51_Left_111
*3864 PHY_EDGE_ROW_51_Right_51
*3865 PHY_EDGE_ROW_52_Left_112
*3866 PHY_EDGE_ROW_52_Right_52
*3867 PHY_EDGE_ROW_53_Left_113
*3868 PHY_EDGE_ROW_53_Right_53
*3869 PHY_EDGE_ROW_54_Left_114
*3870 PHY_EDGE_ROW_54_Right_54
*3871 PHY_EDGE_ROW_55_Left_115
*3872 PHY_EDGE_ROW_55_Right_55
*3873 PHY_EDGE_ROW_56_Left_116
*3874 PHY_EDGE_ROW_56_Right_56
*3875 PHY_EDGE_ROW_57_Left_117
*3876 PHY_EDGE_ROW_57_Right_57
*3877 PHY_EDGE_ROW_58_Left_118
*3878 PHY_EDGE_ROW_58_Right_58
*3879 PHY_EDGE_ROW_59_Left_119
*3880 PHY_EDGE_ROW_59_Right_59
*3881 PHY_EDGE_ROW_5_Left_65
*3882 PHY_EDGE_ROW_5_Right_5
*3883 PHY_EDGE_ROW_6_Left_66
*3884 PHY_EDGE_ROW_6_Right_6
*3885 PHY_EDGE_ROW_7_Left_67
*3886 PHY_EDGE_ROW_7_Right_7
*3887 PHY_EDGE_ROW_8_Left_68
*3888 PHY_EDGE_ROW_8_Right_8
*3889 PHY_EDGE_ROW_9_Left_69
*3890 PHY_EDGE_ROW_9_Right_9
*3891 TAP_TAPCELL_ROW_0_120
*3892 TAP_TAPCELL_ROW_0_121
*3893 TAP_TAPCELL_ROW_0_122
*3894 TAP_TAPCELL_ROW_0_123
*3895 TAP_TAPCELL_ROW_0_124
*3896 TAP_TAPCELL_ROW_0_125
*3897 TAP_TAPCELL_ROW_0_126
*3898 TAP_TAPCELL_ROW_0_127
*3899 TAP_TAPCELL_ROW_0_128
*3900 TAP_TAPCELL_ROW_0_129
*3901 TAP_TAPCELL_ROW_0_130
*3902 TAP_TAPCELL_ROW_0_131
*3903 TAP_TAPCELL_ROW_0_132
*3904 TAP_TAPCELL_ROW_10_191
*3905 TAP_TAPCELL_ROW_10_192
*3906 TAP_TAPCELL_ROW_10_193
*3907 TAP_TAPCELL_ROW_10_194
*3908 TAP_TAPCELL_ROW_10_195
*3909 TAP_TAPCELL_ROW_10_196
*3910 TAP_TAPCELL_ROW_10_197
*3911 TAP_TAPCELL_ROW_11_198
*3912 TAP_TAPCELL_ROW_11_199
*3913 TAP_TAPCELL_ROW_11_200
*3914 TAP_TAPCELL_ROW_11_201
*3915 TAP_TAPCELL_ROW_11_202
*3916 TAP_TAPCELL_ROW_11_203
*3917 TAP_TAPCELL_ROW_12_204
*3918 TAP_TAPCELL_ROW_12_205
*3919 TAP_TAPCELL_ROW_12_206
*3920 TAP_TAPCELL_ROW_12_207
*3921 TAP_TAPCELL_ROW_12_208
*3922 TAP_TAPCELL_ROW_12_209
*3923 TAP_TAPCELL_ROW_12_210
*3924 TAP_TAPCELL_ROW_13_211
*3925 TAP_TAPCELL_ROW_13_212
*3926 TAP_TAPCELL_ROW_13_213
*3927 TAP_TAPCELL_ROW_13_214
*3928 TAP_TAPCELL_ROW_13_215
*3929 TAP_TAPCELL_ROW_13_216
*3930 TAP_TAPCELL_ROW_14_217
*3931 TAP_TAPCELL_ROW_14_218
*3932 TAP_TAPCELL_ROW_14_219
*3933 TAP_TAPCELL_ROW_14_220
*3934 TAP_TAPCELL_ROW_14_221
*3935 TAP_TAPCELL_ROW_14_222
*3936 TAP_TAPCELL_ROW_14_223
*3937 TAP_TAPCELL_ROW_15_224
*3938 TAP_TAPCELL_ROW_15_225
*3939 TAP_TAPCELL_ROW_15_226
*3940 TAP_TAPCELL_ROW_15_227
*3941 TAP_TAPCELL_ROW_15_228
*3942 TAP_TAPCELL_ROW_15_229
*3943 TAP_TAPCELL_ROW_16_230
*3944 TAP_TAPCELL_ROW_16_231
*3945 TAP_TAPCELL_ROW_16_232
*3946 TAP_TAPCELL_ROW_16_233
*3947 TAP_TAPCELL_ROW_16_234
*3948 TAP_TAPCELL_ROW_16_235
*3949 TAP_TAPCELL_ROW_16_236
*3950 TAP_TAPCELL_ROW_17_237
*3951 TAP_TAPCELL_ROW_17_238
*3952 TAP_TAPCELL_ROW_17_239
*3953 TAP_TAPCELL_ROW_17_240
*3954 TAP_TAPCELL_ROW_17_241
*3955 TAP_TAPCELL_ROW_17_242
*3956 TAP_TAPCELL_ROW_18_243
*3957 TAP_TAPCELL_ROW_18_244
*3958 TAP_TAPCELL_ROW_18_245
*3959 TAP_TAPCELL_ROW_18_246
*3960 TAP_TAPCELL_ROW_18_247
*3961 TAP_TAPCELL_ROW_18_248
*3962 TAP_TAPCELL_ROW_18_249
*3963 TAP_TAPCELL_ROW_19_250
*3964 TAP_TAPCELL_ROW_19_251
*3965 TAP_TAPCELL_ROW_19_252
*3966 TAP_TAPCELL_ROW_19_253
*3967 TAP_TAPCELL_ROW_19_254
*3968 TAP_TAPCELL_ROW_19_255
*3969 TAP_TAPCELL_ROW_1_133
*3970 TAP_TAPCELL_ROW_1_134
*3971 TAP_TAPCELL_ROW_1_135
*3972 TAP_TAPCELL_ROW_1_136
*3973 TAP_TAPCELL_ROW_1_137
*3974 TAP_TAPCELL_ROW_1_138
*3975 TAP_TAPCELL_ROW_20_256
*3976 TAP_TAPCELL_ROW_20_257
*3977 TAP_TAPCELL_ROW_20_258
*3978 TAP_TAPCELL_ROW_20_259
*3979 TAP_TAPCELL_ROW_20_260
*3980 TAP_TAPCELL_ROW_20_261
*3981 TAP_TAPCELL_ROW_20_262
*3982 TAP_TAPCELL_ROW_21_263
*3983 TAP_TAPCELL_ROW_21_264
*3984 TAP_TAPCELL_ROW_21_265
*3985 TAP_TAPCELL_ROW_21_266
*3986 TAP_TAPCELL_ROW_21_267
*3987 TAP_TAPCELL_ROW_21_268
*3988 TAP_TAPCELL_ROW_22_269
*3989 TAP_TAPCELL_ROW_22_270
*3990 TAP_TAPCELL_ROW_22_271
*3991 TAP_TAPCELL_ROW_22_272
*3992 TAP_TAPCELL_ROW_22_273
*3993 TAP_TAPCELL_ROW_22_274
*3994 TAP_TAPCELL_ROW_22_275
*3995 TAP_TAPCELL_ROW_23_276
*3996 TAP_TAPCELL_ROW_23_277
*3997 TAP_TAPCELL_ROW_23_278
*3998 TAP_TAPCELL_ROW_23_279
*3999 TAP_TAPCELL_ROW_23_280
*4000 TAP_TAPCELL_ROW_23_281
*4001 TAP_TAPCELL_ROW_24_282
*4002 TAP_TAPCELL_ROW_24_283
*4003 TAP_TAPCELL_ROW_24_284
*4004 TAP_TAPCELL_ROW_24_285
*4005 TAP_TAPCELL_ROW_24_286
*4006 TAP_TAPCELL_ROW_24_287
*4007 TAP_TAPCELL_ROW_24_288
*4008 TAP_TAPCELL_ROW_25_289
*4009 TAP_TAPCELL_ROW_25_290
*4010 TAP_TAPCELL_ROW_25_291
*4011 TAP_TAPCELL_ROW_25_292
*4012 TAP_TAPCELL_ROW_25_293
*4013 TAP_TAPCELL_ROW_25_294
*4014 TAP_TAPCELL_ROW_26_295
*4015 TAP_TAPCELL_ROW_26_296
*4016 TAP_TAPCELL_ROW_26_297
*4017 TAP_TAPCELL_ROW_26_298
*4018 TAP_TAPCELL_ROW_26_299
*4019 TAP_TAPCELL_ROW_26_300
*4020 TAP_TAPCELL_ROW_26_301
*4021 TAP_TAPCELL_ROW_27_302
*4022 TAP_TAPCELL_ROW_27_303
*4023 TAP_TAPCELL_ROW_27_304
*4024 TAP_TAPCELL_ROW_27_305
*4025 TAP_TAPCELL_ROW_27_306
*4026 TAP_TAPCELL_ROW_27_307
*4027 TAP_TAPCELL_ROW_28_308
*4028 TAP_TAPCELL_ROW_28_309
*4029 TAP_TAPCELL_ROW_28_310
*4030 TAP_TAPCELL_ROW_28_311
*4031 TAP_TAPCELL_ROW_28_312
*4032 TAP_TAPCELL_ROW_28_313
*4033 TAP_TAPCELL_ROW_28_314
*4034 TAP_TAPCELL_ROW_29_315
*4035 TAP_TAPCELL_ROW_29_316
*4036 TAP_TAPCELL_ROW_29_317
*4037 TAP_TAPCELL_ROW_29_318
*4038 TAP_TAPCELL_ROW_29_319
*4039 TAP_TAPCELL_ROW_29_320
*4040 TAP_TAPCELL_ROW_2_139
*4041 TAP_TAPCELL_ROW_2_140
*4042 TAP_TAPCELL_ROW_2_141
*4043 TAP_TAPCELL_ROW_2_142
*4044 TAP_TAPCELL_ROW_2_143
*4045 TAP_TAPCELL_ROW_2_144
*4046 TAP_TAPCELL_ROW_2_145
*4047 TAP_TAPCELL_ROW_30_321
*4048 TAP_TAPCELL_ROW_30_322
*4049 TAP_TAPCELL_ROW_30_323
*4050 TAP_TAPCELL_ROW_30_324
*4051 TAP_TAPCELL_ROW_30_325
*4052 TAP_TAPCELL_ROW_30_326
*4053 TAP_TAPCELL_ROW_30_327
*4054 TAP_TAPCELL_ROW_31_328
*4055 TAP_TAPCELL_ROW_31_329
*4056 TAP_TAPCELL_ROW_31_330
*4057 TAP_TAPCELL_ROW_31_331
*4058 TAP_TAPCELL_ROW_31_332
*4059 TAP_TAPCELL_ROW_31_333
*4060 TAP_TAPCELL_ROW_32_334
*4061 TAP_TAPCELL_ROW_32_335
*4062 TAP_TAPCELL_ROW_32_336
*4063 TAP_TAPCELL_ROW_32_337
*4064 TAP_TAPCELL_ROW_32_338
*4065 TAP_TAPCELL_ROW_32_339
*4066 TAP_TAPCELL_ROW_32_340
*4067 TAP_TAPCELL_ROW_33_341
*4068 TAP_TAPCELL_ROW_33_342
*4069 TAP_TAPCELL_ROW_33_343
*4070 TAP_TAPCELL_ROW_33_344
*4071 TAP_TAPCELL_ROW_33_345
*4072 TAP_TAPCELL_ROW_33_346
*4073 TAP_TAPCELL_ROW_34_347
*4074 TAP_TAPCELL_ROW_34_348
*4075 TAP_TAPCELL_ROW_34_349
*4076 TAP_TAPCELL_ROW_34_350
*4077 TAP_TAPCELL_ROW_34_351
*4078 TAP_TAPCELL_ROW_34_352
*4079 TAP_TAPCELL_ROW_34_353
*4080 TAP_TAPCELL_ROW_35_354
*4081 TAP_TAPCELL_ROW_35_355
*4082 TAP_TAPCELL_ROW_35_356
*4083 TAP_TAPCELL_ROW_35_357
*4084 TAP_TAPCELL_ROW_35_358
*4085 TAP_TAPCELL_ROW_35_359
*4086 TAP_TAPCELL_ROW_36_360
*4087 TAP_TAPCELL_ROW_36_361
*4088 TAP_TAPCELL_ROW_36_362
*4089 TAP_TAPCELL_ROW_36_363
*4090 TAP_TAPCELL_ROW_36_364
*4091 TAP_TAPCELL_ROW_36_365
*4092 TAP_TAPCELL_ROW_36_366
*4093 TAP_TAPCELL_ROW_37_367
*4094 TAP_TAPCELL_ROW_37_368
*4095 TAP_TAPCELL_ROW_37_369
*4096 TAP_TAPCELL_ROW_37_370
*4097 TAP_TAPCELL_ROW_37_371
*4098 TAP_TAPCELL_ROW_37_372
*4099 TAP_TAPCELL_ROW_38_373
*4100 TAP_TAPCELL_ROW_38_374
*4101 TAP_TAPCELL_ROW_38_375
*4102 TAP_TAPCELL_ROW_38_376
*4103 TAP_TAPCELL_ROW_38_377
*4104 TAP_TAPCELL_ROW_38_378
*4105 TAP_TAPCELL_ROW_38_379
*4106 TAP_TAPCELL_ROW_39_380
*4107 TAP_TAPCELL_ROW_39_381
*4108 TAP_TAPCELL_ROW_39_382
*4109 TAP_TAPCELL_ROW_39_383
*4110 TAP_TAPCELL_ROW_39_384
*4111 TAP_TAPCELL_ROW_39_385
*4112 TAP_TAPCELL_ROW_3_146
*4113 TAP_TAPCELL_ROW_3_147
*4114 TAP_TAPCELL_ROW_3_148
*4115 TAP_TAPCELL_ROW_3_149
*4116 TAP_TAPCELL_ROW_3_150
*4117 TAP_TAPCELL_ROW_3_151
*4118 TAP_TAPCELL_ROW_40_386
*4119 TAP_TAPCELL_ROW_40_387
*4120 TAP_TAPCELL_ROW_40_388
*4121 TAP_TAPCELL_ROW_40_389
*4122 TAP_TAPCELL_ROW_40_390
*4123 TAP_TAPCELL_ROW_40_391
*4124 TAP_TAPCELL_ROW_40_392
*4125 TAP_TAPCELL_ROW_41_393
*4126 TAP_TAPCELL_ROW_41_394
*4127 TAP_TAPCELL_ROW_41_395
*4128 TAP_TAPCELL_ROW_41_396
*4129 TAP_TAPCELL_ROW_41_397
*4130 TAP_TAPCELL_ROW_41_398
*4131 TAP_TAPCELL_ROW_42_399
*4132 TAP_TAPCELL_ROW_42_400
*4133 TAP_TAPCELL_ROW_42_401
*4134 TAP_TAPCELL_ROW_42_402
*4135 TAP_TAPCELL_ROW_42_403
*4136 TAP_TAPCELL_ROW_42_404
*4137 TAP_TAPCELL_ROW_42_405
*4138 TAP_TAPCELL_ROW_43_406
*4139 TAP_TAPCELL_ROW_43_407
*4140 TAP_TAPCELL_ROW_43_408
*4141 TAP_TAPCELL_ROW_43_409
*4142 TAP_TAPCELL_ROW_43_410
*4143 TAP_TAPCELL_ROW_43_411
*4144 TAP_TAPCELL_ROW_44_412
*4145 TAP_TAPCELL_ROW_44_413
*4146 TAP_TAPCELL_ROW_44_414
*4147 TAP_TAPCELL_ROW_44_415
*4148 TAP_TAPCELL_ROW_44_416
*4149 TAP_TAPCELL_ROW_44_417
*4150 TAP_TAPCELL_ROW_44_418
*4151 TAP_TAPCELL_ROW_45_419
*4152 TAP_TAPCELL_ROW_45_420
*4153 TAP_TAPCELL_ROW_45_421
*4154 TAP_TAPCELL_ROW_45_422
*4155 TAP_TAPCELL_ROW_45_423
*4156 TAP_TAPCELL_ROW_45_424
*4157 TAP_TAPCELL_ROW_46_425
*4158 TAP_TAPCELL_ROW_46_426
*4159 TAP_TAPCELL_ROW_46_427
*4160 TAP_TAPCELL_ROW_46_428
*4161 TAP_TAPCELL_ROW_46_429
*4162 TAP_TAPCELL_ROW_46_430
*4163 TAP_TAPCELL_ROW_46_431
*4164 TAP_TAPCELL_ROW_47_432
*4165 TAP_TAPCELL_ROW_47_433
*4166 TAP_TAPCELL_ROW_47_434
*4167 TAP_TAPCELL_ROW_47_435
*4168 TAP_TAPCELL_ROW_47_436
*4169 TAP_TAPCELL_ROW_47_437
*4170 TAP_TAPCELL_ROW_48_438
*4171 TAP_TAPCELL_ROW_48_439
*4172 TAP_TAPCELL_ROW_48_440
*4173 TAP_TAPCELL_ROW_48_441
*4174 TAP_TAPCELL_ROW_48_442
*4175 TAP_TAPCELL_ROW_48_443
*4176 TAP_TAPCELL_ROW_48_444
*4177 TAP_TAPCELL_ROW_49_445
*4178 TAP_TAPCELL_ROW_49_446
*4179 TAP_TAPCELL_ROW_49_447
*4180 TAP_TAPCELL_ROW_49_448
*4181 TAP_TAPCELL_ROW_49_449
*4182 TAP_TAPCELL_ROW_49_450
*4183 TAP_TAPCELL_ROW_4_152
*4184 TAP_TAPCELL_ROW_4_153
*4185 TAP_TAPCELL_ROW_4_154
*4186 TAP_TAPCELL_ROW_4_155
*4187 TAP_TAPCELL_ROW_4_156
*4188 TAP_TAPCELL_ROW_4_157
*4189 TAP_TAPCELL_ROW_4_158
*4190 TAP_TAPCELL_ROW_50_451
*4191 TAP_TAPCELL_ROW_50_452
*4192 TAP_TAPCELL_ROW_50_453
*4193 TAP_TAPCELL_ROW_50_454
*4194 TAP_TAPCELL_ROW_50_455
*4195 TAP_TAPCELL_ROW_50_456
*4196 TAP_TAPCELL_ROW_50_457
*4197 TAP_TAPCELL_ROW_51_458
*4198 TAP_TAPCELL_ROW_51_459
*4199 TAP_TAPCELL_ROW_51_460
*4200 TAP_TAPCELL_ROW_51_461
*4201 TAP_TAPCELL_ROW_51_462
*4202 TAP_TAPCELL_ROW_51_463
*4203 TAP_TAPCELL_ROW_52_464
*4204 TAP_TAPCELL_ROW_52_465
*4205 TAP_TAPCELL_ROW_52_466
*4206 TAP_TAPCELL_ROW_52_467
*4207 TAP_TAPCELL_ROW_52_468
*4208 TAP_TAPCELL_ROW_52_469
*4209 TAP_TAPCELL_ROW_52_470
*4210 TAP_TAPCELL_ROW_53_471
*4211 TAP_TAPCELL_ROW_53_472
*4212 TAP_TAPCELL_ROW_53_473
*4213 TAP_TAPCELL_ROW_53_474
*4214 TAP_TAPCELL_ROW_53_475
*4215 TAP_TAPCELL_ROW_53_476
*4216 TAP_TAPCELL_ROW_54_477
*4217 TAP_TAPCELL_ROW_54_478
*4218 TAP_TAPCELL_ROW_54_479
*4219 TAP_TAPCELL_ROW_54_480
*4220 TAP_TAPCELL_ROW_54_481
*4221 TAP_TAPCELL_ROW_54_482
*4222 TAP_TAPCELL_ROW_54_483
*4223 TAP_TAPCELL_ROW_55_484
*4224 TAP_TAPCELL_ROW_55_485
*4225 TAP_TAPCELL_ROW_55_486
*4226 TAP_TAPCELL_ROW_55_487
*4227 TAP_TAPCELL_ROW_55_488
*4228 TAP_TAPCELL_ROW_55_489
*4229 TAP_TAPCELL_ROW_56_490
*4230 TAP_TAPCELL_ROW_56_491
*4231 TAP_TAPCELL_ROW_56_492
*4232 TAP_TAPCELL_ROW_56_493
*4233 TAP_TAPCELL_ROW_56_494
*4234 TAP_TAPCELL_ROW_56_495
*4235 TAP_TAPCELL_ROW_56_496
*4236 TAP_TAPCELL_ROW_57_497
*4237 TAP_TAPCELL_ROW_57_498
*4238 TAP_TAPCELL_ROW_57_499
*4239 TAP_TAPCELL_ROW_57_500
*4240 TAP_TAPCELL_ROW_57_501
*4241 TAP_TAPCELL_ROW_57_502
*4242 TAP_TAPCELL_ROW_58_503
*4243 TAP_TAPCELL_ROW_58_504
*4244 TAP_TAPCELL_ROW_58_505
*4245 TAP_TAPCELL_ROW_58_506
*4246 TAP_TAPCELL_ROW_58_507
*4247 TAP_TAPCELL_ROW_58_508
*4248 TAP_TAPCELL_ROW_58_509
*4249 TAP_TAPCELL_ROW_59_510
*4250 TAP_TAPCELL_ROW_59_511
*4251 TAP_TAPCELL_ROW_59_512
*4252 TAP_TAPCELL_ROW_59_513
*4253 TAP_TAPCELL_ROW_59_514
*4254 TAP_TAPCELL_ROW_59_515
*4255 TAP_TAPCELL_ROW_59_516
*4256 TAP_TAPCELL_ROW_59_517
*4257 TAP_TAPCELL_ROW_59_518
*4258 TAP_TAPCELL_ROW_59_519
*4259 TAP_TAPCELL_ROW_59_520
*4260 TAP_TAPCELL_ROW_59_521
*4261 TAP_TAPCELL_ROW_59_522
*4262 TAP_TAPCELL_ROW_5_159
*4263 TAP_TAPCELL_ROW_5_160
*4264 TAP_TAPCELL_ROW_5_161
*4265 TAP_TAPCELL_ROW_5_162
*4266 TAP_TAPCELL_ROW_5_163
*4267 TAP_TAPCELL_ROW_5_164
*4268 TAP_TAPCELL_ROW_6_165
*4269 TAP_TAPCELL_ROW_6_166
*4270 TAP_TAPCELL_ROW_6_167
*4271 TAP_TAPCELL_ROW_6_168
*4272 TAP_TAPCELL_ROW_6_169
*4273 TAP_TAPCELL_ROW_6_170
*4274 TAP_TAPCELL_ROW_6_171
*4275 TAP_TAPCELL_ROW_7_172
*4276 TAP_TAPCELL_ROW_7_173
*4277 TAP_TAPCELL_ROW_7_174
*4278 TAP_TAPCELL_ROW_7_175
*4279 TAP_TAPCELL_ROW_7_176
*4280 TAP_TAPCELL_ROW_7_177
*4281 TAP_TAPCELL_ROW_8_178
*4282 TAP_TAPCELL_ROW_8_179
*4283 TAP_TAPCELL_ROW_8_180
*4284 TAP_TAPCELL_ROW_8_181
*4285 TAP_TAPCELL_ROW_8_182
*4286 TAP_TAPCELL_ROW_8_183
*4287 TAP_TAPCELL_ROW_8_184
*4288 TAP_TAPCELL_ROW_9_185
*4289 TAP_TAPCELL_ROW_9_186
*4290 TAP_TAPCELL_ROW_9_187
*4291 TAP_TAPCELL_ROW_9_188
*4292 TAP_TAPCELL_ROW_9_189
*4293 TAP_TAPCELL_ROW_9_190
*4294 _0686_
*4295 _0687_
*4296 _0688_
*4297 _0689_
*4298 _0690_
*4299 _0691_
*4300 _0692_
*4301 _0693_
*4302 _0694_
*4303 _0695_
*4304 _0696_
*4305 _0697_
*4306 _0698_
*4307 _0699_
*4308 _0700_
*4309 _0701_
*4310 _0702_
*4311 _0703_
*4312 _0704_
*4313 _0705_
*4314 _0706_
*4315 _0707_
*4316 _0708_
*4317 _0709_
*4318 _0710_
*4319 _0711_
*4320 _0712_
*4321 _0713_
*4322 _0714_
*4323 _0715_
*4324 _0716_
*4325 _0717_
*4326 _0718_
*4327 _0719_
*4328 _0720_
*4329 _0721_
*4330 _0722_
*4331 _0723_
*4332 _0724_
*4333 _0725_
*4334 _0726_
*4335 _0727_
*4336 _0728_
*4337 _0729_
*4338 _0730_
*4339 _0731_
*4340 _0732_
*4341 _0733_
*4342 _0734_
*4343 _0735_
*4344 _0736_
*4345 _0737_
*4346 _0738_
*4347 _0739_
*4348 _0740_
*4349 _0741_
*4350 _0742_
*4351 _0743_
*4352 _0744_
*4353 _0745_
*4354 _0746_
*4355 _0747_
*4356 _0748_
*4357 _0749_
*4358 _0750_
*4359 _0751_
*4360 _0752_
*4361 _0753_
*4362 _0754_
*4363 _0755_
*4364 _0756_
*4365 _0757_
*4366 _0758_
*4367 _0759_
*4368 _0760_
*4369 _0761_
*4370 _0762_
*4371 _0763_
*4372 _0764_
*4373 _0765_
*4374 _0766_
*4375 _0767_
*4376 _0768_
*4377 _0769_
*4378 _0770_
*4379 _0771_
*4380 _0772_
*4381 _0773_
*4382 _0774_
*4383 _0775_
*4384 _0776_
*4385 _0777_
*4386 _0778_
*4387 _0779_
*4388 _0780_
*4389 _0781_
*4390 _0782_
*4391 _0783_
*4392 _0784_
*4393 _0785_
*4394 _0786_
*4395 _0787_
*4396 _0788_
*4397 _0789_
*4398 _0790_
*4399 _0791_
*4400 _0792_
*4401 _0793_
*4402 _0794_
*4403 _0795_
*4404 _0796_
*4405 _0797_
*4406 _0798_
*4407 _0799_
*4408 _0800_
*4409 _0801_
*4410 _0802_
*4411 _0803_
*4412 _0804_
*4413 _0805_
*4414 _0806_
*4415 _0807_
*4416 _0808_
*4417 _0809_
*4418 _0810_
*4419 _0811_
*4420 _0812_
*4421 _0813_
*4422 _0814_
*4423 _0815_
*4424 _0816_
*4425 _0817_
*4426 _0818_
*4427 _0819_
*4428 _0820_
*4429 _0821_
*4430 _0822_
*4431 _0823_
*4432 _0824_
*4433 _0825_
*4434 _0826_
*4435 _0827_
*4436 _0828_
*4437 _0829_
*4438 _0830_
*4439 _0831_
*4440 _0832_
*4441 _0833_
*4442 _0834_
*4443 _0835_
*4444 _0836_
*4445 _0837_
*4446 _0838_
*4447 _0839_
*4448 _0840_
*4449 _0841_
*4450 _0842_
*4451 _0843_
*4452 _0844_
*4453 _0845_
*4454 _0846_
*4455 _0847_
*4456 _0848_
*4457 _0849_
*4458 _0850_
*4459 _0851_
*4460 _0852_
*4461 _0853_
*4462 _0854_
*4463 _0855_
*4464 _0856_
*4465 _0857_
*4466 _0858_
*4467 _0859_
*4468 _0860_
*4469 _0861_
*4470 _0862_
*4471 _0863_
*4472 _0864_
*4473 _0865_
*4474 _0866_
*4475 _0867_
*4476 _0868_
*4477 _0869_
*4478 _0870_
*4479 _0871_
*4480 _0872_
*4481 _0873_
*4482 _0874_
*4483 _0875_
*4484 _0876_
*4485 _0877_
*4486 _0878_
*4487 _0879_
*4488 _0880_
*4489 _0881_
*4490 _0882_
*4491 _0883_
*4492 _0884_
*4493 _0885_
*4494 _0886_
*4495 _0887_
*4496 _0888_
*4497 _0889_
*4498 _0890_
*4499 _0891_
*4500 _0892_
*4501 _0893_
*4502 _0894_
*4503 _0895_
*4504 _0896_
*4505 _0897_
*4506 _0898_
*4507 _0899_
*4508 _0900_
*4509 _0901_
*4510 _0902_
*4511 _0903_
*4512 _0904_
*4513 _0905_
*4514 _0906_
*4515 _0907_
*4516 _0908_
*4517 _0909_
*4518 _0910_
*4519 _0911_
*4520 _0912_
*4521 _0913_
*4522 _0914_
*4523 _0915_
*4524 _0916_
*4525 _0917_
*4526 _0918_
*4527 _0919_
*4528 _0920_
*4529 _0921_
*4530 _0922_
*4531 _0923_
*4532 _0924_
*4533 _0925_
*4534 _0926_
*4535 _0927_
*4536 _0928_
*4537 _0929_
*4538 _0930_
*4539 _0931_
*4540 _0932_
*4541 _0933_
*4542 _0934_
*4543 _0935_
*4544 _0936_
*4545 _0937_
*4546 _0938_
*4547 _0939_
*4548 _0940_
*4549 _0941_
*4550 _0942_
*4551 _0943_
*4552 _0944_
*4553 _0945_
*4554 _0946_
*4555 _0947_
*4556 _0948_
*4557 _0949_
*4558 _0950_
*4559 _0951_
*4560 _0952_
*4561 _0953_
*4562 _0954_
*4563 _0955_
*4564 _0956_
*4565 _0957_
*4566 _0958_
*4567 _0959_
*4568 _0960_
*4569 _0961_
*4570 _0962_
*4571 _0963_
*4572 _0964_
*4573 _0965_
*4574 _0966_
*4575 _0967_
*4576 _0968_
*4577 _0969_
*4578 _0970_
*4579 _0971_
*4580 _0972_
*4581 _0973_
*4582 _0974_
*4583 _0975_
*4584 _0976_
*4585 _0977_
*4586 _0978_
*4587 _0979_
*4588 _0980_
*4589 _0981_
*4590 _0982_
*4591 _0983_
*4592 _0984_
*4593 _0985_
*4594 _0986_
*4595 _0987_
*4596 _0988_
*4597 _0989_
*4598 _0990_
*4599 _0991_
*4600 _0992_
*4601 _0993_
*4602 _0994_
*4603 _0995_
*4604 _0996_
*4605 _0997_
*4606 _0998_
*4607 _0999_
*4608 _1000_
*4609 _1001_
*4610 _1002_
*4611 _1003_
*4612 _1004_
*4613 _1005_
*4614 _1006_
*4615 _1007_
*4616 _1008_
*4617 _1009_
*4618 _1010_
*4619 _1011_
*4620 _1012_
*4621 _1013_
*4622 _1014_
*4623 _1015_
*4624 _1016_
*4625 _1017_
*4626 _1018_
*4627 _1019_
*4628 _1020_
*4629 _1021_
*4630 _1022_
*4631 _1023_
*4632 _1024_
*4633 _1025_
*4634 _1026_
*4635 _1027_
*4636 _1028_
*4637 _1029_
*4638 _1030_
*4639 _1031_
*4640 _1032_
*4641 _1033_
*4642 _1034_
*4643 _1035_
*4644 _1036_
*4645 _1037_
*4646 _1038_
*4647 _1039_
*4648 _1040_
*4649 _1041_
*4650 _1042_
*4651 _1043_
*4652 _1044_
*4653 _1045_
*4654 _1046_
*4655 _1047_
*4656 _1048_
*4657 _1049_
*4658 _1050_
*4659 _1051_
*4660 _1052_
*4661 _1053_
*4662 _1054_
*4663 _1055_
*4664 _1056_
*4665 _1057_
*4666 _1058_
*4667 _1059_
*4668 _1060_
*4669 _1061_
*4670 _1062_
*4671 _1063_
*4672 _1064_
*4673 _1065_
*4674 _1066_
*4675 _1067_
*4676 _1068_
*4677 _1069_
*4678 _1070_
*4679 _1071_
*4680 _1072_
*4681 _1073_
*4682 _1074_
*4683 _1075_
*4684 _1076_
*4685 _1077_
*4686 _1078_
*4687 _1079_
*4688 _1080_
*4689 _1081_
*4690 _1082_
*4691 _1083_
*4692 _1084_
*4693 _1085_
*4694 _1086_
*4695 _1087_
*4696 _1088_
*4697 _1089_
*4698 _1090_
*4699 _1091_
*4700 _1092_
*4701 _1093_
*4702 _1094_
*4703 _1095_
*4704 _1096_
*4705 _1097_
*4706 _1098_
*4707 _1099_
*4708 _1100_
*4709 _1101_
*4710 _1102_
*4711 _1103_
*4712 _1104_
*4713 _1105_
*4714 _1106_
*4715 _1107_
*4716 _1108_
*4717 _1109_
*4718 _1110_
*4719 _1111_
*4720 _1112_
*4721 _1113_
*4722 _1114_
*4723 _1115_
*4724 _1116_
*4725 _1117_
*4726 _1118_
*4727 _1119_
*4728 _1120_
*4729 _1121_
*4730 _1122_
*4731 _1123_
*4732 _1124_
*4733 _1125_
*4734 _1126_
*4735 _1127_
*4736 _1128_
*4737 _1129_
*4738 _1130_
*4739 _1131_
*4740 _1132_
*4741 _1133_
*4742 _1134_
*4743 _1135_
*4744 _1136_
*4745 _1137_
*4746 _1138_
*4747 _1139_
*4748 _1140_
*4749 _1141_
*4750 _1142_
*4751 _1143_
*4752 _1144_
*4753 _1145_
*4754 _1146_
*4755 _1147_
*4756 _1148_
*4757 _1149_
*4758 _1150_
*4759 _1151_
*4760 _1152_
*4761 _1153_
*4762 _1154_
*4763 _1155_
*4764 _1156_
*4765 _1157_
*4766 _1158_
*4767 _1159_
*4768 _1160_
*4769 _1161_
*4770 _1162_
*4771 _1163_
*4772 _1164_
*4773 _1165_
*4774 _1166_
*4775 _1167_
*4776 _1168_
*4777 _1169_
*4778 _1170_
*4779 _1171_
*4780 _1172_
*4781 _1173_
*4782 _1174_
*4783 _1175_
*4784 _1176_
*4785 _1177_
*4786 _1178_
*4787 _1179_
*4788 _1180_
*4789 _1181_
*4790 _1182_
*4791 _1183_
*4792 _1184_
*4793 _1185_
*4794 _1186_
*4795 _1187_
*4796 _1188_
*4797 _1189_
*4798 _1190_
*4799 _1191_
*4800 _1192_
*4801 _1193_
*4802 _1194_
*4803 _1195_
*4804 _1196_
*4805 _1197_
*4806 _1198_
*4807 _1199_
*4808 _1200_
*4809 _1201_
*4810 _1202_
*4811 _1203_
*4812 _1204_
*4813 _1205_
*4814 _1206_
*4815 _1207_
*4816 _1208_
*4817 _1209_
*4818 _1210_
*4819 _1211_
*4820 _1212_
*4821 _1213_
*4822 _1214_
*4823 _1215_
*4824 _1216_
*4825 _1217_
*4826 _1218_
*4827 _1219_
*4828 _1220_
*4829 _1221_
*4830 _1222_
*4831 _1223_
*4832 _1224_
*4833 _1225_
*4834 _1226_
*4835 _1227_
*4836 _1228_
*4837 _1229_
*4838 _1230_
*4839 _1231_
*4840 _1232_
*4841 _1233_
*4842 _1234_
*4843 _1235_
*4844 _1236_
*4845 _1237_
*4846 _1238_
*4847 _1239_
*4848 _1240_
*4849 _1241_
*4850 _1242_
*4851 _1243_
*4852 _1244_
*4853 _1245_
*4854 _1246_
*4855 _1247_
*4856 _1248_
*4857 _1249_
*4858 _1250_
*4859 _1251_
*4860 _1252_
*4861 _1253_
*4862 _1254_
*4863 _1255_
*4864 _1256_
*4865 _1257_
*4866 _1258_
*4867 _1259_
*4868 _1260_
*4869 _1261_
*4870 _1262_
*4871 _1263_
*4872 _1264_
*4873 _1265_
*4874 _1266_
*4875 _1267_
*4876 _1268_
*4877 _1269_
*4878 _1270_
*4879 _1271_
*4880 _1272_
*4881 _1273_
*4882 _1274_
*4883 _1275_
*4884 _1276_
*4885 _1277_
*4886 _1278_
*4887 _1279_
*4888 _1280_
*4889 _1281_
*4890 _1282_
*4891 _1283_
*4892 _1284_
*4893 _1285_
*4894 _1286_
*4895 _1287_
*4896 _1288_
*4897 _1289_
*4898 _1290_
*4899 _1291_
*4900 _1292_
*4901 _1293_
*4902 _1294_
*4903 _1295_
*4904 _1296_
*4905 _1297_
*4906 _1298_
*4907 _1299_
*4908 _1300_
*4909 _1301_
*4910 _1302_
*4911 _1303_
*4912 _1304_
*4913 _1305_
*4914 _1306_
*4915 _1307_
*4916 _1308_
*4917 _1309_
*4918 _1310_
*4919 _1311_
*4920 _1312_
*4921 _1313_
*4922 _1314_
*4923 _1315_
*4924 _1316_
*4925 _1317_
*4926 _1318_
*4927 _1319_
*4928 _1320_
*4929 _1321_
*4930 _1322_
*4931 _1323_
*4932 _1324_
*4933 _1325_
*4934 _1326_
*4935 _1327_
*4936 _1328_
*4937 _1329_
*4938 _1330_
*4939 _1331_
*4940 _1332_
*4941 _1333_
*4942 _1334_
*4943 _1335_
*4944 _1336_
*4945 _1337_
*4946 _1338_
*4947 _1339_
*4948 _1340_
*4949 _1341_
*4950 _1342_
*4951 _1343_
*4952 _1344_
*4953 _1345_
*4954 _1346_
*4955 _1347_
*4956 _1348_
*4957 _1349_
*4958 _1350_
*4959 _1351_
*4960 _1352_
*4961 _1353_
*4962 _1354_
*4963 _1355_
*4964 _1356_
*4965 _1357_
*4966 _1358_
*4967 _1359_
*4968 _1360_
*4969 _1361_
*4970 _1362_
*4971 _1363_
*4972 _1364_
*4973 _1365_
*4974 _1366_
*4975 _1367_
*4976 _1368_
*4977 _1369_
*4978 _1370_
*4979 _1371_
*4980 _1372_
*4981 _1373_
*4982 _1374_
*4983 _1375_
*4984 _1376_
*4985 _1377_
*4986 _1378_
*4987 _1379_
*4988 _1380_
*4989 _1381_
*4990 _1382_
*4991 _1383_
*4992 _1384_
*4993 _1385_
*4994 _1386_
*4995 _1387_
*4996 _1388_
*4997 _1389_
*4998 _1390_
*4999 _1391_
*5000 _1392_
*5001 _1393_
*5002 _1394_
*5003 _1395_
*5004 _1396_
*5005 _1397_
*5006 _1398_
*5007 _1399_
*5008 _1400_
*5009 _1401_
*5010 _1402_
*5011 _1403_
*5012 _1404_
*5013 _1405_
*5014 _1406_
*5015 _1407_
*5016 _1408_
*5017 _1409_
*5018 _1410_
*5019 _1411_
*5020 _1412_
*5021 _1413_
*5022 _1414_
*5023 _1415_
*5024 _1416_
*5025 _1417_
*5026 _1418_
*5027 _1419_
*5028 _1420_
*5029 _1421_
*5030 _1422_
*5031 _1423_
*5032 _1424_
*5033 _1425_
*5034 _1426_
*5035 _1427_
*5036 _1428_
*5037 _1429_
*5038 _1430_
*5039 _1431_
*5040 _1432_
*5041 _1433_
*5042 _1434_
*5043 _1435_
*5044 _1436_
*5045 _1437_
*5046 _1438_
*5047 _1439_
*5048 _1440_
*5049 _1441_
*5050 _1442_
*5051 _1443_
*5052 _1444_
*5053 _1445_
*5054 _1446_
*5055 _1447_
*5056 _1448_
*5057 _1449_
*5058 _1450_
*5059 _1451_
*5060 _1452_
*5061 _1453_
*5062 _1454_
*5063 _1455_
*5064 _1456_
*5065 _1457_
*5066 _1458_
*5067 _1459_
*5068 _1460_
*5069 _1461_
*5070 _1462_
*5071 _1463_
*5072 _1464_
*5073 _1465_
*5074 _1466_
*5075 _1467_
*5076 _1468_
*5077 _1469_
*5078 _1470_
*5079 _1471_
*5080 _1472_
*5081 _1473_
*5082 _1474_
*5083 _1475_
*5084 _1476_
*5085 _1477_
*5086 _1478_
*5087 _1511_
*5088 _1512_
*5089 _1513_
*5090 _1514_
*5091 _1515_
*5092 _1516_
*5093 _1517_
*5094 _1518_
*5095 _1519_
*5096 _1520_
*5097 _1521_
*5098 _1522_
*5099 _1523_
*5100 _1524_
*5101 _1525_
*5102 _1526_
*5103 _1527_
*5104 _1528_
*5105 _1529_
*5106 _1530_
*5107 _1531_
*5108 _1532_
*5109 _1533_
*5110 _1534_
*5111 _1535_
*5112 _1536_
*5113 _1537_
*5114 _1538_
*5115 _1539_
*5116 _1540_
*5117 _1541_
*5118 _1542_
*5119 _1543_
*5120 clkbuf_0_clk
*5121 clkbuf_2_0__f_clk
*5122 clkbuf_2_1__f_clk
*5123 clkbuf_2_2__f_clk
*5124 clkbuf_2_3__f_clk
*5125 fanout100
*5126 fanout101
*5127 fanout102
*5128 fanout103
*5129 fanout104
*5130 fanout105
*5131 fanout107
*5132 fanout108
*5133 fanout109
*5134 fanout110
*5135 fanout111
*5136 fanout112
*5137 fanout113
*5138 fanout114
*5139 fanout115
*5140 fanout116
*5141 fanout117
*5142 fanout118
*5143 fanout119
*5144 fanout121
*5145 fanout123
*5146 fanout125
*5147 fanout127
*5148 fanout128
*5149 fanout129
*5150 fanout130
*5151 fanout131
*5152 fanout132
*5153 fanout133
*5154 fanout134
*5155 fanout136
*5156 fanout138
*5157 fanout139
*5158 fanout141
*5159 fanout90
*5160 fanout91
*5161 fanout92
*5162 fanout93
*5163 fanout94
*5164 fanout95
*5165 fanout96
*5166 fanout97
*5167 fanout98
*5168 fanout99
*5169 input1
*5170 input10
*5171 input11
*5172 input12
*5173 input13
*5174 input14
*5175 input15
*5176 input16
*5177 input17
*5178 input18
*5179 input19
*5180 input2
*5181 input20
*5182 input3
*5183 input4
*5184 input5
*5185 input6
*5186 input7
*5187 input8
*5188 input9
*5189 load_slew120
*5190 load_slew122
*5191 load_slew124
*5192 load_slew126
*5193 load_slew137
*5194 load_slew140
*5195 max_cap135
*5196 max_cap143
*5197 max_cap144
*5198 max_cap145
*5199 max_cap146
*5200 max_cap147
*5201 output21
*5202 output22
*5203 output23
*5204 output24
*5205 output25
*5206 output26
*5207 output27
*5208 output28
*5209 output29
*5210 output30
*5211 output31
*5212 output32
*5213 output33
*5214 output34
*5215 output35
*5216 output36
*5217 output37
*5218 output38
*5219 output39
*5220 output40
*5221 output41
*5222 output42
*5223 output43
*5224 output44
*5225 output45
*5226 output46
*5227 output47
*5228 output48
*5229 output49
*5230 output50
*5231 output51
*5232 output52
*5233 output53
*5234 output54
*5235 output55
*5236 output56
*5237 output57
*5238 output58
*5239 output59
*5240 output60
*5241 output61
*5242 output62
*5243 output63
*5244 output64
*5245 output65
*5246 output66
*5247 output67
*5248 output68
*5249 output69
*5250 output70
*5251 output71
*5252 output72
*5253 output73
*5254 output74
*5255 output75
*5256 output76
*5257 output77
*5258 output78
*5259 output79
*5260 output80
*5261 output81
*5262 output82
*5263 output83
*5264 output84
*5265 output85
*5266 output86
*5267 output87
*5268 output88
*5269 output89
*5270 team_00
*5271 team_00_148
*5272 team_00_149
*5273 team_00_150
*5274 team_00_151
*5275 team_00_152
*5276 team_00_153
*5277 team_00_154
*5278 team_00_155
*5279 team_00_156
*5280 team_00_157
*5281 team_00_158
*5282 team_00_159
*5283 team_00_160
*5284 team_00_161
*5285 team_00_162
*5286 team_00_163
*5287 team_00_164
*5288 team_00_165
*5289 team_00_166
*5290 team_00_167
*5291 team_00_168
*5292 team_00_169
*5293 team_00_170
*5294 team_00_171
*5295 team_00_172
*5296 team_00_173
*5297 team_00_174
*5298 team_00_175
*5299 team_00_176
*5300 team_00_177
*5301 team_00_178
*5302 wire106
*5303 wire142

*PORTS
clk I
done O
en I
gpio_in[0] I
gpio_in[10] I
gpio_in[11] I
gpio_in[12] I
gpio_in[13] I
gpio_in[14] I
gpio_in[15] I
gpio_in[16] I
gpio_in[17] I
gpio_in[18] I
gpio_in[19] I
gpio_in[1] I
gpio_in[20] I
gpio_in[21] I
gpio_in[22] I
gpio_in[23] I
gpio_in[24] I
gpio_in[25] I
gpio_in[26] I
gpio_in[27] I
gpio_in[28] I
gpio_in[29] I
gpio_in[2] I
gpio_in[30] I
gpio_in[31] I
gpio_in[32] I
gpio_in[33] I
gpio_in[3] I
gpio_in[4] I
gpio_in[5] I
gpio_in[6] I
gpio_in[7] I
gpio_in[8] I
gpio_in[9] I
gpio_oeb[0] O
gpio_oeb[10] O
gpio_oeb[11] O
gpio_oeb[12] O
gpio_oeb[13] O
gpio_oeb[14] O
gpio_oeb[15] O
gpio_oeb[16] O
gpio_oeb[17] O
gpio_oeb[18] O
gpio_oeb[19] O
gpio_oeb[1] O
gpio_oeb[20] O
gpio_oeb[21] O
gpio_oeb[22] O
gpio_oeb[23] O
gpio_oeb[24] O
gpio_oeb[25] O
gpio_oeb[26] O
gpio_oeb[27] O
gpio_oeb[28] O
gpio_oeb[29] O
gpio_oeb[2] O
gpio_oeb[30] O
gpio_oeb[31] O
gpio_oeb[32] O
gpio_oeb[33] O
gpio_oeb[3] O
gpio_oeb[4] O
gpio_oeb[5] O
gpio_oeb[6] O
gpio_oeb[7] O
gpio_oeb[8] O
gpio_oeb[9] O
gpio_out[0] O
gpio_out[10] O
gpio_out[11] O
gpio_out[12] O
gpio_out[13] O
gpio_out[14] O
gpio_out[15] O
gpio_out[16] O
gpio_out[17] O
gpio_out[18] O
gpio_out[19] O
gpio_out[1] O
gpio_out[20] O
gpio_out[21] O
gpio_out[22] O
gpio_out[23] O
gpio_out[24] O
gpio_out[25] O
gpio_out[26] O
gpio_out[27] O
gpio_out[28] O
gpio_out[29] O
gpio_out[2] O
gpio_out[30] O
gpio_out[31] O
gpio_out[32] O
gpio_out[33] O
gpio_out[3] O
gpio_out[4] O
gpio_out[5] O
gpio_out[6] O
gpio_out[7] O
gpio_out[8] O
gpio_out[9] O
la_data_in[0] I
la_data_in[10] I
la_data_in[11] I
la_data_in[12] I
la_data_in[13] I
la_data_in[14] I
la_data_in[15] I
la_data_in[16] I
la_data_in[17] I
la_data_in[18] I
la_data_in[19] I
la_data_in[1] I
la_data_in[20] I
la_data_in[21] I
la_data_in[22] I
la_data_in[23] I
la_data_in[24] I
la_data_in[25] I
la_data_in[26] I
la_data_in[27] I
la_data_in[28] I
la_data_in[29] I
la_data_in[2] I
la_data_in[30] I
la_data_in[31] I
la_data_in[3] I
la_data_in[4] I
la_data_in[5] I
la_data_in[6] I
la_data_in[7] I
la_data_in[8] I
la_data_in[9] I
la_data_out[0] O
la_data_out[10] O
la_data_out[11] O
la_data_out[12] O
la_data_out[13] O
la_data_out[14] O
la_data_out[15] O
la_data_out[16] O
la_data_out[17] O
la_data_out[18] O
la_data_out[19] O
la_data_out[1] O
la_data_out[20] O
la_data_out[21] O
la_data_out[22] O
la_data_out[23] O
la_data_out[24] O
la_data_out[25] O
la_data_out[26] O
la_data_out[27] O
la_data_out[28] O
la_data_out[29] O
la_data_out[2] O
la_data_out[30] O
la_data_out[31] O
la_data_out[3] O
la_data_out[4] O
la_data_out[5] O
la_data_out[6] O
la_data_out[7] O
la_data_out[8] O
la_data_out[9] O
la_oenb[0] I
la_oenb[10] I
la_oenb[11] I
la_oenb[12] I
la_oenb[13] I
la_oenb[14] I
la_oenb[15] I
la_oenb[16] I
la_oenb[17] I
la_oenb[18] I
la_oenb[19] I
la_oenb[1] I
la_oenb[20] I
la_oenb[21] I
la_oenb[22] I
la_oenb[23] I
la_oenb[24] I
la_oenb[25] I
la_oenb[26] I
la_oenb[27] I
la_oenb[28] I
la_oenb[29] I
la_oenb[2] I
la_oenb[30] I
la_oenb[31] I
la_oenb[3] I
la_oenb[4] I
la_oenb[5] I
la_oenb[6] I
la_oenb[7] I
la_oenb[8] I
la_oenb[9] I
nrst I
prescaler[0] I
prescaler[10] I
prescaler[11] I
prescaler[12] I
prescaler[13] I
prescaler[1] I
prescaler[2] I
prescaler[3] I
prescaler[4] I
prescaler[5] I
prescaler[6] I
prescaler[7] I
prescaler[8] I
prescaler[9] I

*D_NET *1 0.014552
*CONN
*P clk I
*I *1339:DIODE I *D sky130_fd_sc_hd__diode_2
*I *5120:A I *D sky130_fd_sc_hd__clkbuf_16
*CAP
1 clk 0.00320965
2 *1339:DIODE 4.23943e-05
3 *5120:A 4.97037e-05
4 *1:32 0.000133337
5 *1:14 0.000140647
6 *1:10 0.00225646
7 *1:6 0.00546611
8 *1339:DIODE *4972:A 8.65905e-05
9 *5120:A *4986:A 5.32291e-05
10 *5120:A *4986:B 2.8696e-05
11 *5120:A *4986:C 1.02261e-05
12 *5120:A *4986:D 3.67957e-05
13 *1:6 *1192:DIODE 5.02217e-05
14 *1:6 *4304:A 0.000110323
15 *1:6 *4306:A 7.63204e-05
16 *1:6 *4458:B1 0
17 *1:6 *4460:A 0.000230651
18 *1:6 *4460:B 0.000103185
19 *1:6 *4460:C 0.000385756
20 *1:6 *4509:B 0
21 *1:6 *4509:C 0.00013477
22 *1:6 *4977:B2 0.000111582
23 *1:6 *5058:D 0
24 *1:6 *228:78 0
25 *1:6 *380:28 4.06899e-05
26 *1:6 *622:10 0
27 *1:6 *960:12 0
28 *1:6 *960:31 0
29 *1:6 *1015:34 0.000275383
30 *1:10 *4965:B 0
31 *1:10 *4987:A 0.000313237
32 *1:10 *374:27 0
33 *1:10 *1120:23 0.000769179
34 *1:10 *1120:29 0.000329074
35 *1:10 *1127:66 5.49633e-05
36 *1:32 *4981:C1 3.18137e-05
37 *1:32 *4986:B 2.09665e-05
38 *1:32 *4986:D 0
*RES
1 clk *1:6 62.4225 
2 *1:6 *1:10 6.01507 
3 *1:10 *1:14 0.5 
4 *1:14 *5120:A 5.01 
5 *1:14 *1:32 1.5075 
6 *1:32 *1339:DIODE 4.395 
*END

*D_NET *2 0.00215569
*CONN
*P done O
*I *5201:X O *D sky130_fd_sc_hd__clkdlybuf4s25_1
*CAP
1 done 0.000913983
2 *5201:X 0.000913983
3 done gpio_out[19] 2.00196e-05
4 done gpio_out[27] 0.000142098
5 done gpio_out[5] 0
6 done gpio_out[9] 0
7 done la_data_out[13] 0.000165605
8 done *5249:A 0
9 done *5253:A 0
*RES
1 *5201:X done 6.8877 
*END

*D_NET *3 0.00171692
*CONN
*P en I
*I *5169:A I *D sky130_fd_sc_hd__clkdlybuf4s25_1
*I *1377:DIODE I *D sky130_fd_sc_hd__diode_2
*CAP
1 en 0.000252993
2 *5169:A 1.22004e-05
3 *1377:DIODE 0.000329245
4 *3:7 0.000594438
5 *1377:DIODE *5261:A 2.86975e-05
6 *3:7 gpio_out[0] 0
7 *3:7 gpio_out[26] 0.000326627
8 *3:7 gpio_out[32] 0.000172723
*RES
1 en *3:7 1.39427 
2 *3:7 *1377:DIODE 7.8225 
3 *3:7 *5169:A 3.8325 
*END

*D_NET *38 0.00151992
*CONN
*P gpio_oeb[0] O
*I *5202:X O *D sky130_fd_sc_hd__clkdlybuf4s25_1
*CAP
1 gpio_oeb[0] 0.000584343
2 *5202:X 0.000584343
3 gpio_oeb[0] gpio_oeb[25] 0.000344262
4 gpio_oeb[0] gpio_oeb[9] 6.96872e-06
*RES
1 *5202:X gpio_oeb[0] 7.80503 
*END

*D_NET *39 0.00132812
*CONN
*P gpio_oeb[10] O
*I *5203:X O *D sky130_fd_sc_hd__clkdlybuf4s25_1
*CAP
1 gpio_oeb[10] 0.000416311
2 *5203:X 0.000416311
3 gpio_oeb[10] gpio_oeb[15] 0.000255888
4 gpio_oeb[10] gpio_oeb[24] 0.000239609
*RES
1 *5203:X gpio_oeb[10] 6.75677 
*END

*D_NET *40 0.00117367
*CONN
*P gpio_oeb[11] O
*I *5204:X O *D sky130_fd_sc_hd__clkdlybuf4s25_1
*CAP
1 gpio_oeb[11] 0.000342722
2 *5204:X 0.000342722
3 gpio_oeb[11] gpio_oeb[12] 0.000216517
4 gpio_oeb[11] gpio_oeb[28] 0.000271712
*RES
1 *5204:X gpio_oeb[11] 8.58217 
*END

*D_NET *41 0.00162888
*CONN
*P gpio_oeb[12] O
*I *5205:X O *D sky130_fd_sc_hd__clkdlybuf4s25_1
*CAP
1 gpio_oeb[12] 0.000519685
2 *5205:X 0.000519685
3 gpio_oeb[12] gpio_oeb[28] 8.93168e-06
4 gpio_oeb[12] gpio_oeb[33] 0.000344262
5 gpio_oeb[12] gpio_oeb[6] 0
6 gpio_oeb[12] gpio_oeb[7] 0
7 gpio_oeb[12] *5229:A 1.97962e-05
8 gpio_oeb[11] gpio_oeb[12] 0.000216517
*RES
1 *5205:X gpio_oeb[12] 7.80503 
*END

*D_NET *42 0.00140457
*CONN
*P gpio_oeb[13] O
*I *5206:X O *D sky130_fd_sc_hd__clkdlybuf4s25_1
*CAP
1 gpio_oeb[13] 0.00039945
2 *5206:X 0.00039945
3 gpio_oeb[13] gpio_oeb[16] 0.000232934
4 gpio_oeb[13] gpio_oeb[18] 1.35014e-05
5 gpio_oeb[13] gpio_oeb[19] 0.000232934
6 gpio_oeb[13] *181:13 0.000126304
*RES
1 *5206:X gpio_oeb[13] 9.31543 
*END

*D_NET *43 0.00246223
*CONN
*P gpio_oeb[14] O
*I *5207:X O *D sky130_fd_sc_hd__clkdlybuf4s25_1
*CAP
1 gpio_oeb[14] 0.000874316
2 *5207:X 0.000874316
3 gpio_oeb[14] gpio_oeb[17] 1.19648e-05
4 gpio_oeb[14] gpio_oeb[21] 0
5 gpio_oeb[14] gpio_oeb[29] 0.000357831
6 gpio_oeb[14] gpio_oeb[32] 0.000236833
7 gpio_oeb[14] *5230:A 0.000106973
8 gpio_oeb[14] *1019:38 0
*RES
1 *5207:X gpio_oeb[14] 7.17903 
*END

*D_NET *44 0.00142274
*CONN
*P gpio_oeb[15] O
*I *5208:X O *D sky130_fd_sc_hd__clkdlybuf4s25_1
*CAP
1 gpio_oeb[15] 0.000437104
2 *5208:X 0.000437104
3 gpio_oeb[15] gpio_oeb[23] 0.000216517
4 gpio_oeb[15] gpio_oeb[27] 8.93168e-06
5 gpio_oeb[15] gpio_oeb[2] 6.13596e-05
6 gpio_oeb[15] *5203:A 5.83121e-06
7 gpio_oeb[10] gpio_oeb[15] 0.000255888
*RES
1 *5208:X gpio_oeb[15] 9.7487 
*END

*D_NET *45 0.00272531
*CONN
*P gpio_oeb[16] O
*I *5209:X O *D sky130_fd_sc_hd__clkdlybuf4s25_1
*CAP
1 gpio_oeb[16] 0.000904842
2 *5209:X 0.000904842
3 gpio_oeb[16] gpio_oeb[18] 0.000145997
4 gpio_oeb[16] gpio_oeb[19] 9.22259e-05
5 gpio_oeb[16] gpio_oeb[1] 0
6 gpio_oeb[16] gpio_oeb[26] 6.11498e-05
7 gpio_oeb[16] *5206:A 0.000380166
8 gpio_oeb[16] *1040:10 3.1562e-06
9 gpio_oeb[13] gpio_oeb[16] 0.000232934
*RES
1 *5209:X gpio_oeb[16] 9.5779 
*END

*D_NET *46 0.0012729
*CONN
*P gpio_oeb[17] O
*I *5210:X O *D sky130_fd_sc_hd__clkdlybuf4s25_1
*CAP
1 gpio_oeb[17] 0.00033853
2 *5210:X 0.00033853
3 gpio_oeb[17] gpio_oeb[21] 0.000344262
4 gpio_oeb[17] gpio_oeb[32] 0.000239609
5 gpio_oeb[14] gpio_oeb[17] 1.19648e-05
*RES
1 *5210:X gpio_oeb[17] 6.75677 
*END

*D_NET *47 0.00179957
*CONN
*P gpio_oeb[18] O
*I *5211:X O *D sky130_fd_sc_hd__clkdlybuf4s25_1
*CAP
1 gpio_oeb[18] 0.000456093
2 *5211:X 0.000456093
3 gpio_oeb[18] gpio_oeb[26] 0.000149216
4 gpio_oeb[18] *1383:DIODE 0.000311949
5 gpio_oeb[18] *181:13 0.000223822
6 gpio_oeb[18] *1073:12 4.29016e-05
7 gpio_oeb[13] gpio_oeb[18] 1.35014e-05
8 gpio_oeb[16] gpio_oeb[18] 0.000145997
*RES
1 *5211:X gpio_oeb[18] 11.9624 
*END

*D_NET *48 0.00166342
*CONN
*P gpio_oeb[19] O
*I *5212:X O *D sky130_fd_sc_hd__clkdlybuf4s25_1
*CAP
1 gpio_oeb[19] 0.000557472
2 *5212:X 0.000557472
3 gpio_oeb[19] *1382:DIODE 0
4 gpio_oeb[19] *106:13 6.80001e-06
5 gpio_oeb[19] *181:13 0.000216517
6 gpio_oeb[19] *1019:38 0
7 gpio_oeb[13] gpio_oeb[19] 0.000232934
8 gpio_oeb[16] gpio_oeb[19] 9.22259e-05
*RES
1 *5212:X gpio_oeb[19] 5.6929 
*END

*D_NET *49 0.00163206
*CONN
*P gpio_oeb[1] O
*I *5213:X O *D sky130_fd_sc_hd__clkdlybuf4s25_1
*CAP
1 gpio_oeb[1] 0.000516637
2 *5213:X 0.000516637
3 gpio_oeb[1] gpio_oeb[20] 0.000236833
4 gpio_oeb[1] gpio_oeb[26] 0.000344262
5 gpio_oeb[1] gpio_oeb[29] 0
6 gpio_oeb[1] *5206:A 1.76907e-05
7 gpio_oeb[16] gpio_oeb[1] 0
*RES
1 *5213:X gpio_oeb[1] 7.80503 
*END

*D_NET *50 0.0011758
*CONN
*P gpio_oeb[20] O
*I *5214:X O *D sky130_fd_sc_hd__clkdlybuf4s25_1
*CAP
1 gpio_oeb[20] 0.000365142
2 *5214:X 0.000365142
3 gpio_oeb[20] gpio_oeb[22] 0.000159498
4 gpio_oeb[20] gpio_oeb[4] 4.9185e-05
5 gpio_oeb[1] gpio_oeb[20] 0.000236833
*RES
1 *5214:X gpio_oeb[20] 8.29543 
*END

*D_NET *51 0.00174959
*CONN
*P gpio_oeb[21] O
*I *5215:X O *D sky130_fd_sc_hd__clkdlybuf4s25_1
*CAP
1 gpio_oeb[21] 0.000453646
2 *5215:X 0.000453646
3 gpio_oeb[21] gpio_oeb[24] 8.93168e-06
4 gpio_oeb[21] gpio_oeb[2] 0.000216517
5 gpio_oeb[21] *1016:6 0.000272584
6 gpio_oeb[14] gpio_oeb[21] 0
7 gpio_oeb[17] gpio_oeb[21] 0.000344262
*RES
1 *5215:X gpio_oeb[21] 7.80503 
*END

*D_NET *52 0.00152618
*CONN
*P gpio_oeb[22] O
*I *5216:X O *D sky130_fd_sc_hd__clkdlybuf4s25_1
*CAP
1 gpio_oeb[22] 0.000541108
2 *5216:X 0.000541108
3 gpio_oeb[22] gpio_oeb[4] 0.000149216
4 gpio_oeb[22] *5214:A 4.82863e-05
5 gpio_oeb[22] *5220:A 8.69583e-05
6 gpio_oeb[20] gpio_oeb[22] 0.000159498
*RES
1 *5216:X gpio_oeb[22] 11.9624 
*END

*D_NET *53 0.00116913
*CONN
*P gpio_oeb[23] O
*I *5217:X O *D sky130_fd_sc_hd__clkdlybuf4s25_1
*CAP
1 gpio_oeb[23] 0.000340449
2 *5217:X 0.000340449
3 gpio_oeb[23] gpio_oeb[27] 0.000271712
4 gpio_oeb[15] gpio_oeb[23] 0.000216517
*RES
1 *5217:X gpio_oeb[23] 8.58217 
*END

*D_NET *54 0.00164402
*CONN
*P gpio_oeb[24] O
*I *5218:X O *D sky130_fd_sc_hd__clkdlybuf4s25_1
*CAP
1 gpio_oeb[24] 0.000431963
2 *5218:X 0.000431963
3 gpio_oeb[24] gpio_oeb[2] 0.000271712
4 gpio_oeb[24] *5210:A 9.74276e-05
5 gpio_oeb[24] *5224:A 0.000162409
6 gpio_oeb[10] gpio_oeb[24] 0.000239609
7 gpio_oeb[21] gpio_oeb[24] 8.93168e-06
*RES
1 *5218:X gpio_oeb[24] 10.8154 
*END

*D_NET *55 0.00132226
*CONN
*P gpio_oeb[25] O
*I *5219:X O *D sky130_fd_sc_hd__clkdlybuf4s25_1
*CAP
1 gpio_oeb[25] 0.000363558
2 *5219:X 0.000363558
3 gpio_oeb[25] gpio_oeb[9] 0.000250884
4 gpio_oeb[25] *5219:A 0
5 gpio_oeb[0] gpio_oeb[25] 0.000344262
*RES
1 *5219:X gpio_oeb[25] 6.75677 
*END

*D_NET *56 0.0013336
*CONN
*P gpio_oeb[26] O
*I *5220:X O *D sky130_fd_sc_hd__clkdlybuf4s25_1
*CAP
1 gpio_oeb[26] 0.000389484
2 *5220:X 0.000389484
3 gpio_oeb[26] *5220:A 0
4 gpio_oeb[16] gpio_oeb[26] 6.11498e-05
5 gpio_oeb[18] gpio_oeb[26] 0.000149216
6 gpio_oeb[1] gpio_oeb[26] 0.000344262
*RES
1 *5220:X gpio_oeb[26] 7.52177 
*END

*D_NET *57 0.00163475
*CONN
*P gpio_oeb[27] O
*I *5221:X O *D sky130_fd_sc_hd__clkdlybuf4s25_1
*CAP
1 gpio_oeb[27] 0.000451582
2 *5221:X 0.000451582
3 gpio_oeb[27] gpio_oeb[31] 0.000239609
4 gpio_oeb[27] *5203:A 4.89295e-05
5 gpio_oeb[27] *5217:A 0.000162409
6 gpio_oeb[15] gpio_oeb[27] 8.93168e-06
7 gpio_oeb[23] gpio_oeb[27] 0.000271712
*RES
1 *5221:X gpio_oeb[27] 10.8154 
*END

*D_NET *58 0.00163175
*CONN
*P gpio_oeb[28] O
*I *5222:X O *D sky130_fd_sc_hd__clkdlybuf4s25_1
*CAP
1 gpio_oeb[28] 0.000474544
2 *5222:X 0.000474544
3 gpio_oeb[28] gpio_oeb[30] 0.000239609
4 gpio_oeb[28] *5228:A 0.000162409
5 gpio_oeb[11] gpio_oeb[28] 0.000271712
6 gpio_oeb[12] gpio_oeb[28] 8.93168e-06
*RES
1 *5222:X gpio_oeb[28] 10.8154 
*END

*D_NET *59 0.00161377
*CONN
*P gpio_oeb[29] O
*I *5223:X O *D sky130_fd_sc_hd__clkdlybuf4s25_1
*CAP
1 gpio_oeb[29] 0.000445943
2 *5223:X 0.000445943
3 gpio_oeb[29] gpio_oeb[4] 0.000344262
4 gpio_oeb[29] *5214:A 1.97962e-05
5 gpio_oeb[14] gpio_oeb[29] 0.000357831
6 gpio_oeb[1] gpio_oeb[29] 0
*RES
1 *5223:X gpio_oeb[29] 7.80503 
*END

*D_NET *60 0.00119331
*CONN
*P gpio_oeb[2] O
*I *5224:X O *D sky130_fd_sc_hd__clkdlybuf4s25_1
*CAP
1 gpio_oeb[2] 0.000321863
2 *5224:X 0.000321863
3 gpio_oeb[15] gpio_oeb[2] 6.13596e-05
4 gpio_oeb[21] gpio_oeb[2] 0.000216517
5 gpio_oeb[24] gpio_oeb[2] 0.000271712
*RES
1 *5224:X gpio_oeb[2] 8.58217 
*END

*D_NET *61 0.0012974
*CONN
*P gpio_oeb[30] O
*I *5225:X O *D sky130_fd_sc_hd__clkdlybuf4s25_1
*CAP
1 gpio_oeb[30] 0.000356764
2 *5225:X 0.000356764
3 gpio_oeb[30] gpio_oeb[7] 0.000344262
4 gpio_oeb[30] *5225:A 0
5 gpio_oeb[28] gpio_oeb[30] 0.000239609
*RES
1 *5225:X gpio_oeb[30] 6.75677 
*END

*D_NET *62 0.00169202
*CONN
*P gpio_oeb[31] O
*I *5226:X O *D sky130_fd_sc_hd__clkdlybuf4s25_1
*CAP
1 gpio_oeb[31] 0.000576236
2 *5226:X 0.000576236
3 gpio_oeb[31] gpio_oeb[3] 0.000216517
4 gpio_oeb[31] gpio_oeb[6] 6.41273e-05
5 gpio_oeb[31] *5217:A 1.92979e-05
6 gpio_oeb[27] gpio_oeb[31] 0.000239609
*RES
1 *5226:X gpio_oeb[31] 5.6929 
*END

*D_NET *63 0.00162685
*CONN
*P gpio_oeb[32] O
*I *5227:X O *D sky130_fd_sc_hd__clkdlybuf4s25_1
*CAP
1 gpio_oeb[32] 0.000493421
2 *5227:X 0.000493421
3 gpio_oeb[32] *5230:A 0.000163567
4 gpio_oeb[14] gpio_oeb[32] 0.000236833
5 gpio_oeb[17] gpio_oeb[32] 0.000239609
*RES
1 *5227:X gpio_oeb[32] 10.8154 
*END

*D_NET *64 0.00129765
*CONN
*P gpio_oeb[33] O
*I *5228:X O *D sky130_fd_sc_hd__clkdlybuf4s25_1
*CAP
1 gpio_oeb[33] 0.000350907
2 *5228:X 0.000350907
3 gpio_oeb[33] gpio_oeb[5] 0.000239609
4 gpio_oeb[33] gpio_oeb[6] 1.19648e-05
5 gpio_oeb[12] gpio_oeb[33] 0.000344262
*RES
1 *5228:X gpio_oeb[33] 6.75677 
*END

*D_NET *65 0.00130503
*CONN
*P gpio_oeb[3] O
*I *5229:X O *D sky130_fd_sc_hd__clkdlybuf4s25_1
*CAP
1 gpio_oeb[3] 0.000408399
2 *5229:X 0.000408399
3 gpio_oeb[3] gpio_oeb[5] 5.51946e-05
4 gpio_oeb[3] gpio_oeb[6] 0.000216517
5 gpio_oeb[31] gpio_oeb[3] 0.000216517
*RES
1 *5229:X gpio_oeb[3] 9.60217 
*END

*D_NET *66 0.00125119
*CONN
*P gpio_oeb[4] O
*I *5230:X O *D sky130_fd_sc_hd__clkdlybuf4s25_1
*CAP
1 gpio_oeb[4] 0.000354265
2 *5230:X 0.000354265
3 gpio_oeb[4] *5214:A 0
4 gpio_oeb[20] gpio_oeb[4] 4.9185e-05
5 gpio_oeb[22] gpio_oeb[4] 0.000149216
6 gpio_oeb[29] gpio_oeb[4] 0.000344262
*RES
1 *5230:X gpio_oeb[4] 6.75677 
*END

*D_NET *67 0.00168058
*CONN
*P gpio_oeb[5] O
*I *5231:X O *D sky130_fd_sc_hd__clkdlybuf4s25_1
*CAP
1 gpio_oeb[5] 0.000385839
2 *5231:X 0.000385839
3 gpio_oeb[5] gpio_oeb[6] 0.00023571
4 gpio_oeb[5] *5149:A 0.000253495
5 gpio_oeb[5] *5229:A 0.000124895
6 gpio_oeb[33] gpio_oeb[5] 0.000239609
7 gpio_oeb[3] gpio_oeb[5] 5.51946e-05
*RES
1 *5231:X gpio_oeb[5] 10.8154 
*END

*D_NET *68 0.0021349
*CONN
*P gpio_oeb[6] O
*I *5232:X O *D sky130_fd_sc_hd__clkdlybuf4s25_1
*CAP
1 gpio_oeb[6] 0.000778312
2 *5232:X 0.000778312
3 gpio_oeb[6] *5226:A 4.99619e-05
4 gpio_oeb[12] gpio_oeb[6] 0
5 gpio_oeb[31] gpio_oeb[6] 6.41273e-05
6 gpio_oeb[33] gpio_oeb[6] 1.19648e-05
7 gpio_oeb[3] gpio_oeb[6] 0.000216517
8 gpio_oeb[5] gpio_oeb[6] 0.00023571
*RES
1 *5232:X gpio_oeb[6] 11.84 
*END

*D_NET *69 0.00160295
*CONN
*P gpio_oeb[7] O
*I *5233:X O *D sky130_fd_sc_hd__clkdlybuf4s25_1
*CAP
1 gpio_oeb[7] 0.000474753
2 *5233:X 0.000474753
3 gpio_oeb[7] gpio_oeb[8] 0.000216517
4 gpio_oeb[7] gpio_oeb[9] 9.26632e-05
5 gpio_oeb[12] gpio_oeb[7] 0
6 gpio_oeb[30] gpio_oeb[7] 0.000344262
*RES
1 *5233:X gpio_oeb[7] 7.80503 
*END

*D_NET *70 0.00114763
*CONN
*P gpio_oeb[8] O
*I *5234:X O *D sky130_fd_sc_hd__clkdlybuf4s25_1
*CAP
1 gpio_oeb[8] 0.000351759
2 *5234:X 0.000351759
3 gpio_oeb[8] gpio_oeb[9] 0.000227591
4 gpio_oeb[7] gpio_oeb[8] 0.000216517
*RES
1 *5234:X gpio_oeb[8] 8.83717 
*END

*D_NET *71 0.00238394
*CONN
*P gpio_oeb[9] O
*I *5235:X O *D sky130_fd_sc_hd__clkdlybuf4s25_1
*CAP
1 gpio_oeb[9] 0.000902918
2 *5235:X 0.000902918
3 gpio_oeb[9] *1014:33 0
4 gpio_oeb[0] gpio_oeb[9] 6.96872e-06
5 gpio_oeb[25] gpio_oeb[9] 0.000250884
6 gpio_oeb[7] gpio_oeb[9] 9.26632e-05
7 gpio_oeb[8] gpio_oeb[9] 0.000227591
*RES
1 *5235:X gpio_oeb[9] 6.4377 
*END

*D_NET *72 0.00236041
*CONN
*P gpio_out[0] O
*I *5236:X O *D sky130_fd_sc_hd__clkdlybuf4s25_1
*CAP
1 gpio_out[0] 0.000702562
2 *5236:X 0.000702562
3 gpio_out[0] gpio_out[10] 0.000145997
4 gpio_out[0] gpio_out[16] 0.000756644
5 gpio_out[0] gpio_out[32] 1.32141e-05
6 gpio_out[0] *5237:A 1.88656e-05
7 gpio_out[0] *995:119 2.05641e-05
8 *3:7 gpio_out[0] 0
*RES
1 *5236:X gpio_out[0] 6.14637 
*END

*D_NET *73 0.00130332
*CONN
*P gpio_out[10] O
*I *5237:X O *D sky130_fd_sc_hd__clkdlybuf4s25_1
*CAP
1 gpio_out[10] 0.000499846
2 *5237:X 0.000499846
3 gpio_out[10] gpio_out[14] 8.41015e-06
4 gpio_out[10] gpio_out[32] 0.000149216
5 gpio_out[0] gpio_out[10] 0.000145997
*RES
1 *5237:X gpio_out[10] 10.9724 
*END

*D_NET *74 0.00171955
*CONN
*P gpio_out[11] O
*I *5238:X O *D sky130_fd_sc_hd__clkdlybuf4s25_1
*CAP
1 gpio_out[11] 0.00054371
2 *5238:X 0.00054371
3 gpio_out[11] gpio_out[23] 0.000177043
4 gpio_out[11] gpio_out[6] 0.000273359
5 gpio_out[11] gpio_out[7] 5.51896e-05
6 gpio_out[11] *5251:A 1.16854e-05
7 gpio_out[11] *5266:A 0.000114852
*RES
1 *5238:X gpio_out[11] 14.1143 
*END

*D_NET *75 0.00192527
*CONN
*P gpio_out[12] O
*I *5239:X O *D sky130_fd_sc_hd__clkdlybuf4s25_1
*CAP
1 gpio_out[12] 0.000610411
2 *5239:X 0.000610411
3 gpio_out[12] gpio_out[17] 4.82103e-05
4 gpio_out[12] gpio_out[18] 0
5 gpio_out[12] gpio_out[1] 0
6 gpio_out[12] gpio_out[20] 0.000114852
7 gpio_out[12] gpio_out[23] 0.000102203
8 gpio_out[12] gpio_out[6] 0.000315594
9 gpio_out[12] gpio_out[7] 0
10 gpio_out[12] *5248:A 0.000123592
11 gpio_out[12] *5266:A 0
*RES
1 *5239:X gpio_out[12] 13.3654 
*END

*D_NET *76 0.00233349
*CONN
*P gpio_out[13] O
*I *5240:X O *D sky130_fd_sc_hd__clkdlybuf4s25_1
*CAP
1 gpio_out[13] 0.000703382
2 *5240:X 0.000703382
3 gpio_out[13] gpio_out[22] 0
4 gpio_out[13] gpio_out[28] 0.000333425
5 gpio_out[13] gpio_out[29] 0
6 gpio_out[13] gpio_out[30] 0.000342721
7 gpio_out[13] *5250:A 0.000192635
8 gpio_out[13] *5262:A 5.79443e-05
*RES
1 *5240:X gpio_out[13] 10.88 
*END

*D_NET *77 0.00151828
*CONN
*P gpio_out[14] O
*I *5241:X O *D sky130_fd_sc_hd__clkdlybuf4s25_1
*CAP
1 gpio_out[14] 0.000468716
2 *5241:X 0.000468716
3 gpio_out[14] gpio_out[16] 0.000192331
4 gpio_out[14] gpio_out[22] 1.93765e-05
5 gpio_out[14] gpio_out[29] 5.82237e-05
6 gpio_out[14] gpio_out[31] 0.000302506
7 gpio_out[14] *5250:A 0
8 gpio_out[10] gpio_out[14] 8.41015e-06
*RES
1 *5241:X gpio_out[14] 11.4189 
*END

*D_NET *78 0.00203839
*CONN
*P gpio_out[15] O
*I *5242:X O *D sky130_fd_sc_hd__clkdlybuf4s25_1
*CAP
1 gpio_out[15] 0.000423491
2 *5242:X 0.000423491
3 gpio_out[15] gpio_out[19] 0.000175306
4 gpio_out[15] gpio_out[21] 1.75902e-05
5 gpio_out[15] gpio_out[25] 5.51896e-05
6 gpio_out[15] gpio_out[27] 0.000103813
7 gpio_out[15] gpio_out[3] 0.000344385
8 gpio_out[15] gpio_out[5] 0.000164925
9 gpio_out[15] gpio_out[7] 0.000106444
10 gpio_out[15] gpio_out[9] 0.000223757
*RES
1 *5242:X gpio_out[15] 13.4906 
*END

*D_NET *79 0.00229269
*CONN
*P gpio_out[16] O
*I *5243:X O *D sky130_fd_sc_hd__clkdlybuf4s25_1
*CAP
1 gpio_out[16] 0.000581941
2 *5243:X 0.000581941
3 gpio_out[16] gpio_out[29] 0
4 gpio_out[16] *5037:A 0
5 gpio_out[16] *5237:A 0.000105806
6 gpio_out[16] *5248:A 7.4027e-05
7 gpio_out[0] gpio_out[16] 0.000756644
8 gpio_out[14] gpio_out[16] 0.000192331
*RES
1 *5243:X gpio_out[16] 6.8877 
*END

*D_NET *80 0.00188818
*CONN
*P gpio_out[17] O
*I *5244:X O *D sky130_fd_sc_hd__clkdlybuf4s25_1
*CAP
1 gpio_out[17] 0.000526945
2 *5244:X 0.000526945
3 gpio_out[17] gpio_out[1] 0
4 gpio_out[17] gpio_out[20] 0.000210231
5 gpio_out[17] gpio_out[2] 0.000233557
6 gpio_out[17] gpio_out[6] 0.000313596
7 gpio_out[17] *5258:A 2.86975e-05
8 gpio_out[12] gpio_out[17] 4.82103e-05
*RES
1 *5244:X gpio_out[17] 12.1072 
*END

*D_NET *81 0.00247447
*CONN
*P gpio_out[18] O
*I *5245:X O *D sky130_fd_sc_hd__clkdlybuf4s25_1
*CAP
1 gpio_out[18] 0.00106535
2 *5245:X 0.00106535
3 gpio_out[18] gpio_out[3] 0.000181313
4 gpio_out[18] gpio_out[5] 0
5 gpio_out[18] gpio_out[7] 0.000141418
6 gpio_out[18] *997:58 2.10433e-05
7 gpio_out[12] gpio_out[18] 0
*RES
1 *5245:X gpio_out[18] 6.32117 
*END

*D_NET *82 0.00177331
*CONN
*P gpio_out[19] O
*I *5246:X O *D sky130_fd_sc_hd__clkdlybuf4s25_1
*CAP
1 gpio_out[19] 0.000481526
2 *5246:X 0.000481526
3 gpio_out[19] gpio_out[21] 0
4 gpio_out[19] gpio_out[27] 0.000145317
5 gpio_out[19] gpio_out[9] 0.000267953
6 gpio_out[19] la_data_out[13] 0.00020166
7 done gpio_out[19] 2.00196e-05
8 gpio_out[15] gpio_out[19] 0.000175306
*RES
1 *5246:X gpio_out[19] 12.4389 
*END

*D_NET *83 0.00223283
*CONN
*P gpio_out[1] O
*I *5247:X O *D sky130_fd_sc_hd__clkdlybuf4s25_1
*CAP
1 gpio_out[1] 0.000837295
2 *5247:X 0.000837295
3 gpio_out[1] gpio_out[20] 3.32337e-05
4 gpio_out[1] gpio_out[28] 0.000131354
5 gpio_out[1] gpio_out[2] 0.000142098
6 gpio_out[1] gpio_out[30] 0
7 gpio_out[1] gpio_out[4] 0.000102203
8 gpio_out[1] *5037:B 4.34365e-05
9 gpio_out[1] *998:75 0.000105911
10 gpio_out[12] gpio_out[1] 0
11 gpio_out[17] gpio_out[1] 0
*RES
1 *5247:X gpio_out[1] 7.17903 
*END

*D_NET *84 0.00192325
*CONN
*P gpio_out[20] O
*I *5248:X O *D sky130_fd_sc_hd__clkdlybuf4s25_1
*CAP
1 gpio_out[20] 0.000405879
2 *5248:X 0.000405879
3 gpio_out[20] gpio_out[23] 5.80149e-05
4 gpio_out[20] gpio_out[2] 0.000281556
5 gpio_out[20] gpio_out[4] 0.000102203
6 gpio_out[20] gpio_out[6] 0.000311407
7 gpio_out[12] gpio_out[20] 0.000114852
8 gpio_out[17] gpio_out[20] 0.000210231
9 gpio_out[1] gpio_out[20] 3.32337e-05
*RES
1 *5248:X gpio_out[20] 12.9806 
*END

*D_NET *85 0.00149272
*CONN
*P gpio_out[21] O
*I *5249:X O *D sky130_fd_sc_hd__clkdlybuf4s25_1
*CAP
1 gpio_out[21] 0.000683987
2 *5249:X 0.000683987
3 gpio_out[21] gpio_out[27] 0
4 gpio_out[21] gpio_out[5] 5.19701e-05
5 gpio_out[21] gpio_out[9] 5.51896e-05
6 gpio_out[15] gpio_out[21] 1.75902e-05
7 gpio_out[19] gpio_out[21] 0
*RES
1 *5249:X gpio_out[21] 14.1593 
*END

*D_NET *86 0.00192996
*CONN
*P gpio_out[22] O
*I *5250:X O *D sky130_fd_sc_hd__clkdlybuf4s25_1
*CAP
1 gpio_out[22] 0.000529151
2 *5250:X 0.000529151
3 gpio_out[22] gpio_out[29] 0.000233012
4 gpio_out[22] gpio_out[2] 0.000197837
5 gpio_out[22] gpio_out[30] 0.000161697
6 gpio_out[22] gpio_out[31] 0.00019494
7 gpio_out[22] gpio_out[33] 6.47983e-05
8 gpio_out[22] gpio_out[4] 0
9 gpio_out[22] *5250:A 0
10 gpio_out[13] gpio_out[22] 0
11 gpio_out[14] gpio_out[22] 1.93765e-05
*RES
1 *5250:X gpio_out[22] 13.7456 
*END

*D_NET *87 0.00156772
*CONN
*P gpio_out[23] O
*I *5251:X O *D sky130_fd_sc_hd__clkdlybuf4s25_1
*CAP
1 gpio_out[23] 0.00051994
2 *5251:X 0.00051994
3 gpio_out[23] gpio_out[25] 1.03755e-05
4 gpio_out[23] gpio_out[6] 0
5 gpio_out[23] gpio_out[7] 0.000180201
6 gpio_out[11] gpio_out[23] 0.000177043
7 gpio_out[12] gpio_out[23] 0.000102203
8 gpio_out[20] gpio_out[23] 5.80149e-05
*RES
1 *5251:X gpio_out[23] 13.5858 
*END

*D_NET *88 0.00105028
*CONN
*P gpio_out[24] O
*I *5252:X O *D sky130_fd_sc_hd__clkdlybuf4s25_1
*CAP
1 gpio_out[24] 0.00028692
2 *5252:X 0.00028692
3 gpio_out[24] gpio_out[8] 0.000236833
4 gpio_out[24] *1382:DIODE 0.000239609
*RES
1 *5252:X gpio_out[24] 7.27543 
*END

*D_NET *89 0.00169253
*CONN
*P gpio_out[25] O
*I *5253:X O *D sky130_fd_sc_hd__clkdlybuf4s25_1
*CAP
1 gpio_out[25] 0.000598982
2 *5253:X 0.000598982
3 gpio_out[25] gpio_out[3] 5.51896e-05
4 gpio_out[25] gpio_out[7] 0.000345109
5 gpio_out[25] *5267:A 2.86975e-05
6 gpio_out[15] gpio_out[25] 5.51896e-05
7 gpio_out[23] gpio_out[25] 1.03755e-05
*RES
1 *5253:X gpio_out[25] 14.1143 
*END

*D_NET *90 0.00111079
*CONN
*P gpio_out[26] O
*I *5254:X O *D sky130_fd_sc_hd__clkdlybuf4s25_1
*CAP
1 gpio_out[26] 0.000224535
2 *5254:X 0.000224535
3 gpio_out[26] gpio_out[8] 0.000335091
4 *3:7 gpio_out[26] 0.000326627
*RES
1 *5254:X gpio_out[26] 5.73677 
*END

*D_NET *91 0.00219611
*CONN
*P gpio_out[27] O
*I *5255:X O *D sky130_fd_sc_hd__clkdlybuf4s25_1
*CAP
1 gpio_out[27] 0.00054527
2 *5255:X 0.00054527
3 gpio_out[27] gpio_out[3] 0
4 gpio_out[27] gpio_out[9] 0.000499508
5 gpio_out[27] *5242:A 0.000214836
6 done gpio_out[27] 0.000142098
7 gpio_out[15] gpio_out[27] 0.000103813
8 gpio_out[19] gpio_out[27] 0.000145317
9 gpio_out[21] gpio_out[27] 0
*RES
1 *5255:X gpio_out[27] 13.6874 
*END

*D_NET *92 0.00212852
*CONN
*P gpio_out[28] O
*I *5256:X O *D sky130_fd_sc_hd__clkdlybuf4s25_1
*CAP
1 gpio_out[28] 0.000666436
2 *5256:X 0.000666436
3 gpio_out[28] gpio_out[2] 0.000145317
4 gpio_out[28] gpio_out[30] 3.29592e-05
5 gpio_out[28] *5248:A 0.00015259
6 gpio_out[28] *5250:A 0
7 gpio_out[13] gpio_out[28] 0.000333425
8 gpio_out[1] gpio_out[28] 0.000131354
*RES
1 *5256:X gpio_out[28] 8.7529 
*END

*D_NET *93 0.00184133
*CONN
*P gpio_out[29] O
*I *5257:X O *D sky130_fd_sc_hd__clkdlybuf4s25_1
*CAP
1 gpio_out[29] 0.000582686
2 *5257:X 0.000582686
3 gpio_out[29] gpio_out[30] 3.24649e-05
4 gpio_out[29] gpio_out[31] 0.000221356
5 gpio_out[29] gpio_out[33] 0.000102203
6 gpio_out[29] *5250:A 0
7 gpio_out[29] *5260:A 2.86975e-05
8 gpio_out[13] gpio_out[29] 0
9 gpio_out[14] gpio_out[29] 5.82237e-05
10 gpio_out[16] gpio_out[29] 0
11 gpio_out[22] gpio_out[29] 0.000233012
*RES
1 *5257:X gpio_out[29] 12.8404 
*END

*D_NET *94 0.00213082
*CONN
*P gpio_out[2] O
*I *5258:X O *D sky130_fd_sc_hd__clkdlybuf4s25_1
*CAP
1 gpio_out[2] 0.000506374
2 *5258:X 0.000506374
3 gpio_out[2] gpio_out[33] 8.41015e-06
4 gpio_out[2] gpio_out[4] 0.000109297
5 gpio_out[17] gpio_out[2] 0.000233557
6 gpio_out[1] gpio_out[2] 0.000142098
7 gpio_out[20] gpio_out[2] 0.000281556
8 gpio_out[22] gpio_out[2] 0.000197837
9 gpio_out[28] gpio_out[2] 0.000145317
*RES
1 *5258:X gpio_out[2] 14.0324 
*END

*D_NET *95 0.0024223
*CONN
*P gpio_out[30] O
*I *5259:X O *D sky130_fd_sc_hd__clkdlybuf4s25_1
*CAP
1 gpio_out[30] 0.000833585
2 *5259:X 0.000833585
3 gpio_out[30] *5248:A 0.000106973
4 gpio_out[30] *5250:A 0
5 gpio_out[30] *5258:A 6.3124e-06
6 gpio_out[30] *5260:A 7.20038e-05
7 gpio_out[13] gpio_out[30] 0.000342721
8 gpio_out[1] gpio_out[30] 0
9 gpio_out[22] gpio_out[30] 0.000161697
10 gpio_out[28] gpio_out[30] 3.29592e-05
11 gpio_out[29] gpio_out[30] 3.24649e-05
*RES
1 *5259:X gpio_out[30] 9.29117 
*END

*D_NET *96 0.00184138
*CONN
*P gpio_out[31] O
*I *5260:X O *D sky130_fd_sc_hd__clkdlybuf4s25_1
*CAP
1 gpio_out[31] 0.000406517
2 *5260:X 0.000406517
3 gpio_out[31] gpio_out[33] 0.000309542
4 gpio_out[14] gpio_out[31] 0.000302506
5 gpio_out[22] gpio_out[31] 0.00019494
6 gpio_out[29] gpio_out[31] 0.000221356
*RES
1 *5260:X gpio_out[31] 13.0124 
*END

*D_NET *97 0.000916478
*CONN
*P gpio_out[32] O
*I *5261:X O *D sky130_fd_sc_hd__clkdlybuf4s25_1
*CAP
1 gpio_out[32] 0.000290662
2 *5261:X 0.000290662
3 gpio_out[0] gpio_out[32] 1.32141e-05
4 gpio_out[10] gpio_out[32] 0.000149216
5 *3:7 gpio_out[32] 0.000172723
*RES
1 *5261:X gpio_out[32] 7.62563 
*END

*D_NET *98 0.00172212
*CONN
*P gpio_out[33] O
*I *5262:X O *D sky130_fd_sc_hd__clkdlybuf4s25_1
*CAP
1 gpio_out[33] 0.000618582
2 *5262:X 0.000618582
3 gpio_out[22] gpio_out[33] 6.47983e-05
4 gpio_out[29] gpio_out[33] 0.000102203
5 gpio_out[2] gpio_out[33] 8.41015e-06
6 gpio_out[31] gpio_out[33] 0.000309542
*RES
1 *5262:X gpio_out[33] 14.6058 
*END

*D_NET *99 0.00174722
*CONN
*P gpio_out[3] O
*I *5263:X O *D sky130_fd_sc_hd__clkdlybuf4s25_1
*CAP
1 gpio_out[3] 0.000527965
2 *5263:X 0.000527965
3 gpio_out[3] gpio_out[5] 0
4 gpio_out[3] gpio_out[7] 0.000101995
5 gpio_out[3] gpio_out[9] 8.41015e-06
6 gpio_out[15] gpio_out[3] 0.000344385
7 gpio_out[18] gpio_out[3] 0.000181313
8 gpio_out[25] gpio_out[3] 5.51896e-05
9 gpio_out[27] gpio_out[3] 0
*RES
1 *5263:X gpio_out[3] 12.4389 
*END

*D_NET *100 0.00201559
*CONN
*P gpio_out[4] O
*I *5264:X O *D sky130_fd_sc_hd__clkdlybuf4s25_1
*CAP
1 gpio_out[4] 0.000737709
2 *5264:X 0.000737709
3 gpio_out[4] *5016:A_N 8.40269e-05
4 gpio_out[4] *5016:C 0.000136325
5 gpio_out[4] *5266:A 6.11525e-06
6 gpio_out[1] gpio_out[4] 0.000102203
7 gpio_out[20] gpio_out[4] 0.000102203
8 gpio_out[22] gpio_out[4] 0
9 gpio_out[2] gpio_out[4] 0.000109297
*RES
1 *5264:X gpio_out[4] 14.3208 
*END

*D_NET *101 0.00213858
*CONN
*P gpio_out[5] O
*I *5265:X O *D sky130_fd_sc_hd__clkdlybuf4s25_1
*CAP
1 gpio_out[5] 0.000915396
2 *5265:X 0.000915396
3 gpio_out[5] gpio_out[9] 9.0897e-05
4 done gpio_out[5] 0
5 gpio_out[15] gpio_out[5] 0.000164925
6 gpio_out[18] gpio_out[5] 0
7 gpio_out[21] gpio_out[5] 5.19701e-05
8 gpio_out[3] gpio_out[5] 0
*RES
1 *5265:X gpio_out[5] 10.88 
*END

*D_NET *102 0.00202175
*CONN
*P gpio_out[6] O
*I *5266:X O *D sky130_fd_sc_hd__clkdlybuf4s25_1
*CAP
1 gpio_out[6] 0.000373761
2 *5266:X 0.000373761
3 gpio_out[6] gpio_out[7] 6.02762e-05
4 gpio_out[6] *5266:A 0
5 gpio_out[11] gpio_out[6] 0.000273359
6 gpio_out[12] gpio_out[6] 0.000315594
7 gpio_out[17] gpio_out[6] 0.000313596
8 gpio_out[20] gpio_out[6] 0.000311407
9 gpio_out[23] gpio_out[6] 0
*RES
1 *5266:X gpio_out[6] 12.4389 
*END

*D_NET *103 0.0018702
*CONN
*P gpio_out[7] O
*I *5267:X O *D sky130_fd_sc_hd__clkdlybuf4s25_1
*CAP
1 gpio_out[7] 0.000439781
2 *5267:X 0.000439781
3 gpio_out[11] gpio_out[7] 5.51896e-05
4 gpio_out[12] gpio_out[7] 0
5 gpio_out[15] gpio_out[7] 0.000106444
6 gpio_out[18] gpio_out[7] 0.000141418
7 gpio_out[23] gpio_out[7] 0.000180201
8 gpio_out[25] gpio_out[7] 0.000345109
9 gpio_out[3] gpio_out[7] 0.000101995
10 gpio_out[6] gpio_out[7] 6.02762e-05
*RES
1 *5267:X gpio_out[7] 13.0124 
*END

*D_NET *104 0.00168519
*CONN
*P gpio_out[8] O
*I *5268:X O *D sky130_fd_sc_hd__clkdlybuf4s25_1
*CAP
1 gpio_out[8] 0.000511879
2 *5268:X 0.000511879
3 gpio_out[8] *1382:DIODE 8.95101e-05
4 gpio_out[8] *5043:B 0
5 gpio_out[24] gpio_out[8] 0.000236833
6 gpio_out[26] gpio_out[8] 0.000335091
*RES
1 *5268:X gpio_out[8] 6.7129 
*END

*D_NET *105 0.00198763
*CONN
*P gpio_out[9] O
*I *5269:X O *D sky130_fd_sc_hd__clkdlybuf4s25_1
*CAP
1 gpio_out[9] 0.000396493
2 *5269:X 0.000396493
3 gpio_out[9] *5242:A 4.89295e-05
4 done gpio_out[9] 0
5 gpio_out[15] gpio_out[9] 0.000223757
6 gpio_out[19] gpio_out[9] 0.000267953
7 gpio_out[21] gpio_out[9] 5.51896e-05
8 gpio_out[27] gpio_out[9] 0.000499508
9 gpio_out[3] gpio_out[9] 8.41015e-06
10 gpio_out[5] gpio_out[9] 9.0897e-05
*RES
1 *5269:X gpio_out[9] 12.0754 
*END

*D_NET *106 0.00204363
*CONN
*P la_data_in[0] I
*I *5180:A I *D sky130_fd_sc_hd__clkdlybuf4s25_1
*I *1380:DIODE I *D sky130_fd_sc_hd__diode_2
*CAP
1 la_data_in[0] 0.00032963
2 *5180:A 0
3 *1380:DIODE 0.000328833
4 *106:13 0.000658464
5 *1380:DIODE *1383:DIODE 0.000108544
6 *1380:DIODE *181:13 4.6368e-06
7 *1380:DIODE *1073:12 4.77757e-05
8 *106:13 *117:11 0.000236833
9 *106:13 *181:13 0.000322118
10 gpio_oeb[19] *106:13 6.80001e-06
*RES
1 la_data_in[0] *106:13 7.20543 
2 *106:13 *1380:DIODE 10.1 
3 *106:13 *5180:A 1.6 
*END

*D_NET *117 0.00161455
*CONN
*P la_data_in[1] I
*I *5182:A I *D sky130_fd_sc_hd__clkdlybuf4s25_1
*I *1381:DIODE I *D sky130_fd_sc_hd__diode_2
*CAP
1 la_data_in[1] 0.000326936
2 *5182:A 0
3 *1381:DIODE 0.000184262
4 *117:11 0.000511197
5 *1381:DIODE *1051:6 2.86975e-05
6 *117:11 *1382:DIODE 0.000326627
7 *106:13 *117:11 0.000236833
*RES
1 la_data_in[1] *117:11 4.90177 
2 *117:11 *1381:DIODE 4.465 
3 *117:11 *5182:A 1.6 
*END

*D_NET *138 0.000792534
*CONN
*P la_data_out[0] O
*I *5270:LO O *D sky130_fd_sc_hd__conb_1
*CAP
1 la_data_out[0] 0.000396267
2 *5270:LO 0.000396267
3 la_data_out[0] la_data_out[26] 0
*RES
1 *5270:LO la_data_out[0] 9.5693 
*END

*D_NET *139 0.00112493
*CONN
*P la_data_out[10] O
*I *5280:LO O *D sky130_fd_sc_hd__conb_1
*CAP
1 la_data_out[10] 0.000451266
2 *5280:LO 0.000451266
3 la_data_out[10] la_data_out[6] 4.96793e-05
4 la_data_out[10] la_data_out[8] 0.000172723
*RES
1 *5280:LO la_data_out[10] 6.24677 
*END

*D_NET *140 0.00114497
*CONN
*P la_data_out[11] O
*I *5281:LO O *D sky130_fd_sc_hd__conb_1
*CAP
1 la_data_out[11] 0.000572485
2 *5281:LO 0.000572485
3 la_data_out[11] la_data_out[17] 0
*RES
1 *5281:LO la_data_out[11] 13.59 
*END

*D_NET *141 0.00108367
*CONN
*P la_data_out[12] O
*I *5282:LO O *D sky130_fd_sc_hd__conb_1
*CAP
1 la_data_out[12] 0.000541837
2 *5282:LO 0.000541837
*RES
1 *5282:LO la_data_out[12] 13.05 
*END

*D_NET *142 0.00150166
*CONN
*P la_data_out[13] O
*I *5283:LO O *D sky130_fd_sc_hd__conb_1
*CAP
1 la_data_out[13] 0.000567199
2 *5283:LO 0.000567199
3 done la_data_out[13] 0.000165605
4 gpio_out[19] la_data_out[13] 0.00020166
*RES
1 *5283:LO la_data_out[13] 12.2156 
*END

*D_NET *143 0.00108367
*CONN
*P la_data_out[14] O
*I *5284:LO O *D sky130_fd_sc_hd__conb_1
*CAP
1 la_data_out[14] 0.000541837
2 *5284:LO 0.000541837
*RES
1 *5284:LO la_data_out[14] 13.05 
*END

*D_NET *144 0.00120127
*CONN
*P la_data_out[15] O
*I *5285:LO O *D sky130_fd_sc_hd__conb_1
*CAP
1 la_data_out[15] 0.000400441
2 *5285:LO 0.000400441
3 la_data_out[15] la_data_out[1] 0.000334318
4 la_data_out[15] la_data_out[21] 6.60704e-05
*RES
1 *5285:LO la_data_out[15] 8.85217 
*END

*D_NET *145 0.000749643
*CONN
*P la_data_out[16] O
*I *5286:LO O *D sky130_fd_sc_hd__conb_1
*CAP
1 la_data_out[16] 0.000374821
2 *5286:LO 0.000374821
3 la_data_out[16] la_data_out[22] 0
*RES
1 *5286:LO la_data_out[16] 7.83877 
*END

*D_NET *146 0.00114497
*CONN
*P la_data_out[17] O
*I *5287:LO O *D sky130_fd_sc_hd__conb_1
*CAP
1 la_data_out[17] 0.000572485
2 *5287:LO 0.000572485
3 la_data_out[11] la_data_out[17] 0
*RES
1 *5287:LO la_data_out[17] 13.59 
*END

*D_NET *147 0.00108367
*CONN
*P la_data_out[18] O
*I *5288:LO O *D sky130_fd_sc_hd__conb_1
*CAP
1 la_data_out[18] 0.000541837
2 *5288:LO 0.000541837
3 la_data_out[18] la_data_out[2] 0
*RES
1 *5288:LO la_data_out[18] 13.05 
*END

*D_NET *148 0.00114497
*CONN
*P la_data_out[19] O
*I *5289:LO O *D sky130_fd_sc_hd__conb_1
*CAP
1 la_data_out[19] 0.000572485
2 *5289:LO 0.000572485
*RES
1 *5289:LO la_data_out[19] 13.59 
*END

*D_NET *149 0.00112161
*CONN
*P la_data_out[1] O
*I *5271:LO O *D sky130_fd_sc_hd__conb_1
*CAP
1 la_data_out[1] 0.000342546
2 *5271:LO 0.000342546
3 la_data_out[1] la_data_out[21] 0.000102203
4 la_data_out[15] la_data_out[1] 0.000334318
*RES
1 *5271:LO la_data_out[1] 10.0158 
*END

*D_NET *150 0.00114497
*CONN
*P la_data_out[20] O
*I *5290:LO O *D sky130_fd_sc_hd__conb_1
*CAP
1 la_data_out[20] 0.000572485
2 *5290:LO 0.000572485
3 la_data_out[20] la_data_out[3] 0
*RES
1 *5290:LO la_data_out[20] 13.59 
*END

*D_NET *151 0.00119698
*CONN
*P la_data_out[21] O
*I *5291:LO O *D sky130_fd_sc_hd__conb_1
*CAP
1 la_data_out[21] 0.00033799
2 *5291:LO 0.00033799
3 la_data_out[21] la_data_out[26] 0.000352726
4 la_data_out[15] la_data_out[21] 6.60704e-05
5 la_data_out[1] la_data_out[21] 0.000102203
*RES
1 *5291:LO la_data_out[21] 6.08003 
*END

*D_NET *152 0.000749643
*CONN
*P la_data_out[22] O
*I *5292:LO O *D sky130_fd_sc_hd__conb_1
*CAP
1 la_data_out[22] 0.000374821
2 *5292:LO 0.000374821
3 la_data_out[16] la_data_out[22] 0
*RES
1 *5292:LO la_data_out[22] 7.83877 
*END

*D_NET *153 0.00108367
*CONN
*P la_data_out[23] O
*I *5293:LO O *D sky130_fd_sc_hd__conb_1
*CAP
1 la_data_out[23] 0.000541837
2 *5293:LO 0.000541837
*RES
1 *5293:LO la_data_out[23] 13.05 
*END

*D_NET *154 0.000863423
*CONN
*P la_data_out[24] O
*I *5294:LO O *D sky130_fd_sc_hd__conb_1
*CAP
1 la_data_out[24] 0.00034696
2 *5294:LO 0.00034696
3 la_data_out[24] la_data_out[28] 0.000169504
*RES
1 *5294:LO la_data_out[24] 8.13563 
*END

*D_NET *155 0.000749643
*CONN
*P la_data_out[25] O
*I *5295:LO O *D sky130_fd_sc_hd__conb_1
*CAP
1 la_data_out[25] 0.000374821
2 *5295:LO 0.000374821
*RES
1 *5295:LO la_data_out[25] 7.83877 
*END

*D_NET *156 0.00109777
*CONN
*P la_data_out[26] O
*I *5296:LO O *D sky130_fd_sc_hd__conb_1
*CAP
1 la_data_out[26] 0.000372523
2 *5296:LO 0.000372523
3 la_data_out[0] la_data_out[26] 0
4 la_data_out[21] la_data_out[26] 0.000352726
*RES
1 *5296:LO la_data_out[26] 6.24677 
*END

*D_NET *157 0.00114497
*CONN
*P la_data_out[27] O
*I *5297:LO O *D sky130_fd_sc_hd__conb_1
*CAP
1 la_data_out[27] 0.000572485
2 *5297:LO 0.000572485
*RES
1 *5297:LO la_data_out[27] 13.59 
*END

*D_NET *158 0.0014616
*CONN
*P la_data_out[28] O
*I *5298:LO O *D sky130_fd_sc_hd__conb_1
*CAP
1 la_data_out[28] 0.000462839
2 *5298:LO 0.000462839
3 la_data_out[28] la_data_out[30] 0.000353982
4 la_data_out[28] la_data_out[6] 1.24391e-05
5 la_data_out[24] la_data_out[28] 0.000169504
*RES
1 *5298:LO la_data_out[28] 7.10003 
*END

*D_NET *159 0.00108367
*CONN
*P la_data_out[29] O
*I *5299:LO O *D sky130_fd_sc_hd__conb_1
*CAP
1 la_data_out[29] 0.000541837
2 *5299:LO 0.000541837
*RES
1 *5299:LO la_data_out[29] 13.05 
*END

*D_NET *160 0.00108367
*CONN
*P la_data_out[2] O
*I *5272:LO O *D sky130_fd_sc_hd__conb_1
*CAP
1 la_data_out[2] 0.000541837
2 *5272:LO 0.000541837
3 la_data_out[18] la_data_out[2] 0
*RES
1 *5272:LO la_data_out[2] 13.05 
*END

*D_NET *161 0.00104415
*CONN
*P la_data_out[30] O
*I *5300:LO O *D sky130_fd_sc_hd__conb_1
*CAP
1 la_data_out[30] 0.000181092
2 *5300:LO 0.000181092
3 la_data_out[30] la_data_out[6] 0.000327985
4 la_data_out[28] la_data_out[30] 0.000353982
*RES
1 *5300:LO la_data_out[30] 5.22677 
*END

*D_NET *162 0.00114497
*CONN
*P la_data_out[31] O
*I *5301:LO O *D sky130_fd_sc_hd__conb_1
*CAP
1 la_data_out[31] 0.000572485
2 *5301:LO 0.000572485
3 la_data_out[31] la_data_out[5] 0
*RES
1 *5301:LO la_data_out[31] 13.59 
*END

*D_NET *163 0.00114497
*CONN
*P la_data_out[3] O
*I *5273:LO O *D sky130_fd_sc_hd__conb_1
*CAP
1 la_data_out[3] 0.000572485
2 *5273:LO 0.000572485
3 la_data_out[20] la_data_out[3] 0
*RES
1 *5273:LO la_data_out[3] 13.59 
*END

*D_NET *164 0.000945698
*CONN
*P la_data_out[4] O
*I *5274:LO O *D sky130_fd_sc_hd__conb_1
*CAP
1 la_data_out[4] 0.000376778
2 *5274:LO 0.000376778
3 la_data_out[4] *210:13 0.000192142
4 la_data_out[4] *211:13 0
*RES
1 *5274:LO la_data_out[4] 8.34877 
*END

*D_NET *165 0.00128984
*CONN
*P la_data_out[5] O
*I *5275:LO O *D sky130_fd_sc_hd__conb_1
*CAP
1 la_data_out[5] 0.000397173
2 *5275:LO 0.000397173
3 la_data_out[5] la_data_out[9] 0.000495494
4 la_data_out[31] la_data_out[5] 0
*RES
1 *5275:LO la_data_out[5] 13.59 
*END

*D_NET *166 0.00137227
*CONN
*P la_data_out[6] O
*I *5276:LO O *D sky130_fd_sc_hd__conb_1
*CAP
1 la_data_out[6] 0.00040472
2 *5276:LO 0.00040472
3 la_data_out[6] la_data_out[8] 0.000172723
4 la_data_out[10] la_data_out[6] 4.96793e-05
5 la_data_out[28] la_data_out[6] 1.24391e-05
6 la_data_out[30] la_data_out[6] 0.000327985
*RES
1 *5276:LO la_data_out[6] 6.93157 
*END

*D_NET *167 0.00114497
*CONN
*P la_data_out[7] O
*I *5277:LO O *D sky130_fd_sc_hd__conb_1
*CAP
1 la_data_out[7] 0.000572485
2 *5277:LO 0.000572485
*RES
1 *5277:LO la_data_out[7] 13.59 
*END

*D_NET *168 0.00090267
*CONN
*P la_data_out[8] O
*I *5278:LO O *D sky130_fd_sc_hd__conb_1
*CAP
1 la_data_out[8] 0.000278612
2 *5278:LO 0.000278612
3 la_data_out[10] la_data_out[8] 0.000172723
4 la_data_out[6] la_data_out[8] 0.000172723
*RES
1 *5278:LO la_data_out[8] 8.13563 
*END

*D_NET *169 0.00133954
*CONN
*P la_data_out[9] O
*I *5279:LO O *D sky130_fd_sc_hd__conb_1
*CAP
1 la_data_out[9] 0.000422023
2 *5279:LO 0.000422023
3 la_data_out[5] la_data_out[9] 0.000495494
*RES
1 *5279:LO la_data_out[9] 13.935 
*END

*D_NET *170 0.00188595
*CONN
*P la_oenb[0] I
*I *5183:A I *D sky130_fd_sc_hd__clkdlybuf4s25_1
*I *1382:DIODE I *D sky130_fd_sc_hd__diode_2
*CAP
1 la_oenb[0] 0.000540529
2 *5183:A 3.04398e-05
3 *1382:DIODE 0.000570969
4 *1382:DIODE *5254:A 0
5 *5183:A *5254:A 8.8266e-05
6 gpio_oeb[19] *1382:DIODE 0
7 gpio_out[24] *1382:DIODE 0.000239609
8 gpio_out[8] *1382:DIODE 8.95101e-05
9 *117:11 *1382:DIODE 0.000326627
*RES
1 la_oenb[0] *1382:DIODE 6.7129 
2 *1382:DIODE *5183:A 3.995 
*END

*D_NET *181 0.00267495
*CONN
*P la_oenb[1] I
*I *5184:A I *D sky130_fd_sc_hd__clkdlybuf4s25_1
*I *1383:DIODE I *D sky130_fd_sc_hd__diode_2
*CAP
1 la_oenb[1] 0.000322639
2 *5184:A 0
3 *1383:DIODE 0.00022712
4 *181:13 0.000549759
5 *1383:DIODE *5206:A 0.000162332
6 *1383:DIODE *5220:A 7.23533e-05
7 *1383:DIODE *1019:38 0
8 *1383:DIODE *1073:12 2.68526e-05
9 gpio_oeb[13] *181:13 0.000126304
10 gpio_oeb[18] *1383:DIODE 0.000311949
11 gpio_oeb[18] *181:13 0.000223822
12 gpio_oeb[19] *181:13 0.000216517
13 *1380:DIODE *1383:DIODE 0.000108544
14 *1380:DIODE *181:13 4.6368e-06
15 *106:13 *181:13 0.000322118
*RES
1 la_oenb[1] *181:13 8.76717 
2 *181:13 *1383:DIODE 11.885 
3 *181:13 *5184:A 1.6 
*END

*D_NET *202 0.00101701
*CONN
*P nrst I
*I *5185:A I *D sky130_fd_sc_hd__clkdlybuf4s25_1
*I *1384:DIODE I *D sky130_fd_sc_hd__diode_2
*CAP
1 nrst 0.000476772
2 *5185:A 3.17314e-05
3 *1384:DIODE 0.000508503
*RES
1 nrst *1384:DIODE 12.09 
2 *1384:DIODE *5185:A 3.65 
*END

*D_NET *203 0.00126603
*CONN
*P prescaler[0] I
*I *1386:DIODE I *D sky130_fd_sc_hd__diode_2
*I *5186:A I *D sky130_fd_sc_hd__buf_1
*CAP
1 prescaler[0] 0.000418768
2 *1386:DIODE 5.831e-05
3 *5186:A 0
4 *203:13 0.000477078
5 *1386:DIODE *1039:22 0.000162311
6 *1386:DIODE *1095:6 5.05521e-05
7 *1386:DIODE *1095:23 3.00381e-05
8 *203:13 *214:13 0
9 *203:13 *1038:12 6.89705e-05
*RES
1 prescaler[0] *203:13 5.79337 
2 *203:13 *5186:A 1.6 
3 *203:13 *1386:DIODE 3.43 
*END

*D_NET *204 0.00135777
*CONN
*P prescaler[10] I
*I *1388:DIODE I *D sky130_fd_sc_hd__diode_2
*I *5187:A I *D sky130_fd_sc_hd__clkdlybuf4s25_1
*CAP
1 prescaler[10] 0.000271397
2 *1388:DIODE 0.000177828
3 *5187:A 0
4 *204:13 0.000449225
5 *1388:DIODE *5154:A 4.99619e-05
6 *1388:DIODE *1106:10 2.0514e-05
7 *204:13 *205:9 0.000388847
*RES
1 prescaler[10] *204:13 4.51837 
2 *204:13 *5187:A 1.6 
3 *204:13 *1388:DIODE 4.465 
*END

*D_NET *205 0.00165104
*CONN
*P prescaler[11] I
*I *1389:DIODE I *D sky130_fd_sc_hd__diode_2
*I *5188:A I *D sky130_fd_sc_hd__buf_2
*CAP
1 prescaler[11] 0.000380014
2 *1389:DIODE 8.51447e-05
3 *5188:A 0
4 *205:9 0.000465159
5 *205:9 *206:13 0.000323468
6 *205:9 *207:15 8.41015e-06
7 *205:9 *1117:10 0
8 *205:9 *1117:14 0
9 *204:13 *205:9 0.000388847
*RES
1 prescaler[11] *205:9 5.44163 
2 *205:9 *5188:A 3.6 
3 *205:9 *1389:DIODE 4.98 
*END

*D_NET *206 0.00202273
*CONN
*P prescaler[12] I
*I *5170:A I *D sky130_fd_sc_hd__buf_2
*I *1366:DIODE I *D sky130_fd_sc_hd__diode_2
*CAP
1 prescaler[12] 0.000174358
2 *5170:A 0
3 *1366:DIODE 0.000110839
4 *206:13 0.000285196
5 *1366:DIODE *1368:DIODE 0.000198945
6 *1366:DIODE *207:15 8.3762e-05
7 *1366:DIODE *982:6 0.000198051
8 *1366:DIODE *982:17 0.000164874
9 *1366:DIODE *1117:34 3.23663e-05
10 *206:13 *207:15 0.000440935
11 *206:13 *216:7 9.93012e-06
12 *206:13 *1117:14 0
13 *205:9 *206:13 0.000323468
*RES
1 prescaler[12] *206:13 4.77337 
2 *206:13 *1366:DIODE 5.86 
3 *206:13 *5170:A 1.6 
*END

*D_NET *207 0.00196915
*CONN
*P prescaler[13] I
*I *1368:DIODE I *D sky130_fd_sc_hd__diode_2
*I *5171:A I *D sky130_fd_sc_hd__buf_1
*CAP
1 prescaler[13] 0.000366513
2 *1368:DIODE 3.90202e-05
3 *5171:A 0
4 *207:15 0.000405533
5 *1368:DIODE *1117:34 0.000109947
6 *207:15 *216:7 0.000305205
7 *207:15 *1117:14 0
8 *207:15 *1117:34 1.08758e-05
9 *1366:DIODE *1368:DIODE 0.000198945
10 *1366:DIODE *207:15 8.3762e-05
11 *205:9 *207:15 8.41015e-06
12 *206:13 *207:15 0.000440935
*RES
1 prescaler[13] *207:15 8.0751 
2 *207:15 *5171:A 1.6 
3 *207:15 *1368:DIODE 3.43 
*END

*D_NET *208 0.00101701
*CONN
*P prescaler[1] I
*I *5172:A I *D sky130_fd_sc_hd__clkdlybuf4s25_1
*I *1369:DIODE I *D sky130_fd_sc_hd__diode_2
*CAP
1 prescaler[1] 0.000476772
2 *5172:A 3.17314e-05
3 *1369:DIODE 0.000508503
*RES
1 prescaler[1] *1369:DIODE 12.09 
2 *1369:DIODE *5172:A 3.65 
*END

*D_NET *209 0.00105902
*CONN
*P prescaler[2] I
*I *5173:A I *D sky130_fd_sc_hd__clkdlybuf4s25_1
*I *1370:DIODE I *D sky130_fd_sc_hd__diode_2
*CAP
1 prescaler[2] 0.000476772
2 *5173:A 5.27404e-05
3 *1370:DIODE 0.000529512
*RES
1 prescaler[2] *1370:DIODE 12.09 
2 *1370:DIODE *5173:A 3.995 
*END

*D_NET *210 0.00106456
*CONN
*P prescaler[3] I
*I *1371:DIODE I *D sky130_fd_sc_hd__diode_2
*I *5174:A I *D sky130_fd_sc_hd__buf_2
*CAP
1 prescaler[3] 0.000332853
2 *1371:DIODE 7.68244e-05
3 *5174:A 0
4 *210:13 0.000409677
5 *1371:DIODE *4338:B 5.30673e-05
6 *210:13 *211:13 0
7 la_data_out[4] *210:13 0.000192142
*RES
1 prescaler[3] *210:13 4.51837 
2 *210:13 *5174:A 1.6 
3 *210:13 *1371:DIODE 3.085 
*END

*D_NET *211 0.00113856
*CONN
*P prescaler[4] I
*I *5175:A I *D sky130_fd_sc_hd__buf_1
*I *1372:DIODE I *D sky130_fd_sc_hd__diode_2
*CAP
1 prescaler[4] 0.000369071
2 *5175:A 0.000140238
3 *1372:DIODE 0
4 *211:13 0.000509309
5 *5175:A *5198:A 4.99619e-05
6 *5175:A *1032:14 6.99805e-05
7 *211:13 *213:13 0
8 la_data_out[4] *211:13 0
9 *210:13 *211:13 0
*RES
1 prescaler[4] *211:13 4.26337 
2 *211:13 *1372:DIODE 1.6 
3 *211:13 *5175:A 4.135 
*END

*D_NET *212 0.00119976
*CONN
*P prescaler[5] I
*I *1373:DIODE I *D sky130_fd_sc_hd__diode_2
*I *5176:A I *D sky130_fd_sc_hd__buf_1
*CAP
1 prescaler[5] 0.000319229
2 *1373:DIODE 5.50086e-05
3 *5176:A 0
4 *212:13 0.000374238
5 *1373:DIODE *1036:10 2.75229e-05
6 *1373:DIODE *1036:39 2.11084e-05
7 *212:13 *213:13 0.000402651
8 *212:13 *1036:39 0
*RES
1 prescaler[5] *212:13 5.28337 
2 *212:13 *5176:A 1.6 
3 *212:13 *1373:DIODE 2.74 
*END

*D_NET *213 0.00147506
*CONN
*P prescaler[6] I
*I *1374:DIODE I *D sky130_fd_sc_hd__diode_2
*I *5177:A I *D sky130_fd_sc_hd__buf_1
*CAP
1 prescaler[6] 0.000423475
2 *1374:DIODE 6.98551e-05
3 *5177:A 0
4 *213:13 0.00049333
5 *1374:DIODE *1037:8 1.83847e-05
6 *213:13 *5197:A 6.73665e-05
7 *213:13 *1036:39 0
8 *211:13 *213:13 0
9 *212:13 *213:13 0.000402651
*RES
1 prescaler[6] *213:13 7.8651 
2 *213:13 *5177:A 1.6 
3 *213:13 *1374:DIODE 2.74 
*END

*D_NET *214 0.00103817
*CONN
*P prescaler[7] I
*I *1375:DIODE I *D sky130_fd_sc_hd__diode_2
*I *5178:A I *D sky130_fd_sc_hd__buf_1
*CAP
1 prescaler[7] 0.000400267
2 *1375:DIODE 8.39681e-05
3 *5178:A 0
4 *214:13 0.000484235
5 *214:13 *1039:22 6.96978e-05
6 *203:13 *214:13 0
*RES
1 prescaler[7] *214:13 5.28337 
2 *214:13 *5178:A 1.6 
3 *214:13 *1375:DIODE 2.74 
*END

*D_NET *215 0.0011892
*CONN
*P prescaler[8] I
*I *1376:DIODE I *D sky130_fd_sc_hd__diode_2
*I *5179:A I *D sky130_fd_sc_hd__buf_2
*CAP
1 prescaler[8] 0.000404639
2 *1376:DIODE 0.000135939
3 *5179:A 3.37454e-05
4 *215:9 0.000574323
5 *1376:DIODE *1041:91 0
6 *215:9 *1039:8 4.05569e-05
7 *215:9 *1041:91 0
*RES
1 prescaler[8] *215:9 3.34337 
2 *215:9 *5179:A 4.05 
3 *215:9 *1376:DIODE 5.43 
*END

*D_NET *216 0.00109072
*CONN
*P prescaler[9] I
*I *5181:A I *D sky130_fd_sc_hd__buf_2
*I *1378:DIODE I *D sky130_fd_sc_hd__diode_2
*CAP
1 prescaler[9] 0.000206338
2 *5181:A 8.25927e-05
3 *1378:DIODE 9.88592e-05
4 *216:7 0.00038779
5 *1378:DIODE *1117:14 0
6 *5181:A *1117:14 0
7 *206:13 *216:7 9.93012e-06
8 *207:15 *216:7 0.000305205
*RES
1 prescaler[9] *216:7 1.32587 
2 *216:7 *1378:DIODE 4.7925 
3 *216:7 *5181:A 4.7925 
*END

*D_NET *219 0.00192299
*CONN
*I *4316:B1 I *D sky130_fd_sc_hd__a21o_2
*I *4319:A I *D sky130_fd_sc_hd__and4_2
*I *4329:B1 I *D sky130_fd_sc_hd__a41o_2
*I *4294:Y O *D sky130_fd_sc_hd__inv_2
*CAP
1 *4316:B1 5.95618e-05
2 *4319:A 0
3 *4329:B1 0.000427522
4 *4294:Y 0
5 *219:25 0.000173397
6 *219:4 0.000541357
7 *4316:B1 *4319:B 0.000165366
8 *4316:B1 *239:10 0.000119762
9 *4316:B1 *239:24 2.8694e-05
10 *4329:B1 *4329:A1 0.000232111
11 *4329:B1 *239:35 5.53249e-06
12 *4329:B1 *967:62 0
13 *4329:B1 *987:159 0
14 *219:25 *4313:B 9.30787e-05
15 *219:25 *4329:A1 7.66083e-05
*RES
1 *4294:Y *219:4 1.6 
2 *219:4 *4329:B1 10.88 
3 *219:4 *219:25 5.92 
4 *219:25 *4319:A 1.6 
5 *219:25 *4316:B1 3.445 
*END

*D_NET *220 0.00203564
*CONN
*I *4921:A1 I *D sky130_fd_sc_hd__a21o_2
*I *4920:A1 I *D sky130_fd_sc_hd__a31o_2
*I *4919:A1 I *D sky130_fd_sc_hd__o21ai_2
*I *4296:Y O *D sky130_fd_sc_hd__inv_2
*CAP
1 *4921:A1 9.52981e-05
2 *4920:A1 0
3 *4919:A1 3.79076e-05
4 *4296:Y 0.00030072
5 *220:21 0.000118804
6 *220:10 0.000362134
7 *4919:A1 *4919:A2 0.0001249
8 *4919:A1 *4920:B1 4.99619e-05
9 *4921:A1 *1279:DIODE 4.66108e-05
10 *4921:A1 *1280:DIODE 8.40213e-05
11 *4921:A1 *986:135 0
12 *4921:A1 *986:139 0
13 *4921:A1 *990:16 2.92496e-05
14 *4921:A1 *990:20 8.5242e-05
15 *220:10 *905:24 0.000124007
16 *220:10 *986:139 0
17 *220:10 *986:152 9.37731e-05
18 *220:10 *990:20 0.000249928
19 *220:10 *990:55 2.25075e-05
20 *220:10 *990:63 3.686e-05
21 *220:10 *1124:73 0.000129226
22 *220:21 *986:139 0
23 *220:21 *990:20 4.44927e-05
*RES
1 *4296:Y *220:10 10.455 
2 *220:10 *4919:A1 4.74 
3 *220:10 *220:21 0.615 
4 *220:21 *4920:A1 3.6 
5 *220:21 *4921:A1 5.775 
*END

*D_NET *221 0.00270088
*CONN
*I *4639:A1 I *D sky130_fd_sc_hd__o21a_2
*I *4538:A I *D sky130_fd_sc_hd__xnor2_2
*I *4541:A1 I *D sky130_fd_sc_hd__o21ai_2
*I *4297:Y O *D sky130_fd_sc_hd__inv_2
*CAP
1 *4639:A1 5.39387e-05
2 *4538:A 9.9747e-05
3 *4541:A1 2.22788e-05
4 *4297:Y 0
5 *221:10 0.000708818
6 *221:4 0.000640731
7 *4538:A *4541:B1 3.09164e-05
8 *4538:A *461:10 3.00381e-05
9 *4538:A *462:10 9.16315e-05
10 *4541:A1 *445:10 4.82863e-05
11 *4639:A1 *4530:A 0
12 *4639:A1 *4639:B1 3.00381e-05
13 *4639:A1 *541:10 0.000113237
14 *221:10 *445:10 0.000704647
15 *221:10 *541:10 0.00012657
*RES
1 *4297:Y *221:4 1.6 
2 *221:4 *221:10 11.61 
3 *221:10 *4541:A1 2.05 
4 *221:10 *4538:A 7.94 
5 *221:4 *4639:A1 3.1 
*END

*D_NET *222 0.00299201
*CONN
*I *4539:A I *D sky130_fd_sc_hd__or2_2
*I *4549:A I *D sky130_fd_sc_hd__xnor2_2
*I *4486:A1 I *D sky130_fd_sc_hd__o21ai_2
*I *4298:Y O *D sky130_fd_sc_hd__inv_2
*CAP
1 *4539:A 0.000100888
2 *4549:A 0
3 *4486:A1 2.48913e-05
4 *4298:Y 0.00102238
5 *222:22 0.00109837
6 *4486:A1 *4298:A 2.75145e-05
7 *4486:A1 *407:10 8.57024e-05
8 *4539:A *4549:B 0.000187071
9 *4539:A *4555:A_N 0
10 *222:22 *4555:A_N 0
11 *222:22 *4556:B1 5.92849e-05
12 *222:22 *4572:A 0.000102985
13 *222:22 *4572:B 0
14 *222:22 *4596:B1 8.77073e-05
15 *222:22 *407:10 1.03323e-05
16 *222:22 *413:18 6.28765e-05
17 *222:22 *415:10 6.10014e-05
18 *222:22 *473:12 0
19 *222:22 *486:12 6.10014e-05
20 *222:22 *487:14 0
*RES
1 *4298:Y *4486:A1 3.995 
2 *4298:Y *222:22 21.75 
3 *222:22 *4549:A 3.6 
4 *222:22 *4539:A 6 
*END

*D_NET *223 0.00952643
*CONN
*I *4552:A I *D sky130_fd_sc_hd__or2_2
*I *4564:A I *D sky130_fd_sc_hd__xnor2_2
*I *4486:A2 I *D sky130_fd_sc_hd__o21ai_2
*I *4465:A1 I *D sky130_fd_sc_hd__o21ai_2
*I *4422:A I *D sky130_fd_sc_hd__or2_2
*I *4299:Y O *D sky130_fd_sc_hd__inv_2
*CAP
1 *4552:A 0
2 *4564:A 0.000199172
3 *4486:A2 1.24003e-05
4 *4465:A1 0.000474675
5 *4422:A 0.000180268
6 *4299:Y 0.001139
7 *223:66 0.000943407
8 *223:51 0.00158811
9 *223:28 0.00226489
10 *4422:A *4422:B 4.82863e-05
11 *4422:A *4426:A 0.000143266
12 *4465:A1 *1156:DIODE 8.8266e-05
13 *4465:A1 *4367:A 0
14 *4465:A1 *4477:A 7.35756e-05
15 *4465:A1 *4477:B 0
16 *4465:A1 *224:96 5.30673e-05
17 *4465:A1 *277:25 0.000157818
18 *4486:A2 *4298:A 4.77719e-05
19 *4486:A2 *407:10 2.68464e-05
20 *4564:A *4552:B 7.07537e-05
21 *4564:A *487:14 8.75483e-05
22 *4564:A *982:42 0
23 *223:28 *4355:A_N 6.41315e-05
24 *223:28 *4356:B1 0
25 *223:28 *228:36 0.000134938
26 *223:28 *275:8 4.92047e-05
27 *223:28 *277:10 0
28 *223:51 *4475:A 0
29 *223:51 *4477:C 0.000114364
30 *223:51 *4478:A 0.000178439
31 *223:51 *4486:B1 0
32 *223:51 *4495:B 0.000153139
33 *223:51 *4496:A 9.98373e-05
34 *223:51 *385:10 0
35 *223:51 *406:10 7.63204e-05
36 *223:51 *413:18 8.21899e-05
37 *223:66 *4572:A 0.000351364
38 *223:66 *4578:A1 0.00010914
39 *223:66 *411:16 0
40 *223:66 *413:18 7.90944e-05
41 *223:66 *473:12 0.000158539
42 *223:66 *487:14 0.000276601
43 *223:66 *495:10 0
*RES
1 *4299:Y *4422:A 10.665 
2 *4299:Y *223:28 19.65 
3 *223:28 *4465:A1 10.89 
4 *223:28 *223:51 16.26 
5 *223:51 *4486:A2 4.05 
6 *223:51 *223:66 16.775 
7 *223:66 *4564:A 9.335 
8 *223:66 *4552:A 1.6 
*END

*D_NET *224 0.0130725
*CONN
*I *4563:A I *D sky130_fd_sc_hd__or2_2
*I *1187:DIODE I *D sky130_fd_sc_hd__diode_2
*I *1189:DIODE I *D sky130_fd_sc_hd__diode_2
*I *4573:A I *D sky130_fd_sc_hd__xnor2_2
*I *1156:DIODE I *D sky130_fd_sc_hd__diode_2
*I *4465:A2 I *D sky130_fd_sc_hd__o21ai_2
*I *4357:A1 I *D sky130_fd_sc_hd__o21ai_2
*I *4430:A I *D sky130_fd_sc_hd__xnor2_2
*I *1128:DIODE I *D sky130_fd_sc_hd__diode_2
*I *1138:DIODE I *D sky130_fd_sc_hd__diode_2
*I *1153:DIODE I *D sky130_fd_sc_hd__diode_2
*I *4300:Y O *D sky130_fd_sc_hd__inv_2
*CAP
1 *4563:A 7.1723e-05
2 *1187:DIODE 0.000165386
3 *1189:DIODE 0.000359021
4 *4573:A 0
5 *1156:DIODE 0.00115305
6 *4465:A2 0
7 *4357:A1 3.44213e-05
8 *4430:A 0.000206687
9 *1128:DIODE 0
10 *1138:DIODE 0.000592652
11 *1153:DIODE 0.00219808
12 *4300:Y 8.10885e-05
13 *224:105 0.000522926
14 *224:96 0.00114857
15 *224:73 0.00048256
16 *224:58 0.000522274
17 *224:8 0.00250404
18 *224:6 8.10885e-05
19 *1138:DIODE *4350:A 0.000118527
20 *1138:DIODE *4351:B 8.09021e-06
21 *1138:DIODE *225:20 0
22 *1138:DIODE *226:19 0
23 *1138:DIODE *226:28 0
24 *1138:DIODE *227:154 0.000447361
25 *1138:DIODE *271:8 9.5433e-05
26 *1153:DIODE *4374:A 0.000138799
27 *1153:DIODE *4398:B 0.000198939
28 *1153:DIODE *4430:B 3.64998e-06
29 *1153:DIODE *4461:D 8.57237e-05
30 *1153:DIODE *226:19 0
31 *1153:DIODE *227:154 3.67779e-05
32 *1153:DIODE *258:6 4.88478e-05
33 *1153:DIODE *265:6 7.67345e-05
34 *1153:DIODE *295:8 9.99851e-05
35 *1153:DIODE *319:10 4.82863e-05
36 *1187:DIODE *4573:B 7.5431e-05
37 *1187:DIODE *4574:A 0
38 *1189:DIODE *495:10 4.94474e-05
39 *4357:A1 *278:8 8.65905e-05
40 *4430:A *4430:B 0.000183512
41 *4563:A *4563:B 4.99619e-05
42 *224:6 *256:6 0.000124895
43 *224:58 *4363:B 3.09164e-05
44 *224:58 *225:20 0
45 *224:58 *225:31 0
46 *224:58 *271:8 4.49328e-05
47 *224:73 *1139:DIODE 4.7043e-05
48 *224:73 *4363:B 0.00015997
49 *224:73 *4464:A2 0
50 *224:73 *225:31 0
51 *224:73 *282:10 7.89767e-05
52 *224:73 *283:10 0.000175901
53 *224:96 *4485:A2 7.96909e-05
54 *224:96 *4485:B1 9.24127e-05
55 *224:96 *4490:B 0
56 *224:96 *4491:A 0
57 *224:96 *4492:A 6.4422e-05
58 *224:96 *4493:B 0
59 *224:96 *4573:B 1.43521e-05
60 *224:96 *4574:A 0
61 *224:96 *225:31 0
62 *224:96 *386:8 0
63 *224:96 *390:12 0
64 *224:96 *410:8 0
65 *224:96 *1020:26 0
66 *224:96 *1020:30 0
67 *224:96 *1020:58 0
68 *224:105 *4573:B 4.19884e-05
69 *224:105 *4574:A 0
70 *4465:A1 *1156:DIODE 8.8266e-05
71 *4465:A1 *224:96 5.30673e-05
*RES
1 *4300:Y *224:6 2.74 
2 *224:6 *224:8 2 
3 *224:8 *1153:DIODE 27 
4 *224:8 *1138:DIODE 14.7 
5 *224:6 *1128:DIODE 1.6 
6 *1153:DIODE *4430:A 6.77 
7 *1138:DIODE *224:58 5.235 
8 *224:58 *4357:A1 4.395 
9 *224:58 *224:73 10.46 
10 *224:73 *4465:A2 1.6 
11 *224:73 *1156:DIODE 3.085 
12 *1156:DIODE *224:96 22.35 
13 *224:96 *4573:A 3.6 
14 *224:96 *224:105 1.38 
15 *224:105 *1189:DIODE 7.5 
16 *224:105 *1187:DIODE 5.745 
17 *1187:DIODE *4563:A 4.34 
*END

*D_NET *225 0.0050401
*CONN
*I *4491:A I *D sky130_fd_sc_hd__xnor2_2
*I *4490:A I *D sky130_fd_sc_hd__or2_2
*I *4357:A2 I *D sky130_fd_sc_hd__o21ai_2
*I *4346:A1 I *D sky130_fd_sc_hd__o21ai_2
*I *4301:Y O *D sky130_fd_sc_hd__inv_2
*CAP
1 *4491:A 0.000114926
2 *4490:A 0.000135587
3 *4357:A2 3.13592e-05
4 *4346:A1 0.000450806
5 *4301:Y 0.000101607
6 *225:31 0.00102399
7 *225:20 0.00115404
8 *4357:A2 *278:8 7.00889e-06
9 *4491:A *1144:DIODE 9.28101e-05
10 *4491:A *4298:A 8.65961e-05
11 *4491:A *4490:B 7.96171e-05
12 *4491:A *410:8 8.08153e-06
13 *225:20 *4351:B 0
14 *225:20 *226:28 0.000395534
15 *225:20 *271:8 0
16 *225:31 *1139:DIODE 6.55406e-05
17 *225:31 *1144:DIODE 0.000144973
18 *225:31 *4469:A 7.89689e-05
19 *225:31 *4485:A1 0
20 *225:31 *4485:A2 0
21 *225:31 *226:28 0.00070222
22 *225:31 *282:10 0.000137777
23 *225:31 *282:23 6.23206e-05
24 *225:31 *386:8 0
25 *225:31 *390:12 0.000166346
26 *1138:DIODE *225:20 0
27 *224:58 *225:20 0
28 *224:58 *225:31 0
29 *224:73 *225:31 0
30 *224:96 *4491:A 0
31 *224:96 *225:31 0
*RES
1 *4301:Y *4346:A1 4.685 
2 *4346:A1 *225:20 11.61 
3 *225:20 *4357:A2 4.05 
4 *225:20 *225:31 20.25 
5 *225:31 *4490:A 5.43 
6 *225:31 *4491:A 7.05 
*END

*D_NET *226 0.00561296
*CONN
*I *4469:A I *D sky130_fd_sc_hd__or2_2
*I *4470:A I *D sky130_fd_sc_hd__xnor2_2
*I *4346:A2 I *D sky130_fd_sc_hd__o21ai_2
*I *4343:A1 I *D sky130_fd_sc_hd__o21ai_2
*I *4302:Y O *D sky130_fd_sc_hd__inv_2
*CAP
1 *4469:A 6.71636e-05
2 *4470:A 0
3 *4346:A2 0
4 *4343:A1 6.75566e-05
5 *4302:Y 6.34824e-05
6 *226:28 0.000707535
7 *226:19 0.00104941
8 *226:6 0.000540079
9 *4343:A1 *1032:14 5.30673e-05
10 *4469:A *1144:DIODE 0.000131401
11 *4469:A *1158:DIODE 2.75229e-05
12 *226:6 *1032:14 7.68414e-06
13 *226:6 *1035:12 1.83756e-05
14 *226:19 *4333:B 0
15 *226:19 *4334:A 9.3062e-06
16 *226:19 *4334:B 0.000105841
17 *226:19 *4346:B1 0
18 *226:19 *4347:B 0
19 *226:19 *254:8 7.81954e-05
20 *226:19 *1035:12 0
21 *226:19 *1036:39 0
22 *226:28 *1144:DIODE 0.00111467
23 *226:28 *4347:B 0
24 *226:28 *4348:B 0.000103192
25 *226:28 *4357:B1 0.000120186
26 *226:28 *268:8 8.08439e-05
27 *226:28 *1030:14 8.14111e-05
28 *226:28 *1030:18 9.3062e-06
29 *1138:DIODE *226:19 0
30 *1138:DIODE *226:28 0
31 *1153:DIODE *226:19 0
32 *225:20 *226:28 0.000395534
33 *225:31 *4469:A 7.89689e-05
34 *225:31 *226:28 0.00070222
*RES
1 *4302:Y *226:6 2.395 
2 *226:6 *4343:A1 3.01 
3 *226:6 *226:19 9.5 
4 *226:19 *4346:A2 3.6 
5 *226:19 *226:28 22.8 
6 *226:28 *4470:A 3.6 
7 *226:28 *4469:A 5.685 
*END

*D_NET *227 0.0190252
*CONN
*I *4361:A I *D sky130_fd_sc_hd__or2_2
*I *4343:A2 I *D sky130_fd_sc_hd__o21ai_2
*I *1140:DIODE I *D sky130_fd_sc_hd__diode_2
*I *1139:DIODE I *D sky130_fd_sc_hd__diode_2
*I *4362:A I *D sky130_fd_sc_hd__xnor2_2
*I *1137:DIODE I *D sky130_fd_sc_hd__diode_2
*I *1142:DIODE I *D sky130_fd_sc_hd__diode_2
*I *4375:A I *D sky130_fd_sc_hd__nor2_2
*I *4392:A1 I *D sky130_fd_sc_hd__o21ai_2
*I *1146:DIODE I *D sky130_fd_sc_hd__diode_2
*I *4714:A1 I *D sky130_fd_sc_hd__o211a_2
*I *1193:DIODE I *D sky130_fd_sc_hd__diode_2
*I *4716:B2 I *D sky130_fd_sc_hd__o2bb2a_2
*I *1194:DIODE I *D sky130_fd_sc_hd__diode_2
*I *4712:A1_N I *D sky130_fd_sc_hd__o2bb2a_2
*I *1191:DIODE I *D sky130_fd_sc_hd__diode_2
*I *1129:DIODE I *D sky130_fd_sc_hd__diode_2
*I *4303:Y O *D sky130_fd_sc_hd__inv_2
*CAP
1 *4361:A 4.89822e-05
2 *4343:A2 7.50989e-05
3 *1140:DIODE 0
4 *1139:DIODE 9.33586e-05
5 *4362:A 0.000131077
6 *1137:DIODE 0.00013202
7 *1142:DIODE 0
8 *4375:A 1.23724e-05
9 *4392:A1 0
10 *1146:DIODE 0.00016712
11 *4714:A1 0.000206571
12 *1193:DIODE 0
13 *4716:B2 0
14 *1194:DIODE 0.000110237
15 *4712:A1_N 2.25609e-05
16 *1191:DIODE 0.00118595
17 *1129:DIODE 0.000452872
18 *4303:Y 5.91162e-05
19 *227:156 0.000285732
20 *227:154 0.000931794
21 *227:137 0.00229271
22 *227:117 3.83926e-05
23 *227:115 0.00153144
24 *227:91 0.000212665
25 *227:89 0.00124817
26 *227:64 0.000323569
27 *227:46 0.000110237
28 *227:44 0.000202714
29 *227:26 0.000129021
30 *227:22 0.000511458
31 *1129:DIODE *626:14 8.57024e-05
32 *1137:DIODE *264:8 1.83756e-05
33 *1146:DIODE *4420:B 3.09233e-05
34 *1146:DIODE *312:21 0
35 *1146:DIODE *322:8 5.84378e-05
36 *1146:DIODE *1033:29 4.40446e-05
37 *1191:DIODE *4712:A2_N 1.16578e-05
38 *1191:DIODE *4712:B2 6.43808e-05
39 *1194:DIODE *1192:DIODE 0.000170972
40 *1194:DIODE *4716:A1_N 1.16527e-05
41 *1194:DIODE *4717:B 0.000131069
42 *1194:DIODE *228:108 4.82919e-05
43 *4343:A2 *264:8 8.8266e-05
44 *4343:A2 *1032:14 0.000124895
45 *4361:A *282:10 4.82919e-05
46 *4361:A *1095:23 6.97202e-05
47 *4375:A *228:28 8.8266e-05
48 *4375:A *1032:43 5.30673e-05
49 *4712:A1_N *4712:B2 7.50953e-06
50 *4714:A1 *4714:B1 4.35308e-05
51 *227:22 *4712:B1 1.70935e-05
52 *227:22 *4772:A2 0.000113797
53 *227:22 *4974:B 0
54 *227:22 *4978:A 0.000112105
55 *227:22 *626:14 0.000464499
56 *227:22 *930:8 0
57 *227:22 *930:17 0
58 *227:22 *960:31 0
59 *227:26 *4712:A2_N 0.000122331
60 *227:26 *4712:B2 4.16353e-05
61 *227:44 *4712:B1 9.78876e-05
62 *227:44 *4978:A 9.34489e-05
63 *227:64 *4712:B1 0.000102346
64 *227:64 *4714:C1 7.23533e-05
65 *227:64 *4978:A 8.25803e-05
66 *227:64 *929:14 9.54469e-05
67 *227:89 *1143:DIODE 0.000501085
68 *227:89 *1151:DIODE 1.91597e-05
69 *227:89 *1192:DIODE 7.67345e-05
70 *227:89 *4436:A 2.75229e-05
71 *227:89 *4436:B 3.00381e-05
72 *227:89 *4439:A 3.00381e-05
73 *227:89 *4439:B 4.60584e-05
74 *227:89 *4458:A2 3.00381e-05
75 *227:89 *4712:B2 0.000314745
76 *227:89 *5195:A 3.72916e-05
77 *227:89 *357:12 0.000124895
78 *227:89 *1095:166 0.000237249
79 *227:91 *4420:B 0.000156842
80 *227:91 *4427:B1 0
81 *227:91 *325:10 0.00011852
82 *227:115 *4420:B 2.30797e-05
83 *227:115 *228:28 0.000120655
84 *227:115 *322:8 8.15676e-05
85 *227:115 *325:10 0.000179015
86 *227:115 *1032:43 6.27029e-05
87 *227:117 *228:28 0.000122325
88 *227:117 *1032:43 6.52265e-05
89 *227:137 *4345:A2 0.000164874
90 *227:137 *4373:A 2.30292e-05
91 *227:137 *229:10 0.000307288
92 *227:137 *264:8 0.000302836
93 *227:137 *314:10 0.000312778
94 *227:137 *322:8 0.000180689
95 *227:137 *322:23 0.000132089
96 *227:154 *4336:A 0.000175207
97 *227:154 *4343:B1 1.43521e-05
98 *227:154 *4352:B 5.92849e-05
99 *227:154 *4353:A 0
100 *227:154 *4356:B1 0
101 *227:154 *4364:B 7.49327e-05
102 *227:154 *4464:A1 1.73877e-05
103 *227:154 *4464:A2 0.000208202
104 *227:154 *229:10 0.000166346
105 *227:154 *257:8 0
106 *227:154 *271:8 0.000320834
107 *227:154 *271:19 0.00020613
108 *227:154 *272:10 7.24866e-05
109 *227:154 *283:10 6.0236e-05
110 *227:156 *4364:B 4.82919e-05
111 *227:156 *283:6 4.66108e-05
112 *1138:DIODE *227:154 0.000447361
113 *1153:DIODE *227:154 3.67779e-05
114 *224:73 *1139:DIODE 4.7043e-05
115 *225:31 *1139:DIODE 6.55406e-05
*RES
1 *4303:Y *1129:DIODE 3.995 
2 *1129:DIODE *227:22 12.285 
3 *227:22 *227:26 3.14 
4 *227:26 *1191:DIODE 3.085 
5 *227:26 *4712:A1_N 2.0725 
6 *227:22 *227:44 2.145 
7 *227:44 *227:46 2 
8 *227:46 *1194:DIODE 4.825 
9 *227:46 *4716:B2 1.6 
10 *227:44 *227:64 5.165 
11 *227:64 *1193:DIODE 1.6 
12 *227:64 *4714:A1 4.07125 
13 *1191:DIODE *227:89 26.82 
14 *227:89 *227:91 1.89 
15 *227:91 *1146:DIODE 6.375 
16 *227:91 *4392:A1 3.6 
17 *227:89 *227:115 5.285 
18 *227:115 *227:117 1.14 
19 *227:117 *4375:A 2.395 
20 *227:117 *1142:DIODE 1.6 
21 *227:115 *227:137 25.03 
22 *227:137 *1137:DIODE 2.41 
23 *227:137 *227:154 26.065 
24 *227:154 *227:156 1.83 
25 *227:156 *4362:A 3.445 
26 *227:156 *1139:DIODE 6.98 
27 *227:154 *1140:DIODE 1.6 
28 *1137:DIODE *4343:A2 5.03 
29 *1139:DIODE *4361:A 4.34 
*END

*D_NET *228 0.0150965
*CONN
*I *4715:A1 I *D sky130_fd_sc_hd__o211ai_2
*I *4713:B2 I *D sky130_fd_sc_hd__o221a_2
*I *4956:A I *D sky130_fd_sc_hd__nor3_2
*I *4957:B1 I *D sky130_fd_sc_hd__o21a_2
*I *4427:A1 I *D sky130_fd_sc_hd__a22o_2
*I *4375:B I *D sky130_fd_sc_hd__nor2_2
*I *4351:A I *D sky130_fd_sc_hd__xnor2_2
*I *4350:A I *D sky130_fd_sc_hd__or2_2
*I *4304:Y O *D sky130_fd_sc_hd__inv_2
*CAP
1 *4715:A1 1.36534e-05
2 *4713:B2 7.47778e-05
3 *4956:A 0.000120947
4 *4957:B1 0
5 *4427:A1 0
6 *4375:B 0
7 *4351:A 2.08101e-05
8 *4350:A 7.34291e-05
9 *4304:Y 0
10 *228:108 0.000335149
11 *228:78 0.000642396
12 *228:68 0.000810423
13 *228:36 0.00164739
14 *228:28 0.00174717
15 *228:16 0.00111873
16 *228:4 0.00096697
17 *4350:A *4351:B 6.55328e-05
18 *4713:B2 *4713:A2 3.26889e-05
19 *4713:B2 *4713:C1 0.000124661
20 *4713:B2 *4716:A1_N 9.50342e-06
21 *4713:B2 *4978:A 4.9968e-05
22 *4713:B2 *380:28 0.000233792
23 *4713:B2 *929:29 3.3367e-05
24 *4713:B2 *929:40 2.56486e-05
25 *4715:A1 *4713:C1 4.66108e-05
26 *4715:A1 *4715:A2 4.66108e-05
27 *4956:A *4766:A 4.82863e-05
28 *4956:A *4956:B 8.23457e-05
29 *4956:A *4956:C 0.000103192
30 *4956:A *229:53 0.000181376
31 *4956:A *684:10 3.83041e-05
32 *228:16 *1152:DIODE 2.42087e-05
33 *228:16 *1192:DIODE 5.63701e-05
34 *228:16 *4304:A 9.66106e-05
35 *228:16 *4431:B 2.78409e-05
36 *228:16 *4433:A 9.80032e-06
37 *228:16 *4433:B 0.000433003
38 *228:16 *4433:C 7.60965e-05
39 *228:16 *4435:A1 0.000203178
40 *228:16 *4435:B1 0
41 *228:16 *4440:B 4.82919e-05
42 *228:16 *4440:D_N 2.75229e-05
43 *228:16 *4458:A1 2.75145e-05
44 *228:16 *4459:B 8.57024e-05
45 *228:16 *353:12 2.75229e-05
46 *228:16 *354:10 0.000160635
47 *228:16 *356:8 3.59311e-05
48 *228:16 *361:10 4.88135e-05
49 *228:16 *1032:43 0.000409399
50 *228:16 *1095:73 0.000206183
51 *228:16 *1095:75 3.1638e-05
52 *228:28 *1143:DIODE 0.000431765
53 *228:28 *1152:DIODE 0.000153493
54 *228:28 *1032:43 0.000236538
55 *228:36 *1149:DIODE 0
56 *228:36 *1150:DIODE 0.000272984
57 *228:36 *4381:A 4.82919e-05
58 *228:36 *4381:B 8.65905e-05
59 *228:36 *4382:C 1.0183e-05
60 *228:36 *4395:B 7.24866e-05
61 *228:36 *4396:B 9.24049e-05
62 *228:36 *4408:A1_N 0.000157051
63 *228:36 *4461:A_N 0
64 *228:36 *272:10 2.68526e-05
65 *228:36 *297:8 0
66 *228:36 *301:10 0.000403544
67 *228:36 *301:19 9.49203e-05
68 *228:36 *309:10 0.000314452
69 *228:36 *309:19 0.00015212
70 *228:36 *314:10 0
71 *228:68 *1192:DIODE 1.61831e-05
72 *228:68 *4304:A 2.30292e-05
73 *228:78 *4766:A 0.000159747
74 *228:78 *4766:B 0.000122331
75 *228:78 *5058:D 0.000105068
76 *228:78 *684:10 4.82919e-05
77 *228:78 *960:31 0.000470013
78 *228:108 *1192:DIODE 2.59835e-05
79 *228:108 *4713:C1 0.000115464
80 *228:108 *4715:B1 9.50342e-06
81 *228:108 *960:31 8.42239e-05
82 *1138:DIODE *4350:A 0.000118527
83 *1194:DIODE *228:108 4.82919e-05
84 *4375:A *228:28 8.8266e-05
85 *1:6 *228:78 0
86 *223:28 *228:36 0.000134938
87 *227:115 *228:28 0.000120655
88 *227:117 *228:28 0.000122325
*RES
1 *4304:Y *228:4 1.6 
2 *228:4 *228:16 20.97 
3 *228:16 *228:28 7.515 
4 *228:28 *228:36 34.525 
5 *228:36 *4350:A 7.43 
6 *228:36 *4351:A 1.96 
7 *228:28 *4375:B 1.6 
8 *228:16 *4427:A1 1.6 
9 *228:4 *228:68 0.795 
10 *228:68 *228:78 15.73 
11 *228:78 *4957:B1 1.6 
12 *228:78 *4956:A 8.99 
13 *228:68 *228:108 6.62 
14 *228:108 *4713:B2 6.75 
15 *228:108 *4715:A1 4.05 
*END

*D_NET *229 0.0123037
*CONN
*I *4975:B2 I *D sky130_fd_sc_hd__o2bb2a_2
*I *4966:A1 I *D sky130_fd_sc_hd__a22oi_2
*I *4715:C1 I *D sky130_fd_sc_hd__o211ai_2
*I *4336:A I *D sky130_fd_sc_hd__or2_2
*I *4337:A I *D sky130_fd_sc_hd__xnor2_2
*I *4305:Y O *D sky130_fd_sc_hd__inv_2
*CAP
1 *4975:B2 8.9763e-05
2 *4966:A1 0
3 *4715:C1 0.000300357
4 *4336:A 0.000118252
5 *4337:A 0
6 *4305:Y 0
7 *229:53 0.000630594
8 *229:34 0.00120666
9 *229:10 0.00231212
10 *229:4 0.00255934
11 *4336:A *4337:B 0.000185849
12 *4336:A *256:6 1.08758e-05
13 *4336:A *1031:44 5.05521e-05
14 *4715:C1 *4713:C1 1.61831e-05
15 *4715:C1 *4715:A2 1.16578e-05
16 *4715:C1 *4715:B1 4.70343e-05
17 *4715:C1 *4978:A 8.66864e-05
18 *4715:C1 *380:28 1.96009e-05
19 *4715:C1 *928:20 1.80031e-05
20 *4975:B2 *4977:A2 0
21 *4975:B2 *4978:A 0.000208683
22 *4975:B2 *4978:B 2.81842e-05
23 *4975:B2 *960:31 0
24 *229:10 *4337:B 9.50342e-06
25 *229:10 *4345:A2 1.61831e-05
26 *229:10 *4373:A 9.21168e-05
27 *229:10 *4406:A2 5.05437e-05
28 *229:10 *4411:A 4.7101e-05
29 *229:10 *4411:B 9.02174e-05
30 *229:10 *264:8 0.0007256
31 *229:10 *266:10 0.000197531
32 *229:10 *1004:57 0.000775733
33 *229:34 *4711:A 0.000277223
34 *229:34 *1004:57 1.60203e-05
35 *229:53 *4956:C 7.21296e-06
36 *229:53 *4967:A2 0
37 *229:53 *4967:B1 0.000164679
38 *229:53 *4978:A 0.00105188
39 *229:53 *928:20 5.15287e-05
40 *229:53 *960:31 0
41 *4956:A *229:53 0.000181376
42 *227:137 *229:10 0.000307288
43 *227:154 *4336:A 0.000175207
44 *227:154 *229:10 0.000166346
*RES
1 *4305:Y *229:4 1.6 
2 *229:4 *229:10 40.91 
3 *229:10 *4337:A 3.6 
4 *229:10 *4336:A 6.9 
5 *229:4 *229:34 7.625 
6 *229:34 *4715:C1 8.28 
7 *229:34 *229:53 14.685 
8 *229:53 *4966:A1 3.6 
9 *229:53 *4975:B2 6 
*END

*D_NET *230 0.0227762
*CONN
*I *4341:A I *D sky130_fd_sc_hd__or2_2
*I *4737:A2 I *D sky130_fd_sc_hd__a211o_2
*I *1197:DIODE I *D sky130_fd_sc_hd__diode_2
*I *4713:A2 I *D sky130_fd_sc_hd__o221a_2
*I *1136:DIODE I *D sky130_fd_sc_hd__diode_2
*I *4379:A I *D sky130_fd_sc_hd__xnor2_2
*I *1294:DIODE I *D sky130_fd_sc_hd__diode_2
*I *4951:A1 I *D sky130_fd_sc_hd__o22a_2
*I *1131:DIODE I *D sky130_fd_sc_hd__diode_2
*I *1192:DIODE I *D sky130_fd_sc_hd__diode_2
*I *1143:DIODE I *D sky130_fd_sc_hd__diode_2
*I *4306:Y O *D sky130_fd_sc_hd__inv_2
*CAP
1 *4341:A 6.41756e-05
2 *4737:A2 7.72428e-05
3 *1197:DIODE 0
4 *4713:A2 2.67253e-05
5 *1136:DIODE 0.000156022
6 *4379:A 5.49128e-05
7 *1294:DIODE 5.19195e-05
8 *4951:A1 0.000177523
9 *1131:DIODE 0
10 *1192:DIODE 0.000690063
11 *1143:DIODE 0.00216698
12 *4306:Y 0
13 *230:140 0.00241851
14 *230:117 0.00244629
15 *230:86 0.000301067
16 *230:59 0.000639001
17 *230:48 0.00045622
18 *230:12 0.00330733
19 *230:4 0.000729556
20 *1136:DIODE *4341:B 0
21 *1143:DIODE *1152:DIODE 0.000241483
22 *1143:DIODE *4378:B1 1.82667e-05
23 *1143:DIODE *4436:A 4.66108e-05
24 *1143:DIODE *4436:B 4.82863e-05
25 *1143:DIODE *4439:A 4.82919e-05
26 *1143:DIODE *4439:B 8.65961e-05
27 *1143:DIODE *4458:A2 4.82919e-05
28 *1143:DIODE *300:6 7.67345e-05
29 *1143:DIODE *301:10 0.000382758
30 *1143:DIODE *325:10 0
31 *1143:DIODE *333:10 5.34608e-05
32 *1143:DIODE *1032:43 2.26018e-05
33 *1143:DIODE *1095:73 6.5273e-05
34 *1143:DIODE *1095:75 1.1679e-05
35 *1143:DIODE *1095:81 3.90349e-05
36 *1192:DIODE *4304:A 0.000201508
37 *1192:DIODE *4716:A1_N 1.24905e-05
38 *1192:DIODE *4716:A2_N 4.82919e-05
39 *1192:DIODE *4716:B1 4.82863e-05
40 *1192:DIODE *4717:B 7.68414e-06
41 *1192:DIODE *622:10 3.68682e-05
42 *1294:DIODE *4975:B1 0.000120186
43 *1294:DIODE *956:12 4.38051e-05
44 *1294:DIODE *990:189 6.4422e-05
45 *4341:A *262:10 4.89295e-05
46 *4713:A2 *380:28 4.66108e-05
47 *4713:A2 *929:40 3.95698e-05
48 *4737:A2 *4737:A1 0.000163204
49 *4737:A2 *4738:B 2.75145e-05
50 *4951:A1 *375:16 0.00020295
51 *4951:A1 *375:23 2.30292e-05
52 *4951:A1 *375:54 4.35348e-05
53 *230:12 *1154:DIODE 0
54 *230:12 *4441:A2 7.3664e-05
55 *230:12 *4458:B1 2.16389e-05
56 *230:12 *4460:B 4.82919e-05
57 *230:12 *4462:C 0.00111772
58 *230:12 *361:10 0.000138196
59 *230:12 *361:19 0.000213507
60 *230:12 *376:16 4.66826e-05
61 *230:12 *622:10 0.000158754
62 *230:12 *1095:25 0
63 *230:48 *376:16 4.21973e-05
64 *230:59 *4967:D1 7.81954e-05
65 *230:59 *4970:B 0.000116158
66 *230:59 *4978:A 1.15688e-05
67 *230:59 *376:16 0.000372166
68 *230:59 *956:12 0.000323649
69 *230:59 *990:189 1.40616e-05
70 *230:86 *300:6 4.99619e-05
71 *230:117 *4714:A2 0.000112123
72 *230:117 *4716:B1 2.75145e-05
73 *230:117 *4717:B 8.40213e-05
74 *230:117 *964:139 5.83373e-05
75 *230:140 *1298:DIODE 0
76 *230:140 *4714:A2 0.000183698
77 *230:140 *378:23 0.00169039
78 *230:140 *378:38 0.000193575
79 *230:140 *851:18 1.00941e-05
80 *230:140 *964:139 9.62683e-05
81 *230:140 *992:101 0
82 *230:140 *992:107 0
83 *1194:DIODE *1192:DIODE 0.000170972
84 *4713:B2 *4713:A2 3.26889e-05
85 *1:6 *1192:DIODE 5.02217e-05
86 *227:89 *1143:DIODE 0.000501085
87 *227:89 *1192:DIODE 7.67345e-05
88 *228:16 *1192:DIODE 5.63701e-05
89 *228:28 *1143:DIODE 0.000431765
90 *228:68 *1192:DIODE 1.61831e-05
91 *228:108 *1192:DIODE 2.59835e-05
*RES
1 *4306:Y *230:4 1.6 
2 *230:4 *230:12 22.345 
3 *230:12 *1143:DIODE 35.075 
4 *230:12 *1192:DIODE 16.25 
5 *230:4 *230:48 0.795 
6 *230:48 *1131:DIODE 1.6 
7 *230:48 *230:59 11.39 
8 *230:59 *4951:A1 6.825 
9 *230:59 *1294:DIODE 5.49 
10 *1143:DIODE *230:86 4.12 
11 *230:86 *4379:A 2.41 
12 *230:86 *1136:DIODE 6.98 
13 *1192:DIODE *230:117 5.775 
14 *230:117 *4713:A2 4.41 
15 *230:117 *230:140 10.3209 
16 *230:140 *1197:DIODE 1.6 
17 *230:140 *4737:A2 3.445 
18 *1136:DIODE *4341:A 4.34 
*END

*D_NET *231 0.00282604
*CONN
*I *4637:A I *D sky130_fd_sc_hd__and3_2
*I *4636:B1 I *D sky130_fd_sc_hd__a21oi_2
*I *4912:A1 I *D sky130_fd_sc_hd__a21o_2
*I *4307:Y O *D sky130_fd_sc_hd__inv_2
*CAP
1 *4637:A 2.08101e-05
2 *4636:B1 7.02285e-05
3 *4912:A1 7.14891e-05
4 *4307:Y 3.03798e-05
5 *231:23 0.000918974
6 *231:8 0.000929805
7 *4636:B1 *4637:B 3.23663e-05
8 *4636:B1 *4637:C 0.000164874
9 *4636:B1 *558:16 5.30673e-05
10 *4912:A1 *4912:A2 4.82919e-05
11 *4912:A1 *4913:B1 8.8266e-05
12 *4912:A1 *951:10 2.0514e-05
13 *231:8 *4913:A1 0.00011852
14 *231:8 *923:10 0.00011852
15 *231:23 *4958:B 0
16 *231:23 *5078:RESET_B 0
17 *231:23 *923:10 0.000139933
18 *231:23 *951:10 0
*RES
1 *4307:Y *231:8 4.98 
2 *231:8 *4912:A1 5.085 
3 *231:8 *231:23 15.485 
4 *231:23 *4636:B1 3.775 
5 *231:23 *4637:A 1.96 
*END

*D_NET *232 0.00559799
*CONN
*I *4648:B1 I *D sky130_fd_sc_hd__a21oi_2
*I *4647:A I *D sky130_fd_sc_hd__and3_2
*I *4904:A1 I *D sky130_fd_sc_hd__a21oi_2
*I *4308:Y O *D sky130_fd_sc_hd__inv_2
*CAP
1 *4648:B1 2.21004e-05
2 *4647:A 0.000155636
3 *4904:A1 0.000514417
4 *4308:Y 5.74715e-05
5 *232:39 0.00137607
6 *232:8 0.00177022
7 *4647:A *4646:A 2.0851e-06
8 *4647:A *4647:B 3.3273e-05
9 *4647:A *4735:A3 0
10 *4647:A *566:14 0
11 *4647:A *569:6 2.11084e-05
12 *4904:A1 *1338:DIODE 2.39981e-05
13 *4904:A1 *4308:A 0
14 *4904:A1 *4896:A 9.54469e-05
15 *4904:A1 *4897:A1 7.58604e-05
16 *4904:A1 *4900:B 0
17 *4904:A1 *4904:B1 1.85674e-05
18 *4904:A1 *4910:A1 0.000174458
19 *4904:A1 *567:12 0
20 *4904:A1 *966:191 0.000121815
21 *4904:A1 *986:10 5.21046e-05
22 *4904:A1 *986:14 6.10014e-05
23 *4904:A1 *991:12 0.000291379
24 *4904:A1 *991:30 4.82863e-05
25 *4904:A1 *1013:251 4.94457e-05
26 *232:8 *656:47 8.65961e-05
27 *232:39 *1331:DIODE 4.82863e-05
28 *232:39 *4652:B 0.000123277
29 *232:39 *4898:A1 0.000164294
30 *232:39 *4899:A2 0.000161492
31 *232:39 *4909:B 0
32 *232:39 *4954:B 0
33 *232:39 *5076:D 0
34 *232:39 *569:6 1.61831e-05
35 *232:39 *986:10 3.31204e-05
*RES
1 *4308:Y *232:8 4.395 
2 *232:8 *4904:A1 18.895 
3 *232:8 *232:39 22.4 
4 *232:39 *4647:A 8.195 
5 *232:39 *4648:B1 1.96 
*END

*D_NET *233 0.00362995
*CONN
*I *4883:A1 I *D sky130_fd_sc_hd__a21o_2
*I *4667:A I *D sky130_fd_sc_hd__and3_2
*I *4665:B1 I *D sky130_fd_sc_hd__a21oi_2
*I *4309:Y O *D sky130_fd_sc_hd__inv_2
*CAP
1 *4883:A1 0.000256088
2 *4667:A 0
3 *4665:B1 0.000221826
4 *4309:Y 0.000494977
5 *233:29 0.000281701
6 *233:10 0.000742417
7 *4665:B1 *4664:B 0.000198939
8 *4665:B1 *4665:A1 0.000200615
9 *4665:B1 *4666:B 0
10 *4665:B1 *576:44 5.21627e-05
11 *4665:B1 *582:10 2.16191e-05
12 *4665:B1 *582:14 5.93757e-05
13 *4883:A1 *4729:A1 7.67345e-05
14 *4883:A1 *4729:B1 4.82863e-05
15 *4883:A1 *4732:B1 4.10476e-05
16 *4883:A1 *4883:B1 5.30673e-05
17 *4883:A1 *920:55 0.00043044
18 *233:10 *4666:A 6.90876e-05
19 *233:10 *4666:B 6.52265e-05
20 *233:10 *4729:A2 0.00023468
21 *233:10 *582:10 0
22 *233:10 *920:79 6.05513e-05
23 *233:29 *4729:A1 2.11084e-05
*RES
1 *4309:Y *233:10 10.35 
2 *233:10 *4665:B1 8.64 
3 *233:10 *233:29 2.45 
4 *233:29 *4667:A 1.6 
5 *233:29 *4883:A1 7.915 
*END

*D_NET *234 0.0032691
*CONN
*I *4677:A I *D sky130_fd_sc_hd__xnor2_2
*I *4730:A1 I *D sky130_fd_sc_hd__a21o_2
*I *4672:A I *D sky130_fd_sc_hd__or2_2
*I *4876:A1 I *D sky130_fd_sc_hd__a21o_2
*I *4310:Y O *D sky130_fd_sc_hd__inv_2
*CAP
1 *4677:A 0
2 *4730:A1 9.40984e-05
3 *4672:A 8.59967e-05
4 *4876:A1 4.96997e-05
5 *4310:Y 0
6 *234:23 0.000274346
7 *234:21 0.000600601
8 *234:6 0.00055605
9 *4672:A *4672:B 1.34361e-05
10 *4672:A *4730:B1 0.00018305
11 *4672:A *4731:A1 5.12942e-05
12 *4730:A1 *4677:B 3.83194e-05
13 *4730:A1 *4730:A2 2.75145e-05
14 *4876:A1 *918:28 9.47454e-05
15 *4876:A1 *966:31 0
16 *234:21 *4732:A2 8.65905e-05
17 *234:21 *4876:B1 3.76596e-05
18 *234:21 *592:52 0.000538538
19 *234:21 *595:12 1.60203e-05
20 *234:21 *918:28 5.56629e-05
21 *234:21 *966:31 0
22 *234:21 *1013:259 7.34364e-05
23 *234:23 *4677:B 0.000198945
24 *234:23 *4731:A2 0.000124007
25 *234:23 *595:12 6.90876e-05
*RES
1 *4310:Y *234:6 3.6 
2 *234:6 *4876:A1 4.725 
3 *234:6 *234:21 12.605 
4 *234:21 *234:23 2.865 
5 *234:23 *4672:A 8 
6 *234:23 *4730:A1 3.1 
7 *234:21 *4677:A 1.6 
*END

*D_NET *235 0.00224848
*CONN
*I *4765:A1 I *D sky130_fd_sc_hd__a21o_2
*I *4712:B1 I *D sky130_fd_sc_hd__o2bb2a_2
*I *4311:Y O *D sky130_fd_sc_hd__inv_2
*CAP
1 *4765:A1 0.000364302
2 *4712:B1 0.000298538
3 *4311:Y 0
4 *235:6 0.000662839
5 *4712:B1 *4714:A2 0.000187663
6 *4712:B1 *4714:C1 0.000116158
7 *4712:B1 *929:14 4.70982e-05
8 *4712:B1 *930:17 3.05295e-05
9 *4712:B1 *930:28 5.65627e-05
10 *4712:B1 *964:139 0
11 *4765:A1 *4764:B1 0
12 *4765:A1 *4765:B1 8.40269e-05
13 *4765:A1 *4956:B 2.24423e-05
14 *4765:A1 *4978:A 0
15 *4765:A1 *683:22 3.89528e-05
16 *4765:A1 *929:10 4.49498e-05
17 *4765:A1 *929:14 2.54606e-05
18 *4765:A1 *964:135 0
19 *4765:A1 *964:139 0
20 *4765:A1 *990:189 5.16348e-05
21 *227:22 *4712:B1 1.70935e-05
22 *227:44 *4712:B1 9.78876e-05
23 *227:64 *4712:B1 0.000102346
*RES
1 *4311:Y *235:6 3.6 
2 *235:6 *4712:B1 11.1 
3 *235:6 *4765:A1 9.855 
*END

*D_NET *236 0.0035727
*CONN
*I *5035:A I *D sky130_fd_sc_hd__and3_2
*I *5008:A I *D sky130_fd_sc_hd__and3_2
*I *5029:C I *D sky130_fd_sc_hd__and4_2
*I *5007:B I *D sky130_fd_sc_hd__and2b_2
*I *4312:X O *D sky130_fd_sc_hd__and2_2
*CAP
1 *5035:A 0
2 *5008:A 0.000116206
3 *5029:C 0.000415263
4 *5007:B 0
5 *4312:X 3.69588e-05
6 *236:40 0.000289468
7 *236:12 0.000558088
8 *236:8 0.000353047
9 *5008:A *5013:A 4.9968e-05
10 *5008:A *5035:C 4.99619e-05
11 *5008:A *5046:C 1.71013e-05
12 *5008:A *5259:A 6.73424e-05
13 *5008:A *5262:A 2.66765e-05
14 *5008:A *248:46 2.75229e-05
15 *5008:A *884:16 3.13459e-05
16 *5008:A *891:87 0.000157602
17 *5029:C *5007:A_N 1.12578e-05
18 *5029:C *5029:A 8.49205e-05
19 *5029:C *5029:D 7.00223e-05
20 *5029:C *5037:B 0.000174443
21 *5029:C *5236:A 7.35813e-05
22 *5029:C *5237:A 2.03343e-05
23 *236:8 *5046:A 4.66108e-05
24 *236:12 *4312:A 5.21545e-05
25 *236:12 *5037:A 0.000159964
26 *236:12 *5037:B 0
27 *236:12 *5243:A 0.000206123
28 *236:12 *891:22 0
29 *236:40 *4312:A 1.73877e-05
30 *236:40 *5027:C 0.000161529
31 *236:40 *5035:C 7.40446e-05
32 *236:40 *5037:A 0.000202095
33 *236:40 *248:46 2.16833e-05
34 *236:40 *903:20 0
35 *236:40 *903:22 0
*RES
1 *4312:X *236:8 4.05 
2 *236:8 *236:12 5.93 
3 *236:12 *5007:B 1.6 
4 *236:12 *5029:C 11.87 
5 *236:8 *236:40 6.23 
6 *236:40 *5008:A 8.96 
7 *236:40 *5035:A 1.6 
*END

*D_NET *237 0.000459278
*CONN
*I *4316:A1 I *D sky130_fd_sc_hd__a21o_2
*I *4313:Y O *D sky130_fd_sc_hd__nand2_2
*CAP
1 *4316:A1 9.38629e-05
2 *4313:Y 9.38629e-05
3 *4316:A1 *239:10 8.23457e-05
4 *4316:A1 *973:84 9.37731e-05
5 *4316:A1 *1000:37 9.5433e-05
*RES
1 *4313:Y *4316:A1 9.12 
*END

*D_NET *238 0.00386546
*CONN
*I *4998:A I *D sky130_fd_sc_hd__nand2_2
*I *5008:B I *D sky130_fd_sc_hd__and3_2
*I *5035:B I *D sky130_fd_sc_hd__and3_2
*I *4315:B I *D sky130_fd_sc_hd__and2b_2
*I *4314:Y O *D sky130_fd_sc_hd__nor2_2
*CAP
1 *4998:A 0.000101407
2 *5008:B 3.98087e-05
3 *5035:B 3.0307e-05
4 *4315:B 0.000134675
5 *4314:Y 0
6 *238:23 0.000272865
7 *238:15 0.00105746
8 *238:4 0.000887982
9 *4998:A *5013:A 8.53113e-06
10 *4998:A *5033:A 4.92096e-05
11 *4998:A *5247:A 8.49205e-05
12 *4998:A *885:6 4.82919e-05
13 *4998:A *891:104 6.46783e-05
14 *5008:B *5264:A 2.49909e-05
15 *5035:B *5245:A 2.66935e-05
16 *5035:B *884:16 7.23533e-05
17 *238:15 *5006:A 7.67415e-06
18 *238:15 *5032:B 4.92062e-05
19 *238:15 *5262:A 2.0514e-05
20 *238:15 *888:25 1.19928e-05
21 *238:15 *890:6 0.000177136
22 *238:23 *5013:A 4.66108e-05
23 *238:23 *5033:B 0
24 *238:23 *5045:A 7.47145e-05
25 *238:23 *5245:A 3.18137e-05
26 *238:23 *5262:A 0.000193801
27 *238:23 *884:16 0.000255719
28 *238:23 *892:27 3.74161e-05
29 *238:23 *896:10 5.46877e-05
*RES
1 *4314:Y *238:4 1.6 
2 *238:4 *4315:B 3.43 
3 *238:4 *238:15 8.745 
4 *238:15 *238:23 7.355 
5 *238:23 *5035:B 4.47 
6 *238:23 *5008:B 4.05 
7 *238:15 *4998:A 8.03 
*END

*D_NET *239 0.00442944
*CONN
*I *4316:A2 I *D sky130_fd_sc_hd__a21o_2
*I *4949:B I *D sky130_fd_sc_hd__and4_2
*I *4318:D I *D sky130_fd_sc_hd__nand4_2
*I *4329:A4 I *D sky130_fd_sc_hd__a41o_2
*I *4315:X O *D sky130_fd_sc_hd__and2b_2
*CAP
1 *4316:A2 0
2 *4949:B 0.000445853
3 *4318:D 0
4 *4329:A4 0
5 *4315:X 0.000421301
6 *239:35 0.00064609
7 *239:24 0.000599634
8 *239:10 0.000820697
9 *4949:B *4941:A2 6.9114e-05
10 *4949:B *4941:B1 8.40269e-05
11 *4949:B *4942:A1 0
12 *4949:B *4942:B1 3.52434e-05
13 *4949:B *4949:C 0.000266129
14 *4949:B *967:62 0.00019375
15 *4949:B *999:33 8.16598e-05
16 *4949:B *1013:173 0
17 *4949:B *1029:215 3.09164e-05
18 *239:10 *1134:DIODE 5.36384e-06
19 *239:24 *4319:B 4.00703e-05
20 *239:24 *4329:A2 1.47347e-05
21 *239:24 *4329:A3 7.84303e-05
22 *239:24 *243:8 4.66108e-05
23 *239:24 *962:35 0.000108098
24 *239:35 *967:62 0.000205384
25 *239:35 *1013:145 0
26 *239:35 *1013:173 0
27 *4316:A1 *239:10 8.23457e-05
28 *4316:B1 *239:10 0.000119762
29 *4316:B1 *239:24 2.8694e-05
30 *4329:B1 *239:35 5.53249e-06
*RES
1 *4315:X *239:10 7 
2 *239:10 *239:24 6.495 
3 *239:24 *4329:A4 1.6 
4 *239:24 *239:35 6.635 
5 *239:35 *4318:D 3.6 
6 *239:35 *4949:B 14.025 
7 *239:10 *4316:A2 1.6 
*END

*D_NET *240 0.00491346
*CONN
*I *4317:B I *D sky130_fd_sc_hd__and2_2
*I *5005:A I *D sky130_fd_sc_hd__and3_2
*I *5004:A I *D sky130_fd_sc_hd__nand2_2
*I *5003:A I *D sky130_fd_sc_hd__and2_2
*I *5047:A I *D sky130_fd_sc_hd__and3_2
*I *4316:X O *D sky130_fd_sc_hd__a21o_2
*CAP
1 *4317:B 0.000277683
2 *5005:A 0
3 *5004:A 4.34589e-05
4 *5003:A 0
5 *5047:A 1.04051e-05
6 *4316:X 7.58267e-05
7 *240:33 0.000106805
8 *240:29 0.000312173
9 *240:18 0.000573279
10 *240:8 0.000667556
11 *4317:B *4328:B 6.16882e-05
12 *4317:B *4948:C 8.23457e-05
13 *4317:B *249:10 3.83194e-05
14 *4317:B *962:27 5.4155e-06
15 *5004:A *5002:C 9.50342e-06
16 *5004:A *886:32 2.14129e-05
17 *5004:A *886:43 0.000164686
18 *5004:A *888:21 0.000187071
19 *240:8 *248:10 0.00027064
20 *240:8 *1000:37 0.000137571
21 *240:8 *1000:51 0.000128163
22 *240:18 *4948:C 7.06865e-05
23 *240:18 *5047:B 2.67184e-05
24 *240:18 *241:15 8.23457e-05
25 *240:18 *241:30 0.000224692
26 *240:18 *248:10 9.37731e-05
27 *240:18 *248:36 0.000416817
28 *240:18 *248:46 8.3893e-05
29 *240:18 *249:10 1.91597e-05
30 *240:18 *1000:51 1.07797e-05
31 *240:29 *5047:C 0.000237243
32 *240:29 *248:46 4.7101e-05
33 *240:33 *886:10 8.53113e-06
34 *240:33 *886:21 9.37731e-05
35 *240:33 *886:32 0.00011852
36 *240:33 *888:21 0.000205422
*RES
1 *4316:X *240:8 6.765 
2 *240:8 *240:18 9.56 
3 *240:18 *5047:A 1.96 
4 *240:18 *240:29 3.57 
5 *240:29 *240:33 4.4 
6 *240:33 *5003:A 3.6 
7 *240:33 *5004:A 5.745 
8 *240:29 *5005:A 1.6 
9 *240:8 *4317:B 7.335 
*END

*D_NET *241 0.00524916
*CONN
*I *4325:A2 I *D sky130_fd_sc_hd__o21a_2
*I *4322:A2 I *D sky130_fd_sc_hd__a22o_2
*I *4324:A2 I *D sky130_fd_sc_hd__a21oi_2
*I *4946:A2 I *D sky130_fd_sc_hd__a31o_2
*I *4944:A2 I *D sky130_fd_sc_hd__a31o_2
*I *4947:A I *D sky130_fd_sc_hd__nand2_2
*I *4317:X O *D sky130_fd_sc_hd__and2_2
*CAP
1 *4325:A2 0
2 *4322:A2 0.000342744
3 *4324:A2 0
4 *4946:A2 0.000104986
5 *4944:A2 4.09151e-05
6 *4947:A 0
7 *4317:X 0.000133283
8 *241:58 0.000585936
9 *241:45 0.000595105
10 *241:30 0.000497232
11 *241:15 0.000120681
12 *241:8 0.000172715
13 *4322:A2 *4322:B2 0.000115762
14 *4322:A2 *4323:B 0.000235326
15 *4322:A2 *4325:B1 4.82919e-05
16 *4322:A2 *243:25 6.8725e-06
17 *4322:A2 *994:46 4.82863e-05
18 *4322:A2 *1000:18 0.000213633
19 *4322:A2 *1001:99 5.11696e-05
20 *4944:A2 *1335:DIODE 0.00011379
21 *4944:A2 *248:10 4.9968e-05
22 *4944:A2 *248:12 7.23533e-05
23 *4946:A2 *1335:DIODE 0
24 *4946:A2 *4944:A1 4.82863e-05
25 *4946:A2 *971:29 0.000112123
26 *241:8 *4328:B 8.65905e-05
27 *241:8 *249:10 5.56533e-05
28 *241:15 *249:10 0.000118081
29 *241:30 *249:10 0.000235568
30 *241:45 *1134:DIODE 0
31 *241:45 *1335:DIODE 0
32 *241:45 *4326:C 4.13171e-05
33 *241:45 *971:29 0.000515085
34 *241:45 *999:39 0
35 *241:58 *1335:DIODE 0
36 *241:58 *4325:B1 0
37 *241:58 *999:39 0
38 *241:58 *1000:10 9.37731e-05
39 *241:58 *1000:18 8.65905e-05
40 *240:18 *241:15 8.23457e-05
41 *240:18 *241:30 0.000224692
*RES
1 *4317:X *241:8 3.79 
2 *241:8 *4947:A 1.6 
3 *241:8 *241:15 1.14 
4 *241:15 *4944:A2 6.98 
5 *241:15 *241:30 4.175 
6 *241:30 *4946:A2 5.43 
7 *241:30 *241:45 7.275 
8 *241:45 *4324:A2 3.6 
9 *241:45 *241:58 6.47 
10 *241:58 *4322:A2 8.99875 
11 *241:58 *4325:A2 1.6 
*END

*D_NET *242 0.000529426
*CONN
*I *4322:B1 I *D sky130_fd_sc_hd__a22o_2
*I *4318:Y O *D sky130_fd_sc_hd__nand4_2
*CAP
1 *4322:B1 0.000188453
2 *4318:Y 0.000188453
3 *4322:B1 *4318:B 0.00015252
4 *4322:B1 *4949:A 0
*RES
1 *4318:Y *4322:B1 9.975 
*END

*D_NET *243 0.00489793
*CONN
*I *4941:A2 I *D sky130_fd_sc_hd__a21oi_2
*I *4323:A_N I *D sky130_fd_sc_hd__and3b_2
*I *4942:A2 I *D sky130_fd_sc_hd__o21a_2
*I *4943:A2 I *D sky130_fd_sc_hd__a21oi_2
*I *4319:X O *D sky130_fd_sc_hd__and4_2
*CAP
1 *4941:A2 0.000165473
2 *4323:A_N 0
3 *4942:A2 7.64644e-05
4 *4943:A2 0.000407246
5 *4319:X 3.69588e-05
6 *243:25 0.000405097
7 *243:19 0.000752406
8 *243:8 0.000702506
9 *4941:A2 *4941:B1 0.00010596
10 *4941:A2 *4942:B1 7.00889e-06
11 *4941:A2 *4949:A 0
12 *4941:A2 *4949:C 8.7373e-06
13 *4942:A2 *4942:B1 7.60965e-05
14 *4943:A2 *4941:B1 0.000490332
15 *4943:A2 *4945:B 0
16 *4943:A2 *5086:RESET_B 1.82563e-05
17 *4943:A2 *962:33 0.000316792
18 *4943:A2 *967:16 0
19 *4943:A2 *994:46 0
20 *243:19 *4318:B 0.000202095
21 *243:19 *4941:B1 0.00063865
22 *243:19 *4949:A 0
23 *243:19 *962:33 4.9968e-05
24 *243:19 *994:46 0
25 *243:19 *1001:43 7.18817e-05
26 *243:25 *4323:B 5.84317e-06
27 *243:25 *4323:C 0.000168046
28 *243:25 *4942:B1 6.78988e-05
29 *243:25 *975:10 1.61387e-06
30 *4322:A2 *243:25 6.8725e-06
31 *4949:B *4941:A2 6.9114e-05
32 *239:24 *243:8 4.66108e-05
*RES
1 *4319:X *243:8 4.05 
2 *243:8 *4943:A2 13.14 
3 *243:8 *243:19 7.5 
4 *243:19 *243:25 6.26 
5 *243:25 *4942:A2 3.1 
6 *243:25 *4323:A_N 1.6 
7 *243:19 *4941:A2 6.3975 
*END

*D_NET *244 0.0119276
*CONN
*I *4944:B1 I *D sky130_fd_sc_hd__a31o_2
*I *5148:A I *D sky130_fd_sc_hd__clkdlybuf4s25_1
*I *4941:B1 I *D sky130_fd_sc_hd__a21oi_2
*I *4320:X O *D sky130_fd_sc_hd__and3b_2
*CAP
1 *4944:B1 8.20417e-05
2 *5148:A 0.000851395
3 *4941:B1 0.000627891
4 *4320:X 0.00164877
5 *244:22 0.00152156
6 *244:20 0.00177308
7 *4941:B1 *4318:C 0.000361306
8 *4941:B1 *4329:A1 6.02202e-05
9 *4941:B1 *4942:B1 4.66826e-05
10 *4941:B1 *4945:B 0.000118081
11 *4941:B1 *5086:RESET_B 3.24046e-05
12 *4941:B1 *967:10 5.12942e-05
13 *4941:B1 *967:16 9.3062e-06
14 *4941:B1 *967:62 0.000145881
15 *4941:B1 *975:10 0.000203762
16 *4944:B1 *4944:A1 8.65961e-05
17 *4944:B1 *4946:A3 0.000160641
18 *5148:A *1335:DIODE 0
19 *5148:A *4835:B1 4.21889e-05
20 *5148:A *4835:C1 0.000163199
21 *5148:A *4948:C 0.000206123
22 *5148:A *5084:D 1.83847e-05
23 *5148:A *5194:A 2.49909e-05
24 *5148:A *994:27 1.34594e-05
25 *5148:A *1000:51 0.000540962
26 *5148:A *1121:29 6.34376e-05
27 *5148:A *1121:39 0.000140133
28 *244:20 *4321:B 8.53113e-06
29 *244:20 *4321:C_N 3.00381e-05
30 *244:20 *4944:A1 2.20732e-05
31 *244:20 *4946:A3 0.000160491
32 *244:20 *4946:B1 2.77183e-05
33 *244:20 *4990:A 2.4997e-05
34 *244:20 *4990:B 0.000130007
35 *244:20 *4991:A 0
36 *244:20 *4995:B 5.16348e-05
37 *244:20 *4996:B 0.000572532
38 *244:20 *4999:A3 0.000178321
39 *244:20 *5153:A 0
40 *244:20 *5236:A 9.14049e-05
41 *244:20 *245:23 4.19797e-05
42 *244:20 *253:16 0
43 *244:20 *877:12 9.42224e-05
44 *244:20 *881:19 9.14049e-05
45 *244:20 *881:30 4.9968e-05
46 *244:20 *995:10 0
47 *244:20 *996:34 3.81908e-06
48 *244:22 *4945:B 3.57349e-05
49 *4941:A2 *4941:B1 0.00010596
50 *4943:A2 *4941:B1 0.000490332
51 *4949:B *4941:B1 8.40269e-05
52 *243:19 *4941:B1 0.00063865
*RES
1 *4320:X *244:20 31.805 
2 *244:20 *244:22 0.795 
3 *244:22 *4941:B1 24.335 
4 *244:22 *5148:A 22.73 
5 *244:20 *4944:B1 3.79 
*END

*D_NET *245 0.013077
*CONN
*I *4918:C1 I *D sky130_fd_sc_hd__o211a_2
*I *1276:DIODE I *D sky130_fd_sc_hd__diode_2
*I *4898:B1 I *D sky130_fd_sc_hd__o21ai_2
*I *4948:A I *D sky130_fd_sc_hd__and3_2
*I *1266:DIODE I *D sky130_fd_sc_hd__diode_2
*I *5134:A I *D sky130_fd_sc_hd__clkdlybuf4s25_1
*I *1293:DIODE I *D sky130_fd_sc_hd__diode_2
*I *1350:DIODE I *D sky130_fd_sc_hd__diode_2
*I *1132:DIODE I *D sky130_fd_sc_hd__diode_2
*I *4321:X O *D sky130_fd_sc_hd__or3b_2
*CAP
1 *4918:C1 1.96262e-05
2 *1276:DIODE 0.00118638
3 *4898:B1 2.20223e-05
4 *4948:A 3.55506e-05
5 *1266:DIODE 0.00282861
6 *5134:A 0
7 *1293:DIODE 0.000732342
8 *1350:DIODE 0
9 *1132:DIODE 0.000163044
10 *4321:X 0
11 *245:57 0.00178722
12 *245:32 0.000755717
13 *245:23 0.000434848
14 *245:6 0.00046268
15 *1132:DIODE *4320:C 0
16 *1132:DIODE *4321:B 5.53249e-06
17 *1266:DIODE *1270:DIODE 3.87723e-05
18 *1266:DIODE *4308:A 0
19 *1266:DIODE *4898:A2 0.000239807
20 *1266:DIODE *4900:B 0
21 *1266:DIODE *4901:A 4.75576e-05
22 *1266:DIODE *4902:A0 0
23 *1266:DIODE *4902:A1 0.000160641
24 *1266:DIODE *4909:B 0
25 *1266:DIODE *5051:CLK 0.000158072
26 *1266:DIODE *5051:D 0.000160666
27 *1266:DIODE *922:21 2.54523e-05
28 *1266:DIODE *962:10 7.10578e-05
29 *1266:DIODE *963:45 0
30 *1266:DIODE *966:84 0.000122325
31 *1266:DIODE *1027:39 0.000583971
32 *1266:DIODE *1124:203 0.00016635
33 *1276:DIODE *1275:DIODE 0.000115779
34 *1276:DIODE *4651:A 0.000152136
35 *1276:DIODE *4898:A2 0.00011964
36 *1276:DIODE *4918:B1 0
37 *1276:DIODE *921:24 0.000722362
38 *1276:DIODE *924:27 0
39 *1276:DIODE *1123:118 9.45488e-05
40 *1293:DIODE *1243:DIODE 0
41 *1293:DIODE *4992:C 0.0001274
42 *1293:DIODE *5085:D 0.000115762
43 *1293:DIODE *971:8 0.000378961
44 *1293:DIODE *971:29 0.000114492
45 *1293:DIODE *994:27 0
46 *1293:DIODE *996:30 3.18137e-05
47 *1293:DIODE *1025:10 0
48 *4898:B1 *4898:A2 4.99619e-05
49 *4918:C1 *4918:A1 3.00381e-05
50 *245:23 *4321:B 6.81892e-05
51 *245:23 *5147:A 0.000250798
52 *245:32 *5147:A 0.000313857
53 *245:57 *4948:B 9.27495e-05
54 *245:57 *5085:D 4.82919e-05
55 *244:20 *245:23 4.19797e-05
*RES
1 *4321:X *245:6 3.6 
2 *245:6 *1132:DIODE 5.61 
3 *245:6 *245:23 8.555 
4 *245:23 *1350:DIODE 1.6 
5 *245:23 *245:32 3.225 
6 *245:32 *1293:DIODE 16.97 
7 *245:32 *5134:A 1.6 
8 *1293:DIODE *245:57 3.775 
9 *245:57 *1266:DIODE 35.54 
10 *245:57 *4948:A 2.215 
11 *1266:DIODE *4898:B1 3.65 
12 *1266:DIODE *1276:DIODE 26.715 
13 *1276:DIODE *4918:C1 3.65 
*END

*D_NET *246 0.000355502
*CONN
*I *4323:C I *D sky130_fd_sc_hd__and3b_2
*I *4322:X O *D sky130_fd_sc_hd__a22o_2
*CAP
1 *4323:C 4.94325e-05
2 *4322:X 4.94325e-05
3 *4323:C *4942:B1 7.73569e-05
4 *4323:C *975:10 1.12342e-05
5 *243:25 *4323:C 0.000168046
*RES
1 *4322:X *4323:C 4.79375 
*END

*D_NET *247 0.000591579
*CONN
*I *4325:B1 I *D sky130_fd_sc_hd__o21a_2
*I *4324:Y O *D sky130_fd_sc_hd__a21oi_2
*CAP
1 *4325:B1 0.000164026
2 *4324:Y 0.000164026
3 *4325:B1 *1335:DIODE 0.000166943
4 *4325:B1 *1000:18 4.82919e-05
5 *4322:A2 *4325:B1 4.82919e-05
6 *241:58 *4325:B1 0
*RES
1 *4324:Y *4325:B1 11.07 
*END

*D_NET *248 0.00978914
*CONN
*I *4327:C I *D sky130_fd_sc_hd__and3_2
*I *5016:B I *D sky130_fd_sc_hd__and3b_2
*I *5039:B I *D sky130_fd_sc_hd__and3b_2
*I *4944:A3 I *D sky130_fd_sc_hd__a31o_2
*I *4946:A3 I *D sky130_fd_sc_hd__a31o_2
*I *4326:X O *D sky130_fd_sc_hd__and3_2
*CAP
1 *4327:C 0
2 *5016:B 0.000415538
3 *5039:B 0.000260567
4 *4944:A3 0
5 *4946:A3 0.000110908
6 *4326:X 0.000214942
7 *248:46 0.00129554
8 *248:36 0.000914961
9 *248:12 0.000140164
10 *248:10 0.000539719
11 *4946:A3 *1335:DIODE 2.7881e-05
12 *4946:A3 *4944:A1 6.90876e-05
13 *4946:A3 *4948:C 3.05373e-05
14 *5016:B *5016:C 0.000156871
15 *5016:B *5248:A 0.000752161
16 *5016:B *5258:A 0.000214505
17 *5016:B *5260:A 6.95335e-05
18 *5016:B *998:75 0
19 *5039:B *5027:A 7.44453e-05
20 *5039:B *5039:A_N 3.03775e-05
21 *5039:B *5039:C 4.23784e-05
22 *5039:B *5248:A 0.000250623
23 *5039:B *5260:A 1.73877e-05
24 *5039:B *995:119 4.39656e-05
25 *248:10 *1335:DIODE 0.000269053
26 *248:10 *4948:C 7.12228e-06
27 *248:10 *1000:31 3.68596e-05
28 *248:10 *1000:37 2.60702e-05
29 *248:10 *1001:33 4.82919e-05
30 *248:12 *1335:DIODE 1.34361e-05
31 *248:12 *4948:C 4.84393e-05
32 *248:46 *4315:A_N 2.42236e-05
33 *248:46 *4327:B 7.47215e-05
34 *248:46 *5005:C 1.56428e-05
35 *248:46 *5027:A 9.13216e-05
36 *248:46 *5027:C 0.000312182
37 *248:46 *5027:D 4.82863e-05
38 *248:46 *5035:C 1.34594e-05
39 *248:46 *5047:B 0.00027299
40 *248:46 *5047:C 0.000138799
41 *248:46 *5240:A 1.91597e-05
42 *248:46 *5259:A 0.000711203
43 *248:46 *891:6 5.82176e-05
44 *248:46 *891:14 0.000423637
45 *248:46 *903:14 4.38278e-05
46 *248:46 *972:82 1.52184e-05
47 *4944:A2 *248:10 4.9968e-05
48 *4944:A2 *248:12 7.23533e-05
49 *4944:B1 *4946:A3 0.000160641
50 *5008:A *248:46 2.75229e-05
51 *236:40 *248:46 2.16833e-05
52 *240:8 *248:10 0.00027064
53 *240:18 *248:10 9.37731e-05
54 *240:18 *248:36 0.000416817
55 *240:18 *248:46 8.3893e-05
56 *240:29 *248:46 4.7101e-05
57 *244:20 *4946:A3 0.000160491
*RES
1 *4326:X *248:10 10.275 
2 *248:10 *248:12 1.125 
3 *248:12 *4946:A3 7.095 
4 *248:12 *4944:A3 3.6 
5 *248:10 *248:36 5.9 
6 *248:36 *248:46 23.535 
7 *248:46 *5039:B 8.685 
8 *248:46 *5016:B 14.55 
9 *248:36 *4327:C 1.6 
*END

*D_NET *249 0.00378378
*CONN
*I *5047:B I *D sky130_fd_sc_hd__and3_2
*I *4947:B I *D sky130_fd_sc_hd__nand2_2
*I *4328:B I *D sky130_fd_sc_hd__nand2_2
*I *4327:X O *D sky130_fd_sc_hd__and3_2
*CAP
1 *5047:B 0.000186979
2 *4947:B 0
3 *4328:B 0.000585211
4 *4327:X 0.000435913
5 *249:10 0.000834145
6 *4328:B *4330:A1 4.99619e-05
7 *4328:B *5086:CLK 0.000271608
8 *4328:B *5086:D 2.46089e-05
9 *4328:B *5086:RESET_B 3.74214e-05
10 *4328:B *962:27 0.000241838
11 *4328:B *967:10 6.21553e-05
12 *4328:B *967:16 8.53113e-06
13 *5047:B *4327:B 4.82919e-05
14 *249:10 *4948:C 8.23457e-05
15 *4317:B *4328:B 6.16882e-05
16 *4317:B *249:10 3.83194e-05
17 *240:18 *5047:B 2.67184e-05
18 *240:18 *249:10 1.91597e-05
19 *241:8 *4328:B 8.65905e-05
20 *241:8 *249:10 5.56533e-05
21 *241:15 *249:10 0.000118081
22 *241:30 *249:10 0.000235568
23 *248:46 *5047:B 0.00027299
*RES
1 *4327:X *249:10 6.91 
2 *249:10 *4328:B 15.365 
3 *249:10 *4947:B 1.6 
4 *4327:X *5047:B 6.77 
*END

*D_NET *250 0.000570754
*CONN
*I *4330:A1 I *D sky130_fd_sc_hd__a21oi_2
*I *4328:Y O *D sky130_fd_sc_hd__nand2_2
*CAP
1 *4330:A1 0.000138475
2 *4328:Y 0.000138475
3 *4330:A1 *4330:A2 5.53249e-06
4 *4330:A1 *5086:RESET_B 3.0807e-05
5 *4330:A1 *5132:A 1.61461e-05
6 *4330:A1 *962:27 5.21046e-05
7 *4330:A1 *987:159 0.000139252
8 *4328:B *4330:A1 4.99619e-05
*RES
1 *4328:Y *4330:A1 10.32 
*END

*D_NET *251 0.00107558
*CONN
*I *4330:A2 I *D sky130_fd_sc_hd__a21oi_2
*I *4329:X O *D sky130_fd_sc_hd__a41o_2
*CAP
1 *4330:A2 0.00024244
2 *4329:X 0.00024244
3 *4330:A2 *5132:A 0.000249928
4 *4330:A2 *987:159 0.0001953
5 *4330:A2 *1013:145 0.00013994
6 *4330:A2 *1029:169 0
7 *4330:A1 *4330:A2 5.53249e-06
*RES
1 *4329:X *4330:A2 12.96 
*END

*D_NET *252 0.00302438
*CONN
*I *5147:A I *D sky130_fd_sc_hd__clkdlybuf4s25_1
*I *4331:X O *D sky130_fd_sc_hd__and3b_2
*CAP
1 *5147:A 0.000875457
2 *4331:X 0.000875457
3 *5147:A *1351:DIODE 0.0001249
4 *5147:A *4990:D 2.05583e-05
5 *5147:A *5043:C 0.000140041
6 *5147:A *5252:A 8.53113e-06
7 *5147:A *253:16 0.000198934
8 *5147:A *1018:14 9.44105e-05
9 *5147:A *1051:6 0.000121437
10 *245:23 *5147:A 0.000250798
11 *245:32 *5147:A 0.000313857
*RES
1 *4331:X *5147:A 23.67 
*END

*D_NET *253 0.0141445
*CONN
*I *5132:A I *D sky130_fd_sc_hd__clkdlybuf4s25_1
*I *5131:A I *D sky130_fd_sc_hd__clkdlybuf4s25_1
*I *4332:X O *D sky130_fd_sc_hd__or3b_2
*CAP
1 *5132:A 0.00137679
2 *5131:A 0.000654459
3 *4332:X 0.00215664
4 *253:16 0.00418789
5 *5131:A *1235:DIODE 0.000163204
6 *5131:A *4822:A2 0.000161529
7 *5131:A *4825:C 0.000172838
8 *5131:A *4825:D 0
9 *5131:A *4832:B 4.4256e-05
10 *5131:A *4835:A2 0.000135408
11 *5131:A *4843:C1 0.000136889
12 *5131:A *716:42 0
13 *5131:A *735:26 0.000114447
14 *5131:A *735:37 0
15 *5131:A *909:72 0.000155928
16 *5131:A *911:34 7.82371e-05
17 *5131:A *913:33 1.15688e-05
18 *5131:A *987:159 0.000261296
19 *5131:A *1124:203 3.86607e-05
20 *5132:A *1135:DIODE 5.83121e-06
21 *5132:A *4835:A2 0.000404416
22 *5132:A *4837:A2 0.000296094
23 *5132:A *4910:A1 0.000840141
24 *5132:A *962:10 0.000140905
25 *5132:A *962:27 0.000108329
26 *5132:A *987:159 0.000151587
27 *5132:A *1029:147 9.34439e-05
28 *5132:A *1029:169 0.000150019
29 *5132:A *1124:203 0.000219783
30 *253:16 *4990:A 3.29007e-05
31 *253:16 *4990:C 0.000201503
32 *253:16 *4991:B 7.35729e-05
33 *253:16 *5192:A 8.49205e-05
34 *253:16 *5252:A 0.000119762
35 *253:16 *1011:6 0.000152328
36 *253:16 *1011:8 0.000753869
37 *4330:A1 *5132:A 1.61461e-05
38 *4330:A2 *5132:A 0.000249928
39 *5147:A *253:16 0.000198934
40 *244:20 *253:16 0
*RES
1 *4332:X *253:16 34.21 
2 *253:16 *5131:A 19.815 
3 *253:16 *5132:A 31.23 
*END

*D_NET *254 0.000906191
*CONN
*I *4334:B I *D sky130_fd_sc_hd__nand2_2
*I *4335:B I *D sky130_fd_sc_hd__xnor2_2
*I *4333:X O *D sky130_fd_sc_hd__xor2_2
*CAP
1 *4334:B 0.000118776
2 *4335:B 0
3 *4333:X 6.79942e-05
4 *254:8 0.000186771
5 *4334:B *4334:A 2.92496e-05
6 *4334:B *4346:B1 4.66742e-05
7 *4334:B *1031:10 8.65905e-05
8 *4334:B *1031:14 0.000155176
9 *254:8 *1031:14 3.09233e-05
10 *226:19 *4334:B 0.000105841
11 *226:19 *254:8 7.81954e-05
*RES
1 *4333:X *254:8 5.235 
2 *254:8 *4335:B 3.6 
3 *254:8 *4334:B 7.245 
*END

*D_NET *255 0.00037834
*CONN
*I *4346:B1 I *D sky130_fd_sc_hd__o21ai_2
*I *4334:Y O *D sky130_fd_sc_hd__nand2_2
*CAP
1 *4346:B1 0.000141274
2 *4334:Y 0.000141274
3 *4346:B1 *1036:39 4.91189e-05
4 *4334:B *4346:B1 4.66742e-05
5 *226:19 *4346:B1 0
*RES
1 *4334:Y *4346:B1 9.72 
*END

*D_NET *256 0.000931885
*CONN
*I *4337:B I *D sky130_fd_sc_hd__xnor2_2
*I *4336:B I *D sky130_fd_sc_hd__or2_2
*I *4335:Y O *D sky130_fd_sc_hd__xnor2_2
*CAP
1 *4337:B 9.71301e-05
2 *4336:B 0
3 *4335:Y 0.000129006
4 *256:6 0.000226136
5 *4337:B *4342:A 0
6 *256:6 *1031:29 4.99619e-05
7 *256:6 *1031:44 9.85276e-05
8 *4336:A *4337:B 0.000185849
9 *4336:A *256:6 1.08758e-05
10 *224:6 *256:6 0.000124895
11 *229:10 *4337:B 9.50342e-06
*RES
1 *4335:Y *256:6 4.465 
2 *256:6 *4336:B 1.6 
3 *256:6 *4337:B 7.685 
*END

*D_NET *257 0.000577811
*CONN
*I *4353:A I *D sky130_fd_sc_hd__xor2_2
*I *4352:A I *D sky130_fd_sc_hd__nor2_2
*I *4336:X O *D sky130_fd_sc_hd__or2_2
*CAP
1 *4353:A 9.81985e-05
2 *4352:A 0
3 *4336:X 0.000103612
4 *257:8 0.000201811
5 *4353:A *4352:B 0.000141606
6 *4353:A *272:10 3.25831e-05
7 *227:154 *4353:A 0
8 *227:154 *257:8 0
*RES
1 *4336:X *257:8 5.235 
2 *257:8 *4352:A 3.6 
3 *257:8 *4353:A 5.745 
*END

*D_NET *258 0.00045756
*CONN
*I *4344:A I *D sky130_fd_sc_hd__xor2_2
*I *4342:A I *D sky130_fd_sc_hd__nor2_2
*I *4337:Y O *D sky130_fd_sc_hd__xnor2_2
*CAP
1 *4344:A 0
2 *4342:A 0.000149216
3 *4337:Y 4.13792e-05
4 *258:6 0.000190595
5 *4342:A *4342:B 0
6 *4342:A *1031:44 2.75229e-05
7 *1153:DIODE *258:6 4.88478e-05
8 *4337:B *4342:A 0
*RES
1 *4337:Y *258:6 2.395 
2 *258:6 *4342:A 7.94 
3 *258:6 *4344:A 1.6 
*END

*D_NET *259 0.000894939
*CONN
*I *4339:B I *D sky130_fd_sc_hd__nand2_2
*I *4340:B I *D sky130_fd_sc_hd__xnor2_2
*I *4338:X O *D sky130_fd_sc_hd__xor2_2
*CAP
1 *4339:B 0.000154969
2 *4340:B 7.88744e-05
3 *4338:X 2.89988e-05
4 *259:8 0.000262842
5 *4339:B *4343:B1 5.83121e-06
6 *4339:B *1032:20 0.000199953
7 *4340:B *5199:A 0
8 *4340:B *1026:22 0
9 *4340:B *1026:28 0
10 *4340:B *1032:20 0.00011686
11 *259:8 *1026:22 4.66108e-05
*RES
1 *4338:X *259:8 4.05 
2 *259:8 *4340:B 5.235 
3 *259:8 *4339:B 6.81 
*END

*D_NET *260 0.000386089
*CONN
*I *4343:B1 I *D sky130_fd_sc_hd__o21ai_2
*I *4339:Y O *D sky130_fd_sc_hd__nand2_2
*CAP
1 *4343:B1 0.000124523
2 *4339:Y 0.000124523
3 *4343:B1 *1032:14 0.00011686
4 *4339:B *4343:B1 5.83121e-06
5 *227:154 *4343:B1 1.43521e-05
*RES
1 *4339:Y *4343:B1 9.375 
*END

*D_NET *261 0.00082797
*CONN
*I *4341:B I *D sky130_fd_sc_hd__or2_2
*I *4379:B I *D sky130_fd_sc_hd__xnor2_2
*I *4340:Y O *D sky130_fd_sc_hd__xnor2_2
*CAP
1 *4341:B 0.000140709
2 *4379:B 3.5663e-05
3 *4340:Y 0.000174981
4 *261:10 0.000351353
5 *261:10 *1032:43 0.000125264
6 *1136:DIODE *4341:B 0
*RES
1 *4340:Y *261:10 6.12 
2 *261:10 *4379:B 4.05 
3 *261:10 *4341:B 6 
*END

*D_NET *262 0.00128627
*CONN
*I *4342:B I *D sky130_fd_sc_hd__nor2_2
*I *4344:B I *D sky130_fd_sc_hd__xor2_2
*I *4341:X O *D sky130_fd_sc_hd__or2_2
*CAP
1 *4342:B 0.000125541
2 *4344:B 0
3 *4341:X 0.000267676
4 *262:10 0.000393217
5 *4342:B *4345:B1 0.000181819
6 *4342:B *1031:44 7.08493e-05
7 *262:10 *4345:B1 0.000198242
8 *4341:A *262:10 4.89295e-05
9 *4342:A *4342:B 0
*RES
1 *4341:X *262:10 8.325 
2 *262:10 *4344:B 2 
3 *262:10 *4342:B 6.63 
*END

*D_NET *263 0.00100709
*CONN
*I *4345:B1 I *D sky130_fd_sc_hd__a21o_2
*I *4342:Y O *D sky130_fd_sc_hd__nor2_2
*CAP
1 *4345:B1 0.000260606
2 *4342:Y 0.000260606
3 *4345:B1 *266:10 9.70869e-05
4 *4345:B1 *342:8 0
5 *4345:B1 *1031:44 8.73389e-06
6 *4342:B *4345:B1 0.000181819
7 *262:10 *4345:B1 0.000198242
*RES
1 *4342:Y *4345:B1 12.36 
*END

*D_NET *264 0.00275893
*CONN
*I *4374:A I *D sky130_fd_sc_hd__xnor2_2
*I *4373:A I *D sky130_fd_sc_hd__xor2_2
*I *4345:A1 I *D sky130_fd_sc_hd__a21o_2
*I *4343:Y O *D sky130_fd_sc_hd__o21ai_2
*CAP
1 *4374:A 0.000154482
2 *4373:A 0.000178229
3 *4345:A1 0
4 *4343:Y 0.000253287
5 *264:8 0.000277034
6 *4373:A *4345:A2 0.00012657
7 *4374:A *265:6 0.000197264
8 *4374:A *266:10 0
9 *4374:A *342:8 0.000183043
10 *264:8 *4345:A2 0
11 *1137:DIODE *264:8 1.83756e-05
12 *1153:DIODE *4374:A 0.000138799
13 *4343:A2 *264:8 8.8266e-05
14 *227:137 *4373:A 2.30292e-05
15 *227:137 *264:8 0.000302836
16 *229:10 *4373:A 9.21168e-05
17 *229:10 *264:8 0.0007256
*RES
1 *4343:Y *264:8 10.345 
2 *264:8 *4345:A1 1.6 
3 *264:8 *4373:A 3.085 
4 *4373:A *4374:A 11.52 
*END

*D_NET *265 0.00128759
*CONN
*I *4345:A2 I *D sky130_fd_sc_hd__a21o_2
*I *4374:B I *D sky130_fd_sc_hd__xnor2_2
*I *4373:B I *D sky130_fd_sc_hd__xor2_2
*I *4344:X O *D sky130_fd_sc_hd__xor2_2
*CAP
1 *4345:A2 3.85357e-05
2 *4374:B 0
3 *4373:B 0.000145785
4 *4344:X 0.000174986
5 *265:6 0.000282236
6 *4373:B *294:8 6.4422e-05
7 *4373:B *301:10 0
8 *4373:B *342:8 0
9 *1153:DIODE *265:6 7.67345e-05
10 *4373:A *4345:A2 0.00012657
11 *4374:A *265:6 0.000197264
12 *227:137 *4345:A2 0.000164874
13 *229:10 *4345:A2 1.61831e-05
14 *264:8 *4345:A2 0
*RES
1 *4344:X *265:6 5.155 
2 *265:6 *4373:B 6.145 
3 *265:6 *4374:B 1.6 
4 *4373:B *4345:A2 3.3925 
*END

*D_NET *266 0.00281649
*CONN
*I *4355:B I *D sky130_fd_sc_hd__nand2b_2
*I *4372:A I *D sky130_fd_sc_hd__xnor2_2
*I *4345:X O *D sky130_fd_sc_hd__a21o_2
*CAP
1 *4355:B 0.000140589
2 *4372:A 0
3 *4345:X 0.000629565
4 *266:10 0.000770154
5 *4355:B *4355:A_N 0.000166346
6 *4355:B *275:8 2.30797e-05
7 *266:10 *4426:A 0.000544561
8 *266:10 *275:8 0.000117832
9 *266:10 *342:8 0
10 *266:10 *1030:37 0.000129742
11 *4345:B1 *266:10 9.70869e-05
12 *4374:A *266:10 0
13 *229:10 *266:10 0.000197531
*RES
1 *4345:X *266:10 17.01 
2 *266:10 *4372:A 3.6 
3 *266:10 *4355:B 6.54 
*END

*D_NET *267 0.00180662
*CONN
*I *4356:A1 I *D sky130_fd_sc_hd__a21o_2
*I *4354:A I *D sky130_fd_sc_hd__xnor2_2
*I *4346:Y O *D sky130_fd_sc_hd__o21ai_2
*CAP
1 *4356:A1 3.12735e-05
2 *4354:A 0
3 *4346:Y 0.000632818
4 *267:10 0.000664092
5 *4356:A1 *4356:A2 0.00011301
6 *4356:A1 *4356:B1 0.000108329
7 *267:10 *4356:A2 1.34361e-05
8 *267:10 *4356:B1 0.000164686
9 *267:10 *274:8 7.89767e-05
*RES
1 *4346:Y *267:10 13.185 
2 *267:10 *4354:A 3.6 
3 *267:10 *4356:A1 4.98 
*END

*D_NET *268 0.000781217
*CONN
*I *4348:B I *D sky130_fd_sc_hd__nand2_2
*I *4349:B I *D sky130_fd_sc_hd__xnor2_2
*I *4347:X O *D sky130_fd_sc_hd__xor2_2
*CAP
1 *4348:B 0.000144693
2 *4349:B 0
3 *4347:X 7.23873e-05
4 *268:8 0.00021708
5 *4348:B *1030:18 0.000163019
6 *226:28 *4348:B 0.000103192
7 *226:28 *268:8 8.08439e-05
*RES
1 *4347:X *268:8 5.235 
2 *268:8 *4349:B 3.6 
3 *268:8 *4348:B 6.9 
*END

*D_NET *269 0.000251609
*CONN
*I *4357:B1 I *D sky130_fd_sc_hd__o21ai_2
*I *4348:Y O *D sky130_fd_sc_hd__nand2_2
*CAP
1 *4357:B1 3.20073e-05
2 *4348:Y 3.20073e-05
3 *4357:B1 *1030:14 6.74079e-05
4 *226:28 *4357:B1 0.000120186
*RES
1 *4348:Y *4357:B1 8.58 
*END

*D_NET *270 0.000555327
*CONN
*I *4350:B I *D sky130_fd_sc_hd__or2_2
*I *4351:B I *D sky130_fd_sc_hd__xnor2_2
*I *4349:Y O *D sky130_fd_sc_hd__xnor2_2
*CAP
1 *4350:B 0
2 *4351:B 0.000108579
3 *4349:Y 8.52292e-05
4 *270:6 0.000193808
5 *270:6 *1030:37 9.4087e-05
6 *1138:DIODE *4351:B 8.09021e-06
7 *4350:A *4351:B 6.55328e-05
8 *225:20 *4351:B 0
*RES
1 *4349:Y *270:6 3.085 
2 *270:6 *4351:B 7.685 
3 *270:6 *4350:B 1.6 
*END

*D_NET *271 0.00192639
*CONN
*I *4364:A I *D sky130_fd_sc_hd__nand2_2
*I *4365:A I *D sky130_fd_sc_hd__xnor2_2
*I *4363:A I *D sky130_fd_sc_hd__nor2_2
*I *4350:X O *D sky130_fd_sc_hd__or2_2
*CAP
1 *4364:A 0.000140558
2 *4365:A 1.17533e-05
3 *4363:A 0
4 *4350:X 0.000115209
5 *271:19 0.000212266
6 *271:8 0.000175164
7 *4364:A *1144:DIODE 7.46855e-05
8 *4364:A *4366:A 4.77757e-05
9 *4364:A *4464:A2 8.97564e-05
10 *4364:A *1039:51 0.0001947
11 *4365:A *1144:DIODE 2.75145e-05
12 *4365:A *1039:51 4.82863e-05
13 *271:8 *4363:B 5.53249e-06
14 *271:19 *4363:B 9.68865e-05
15 *271:19 *283:10 1.89685e-05
16 *1138:DIODE *271:8 9.5433e-05
17 *224:58 *271:8 4.49328e-05
18 *225:20 *271:8 0
19 *227:154 *271:8 0.000320834
20 *227:154 *271:19 0.00020613
*RES
1 *4350:X *271:8 7.275 
2 *271:8 *4363:A 3.6 
3 *271:8 *271:19 4.4 
4 *271:19 *4365:A 2.05 
5 *271:19 *4364:A 9.32 
*END

*D_NET *272 0.000880617
*CONN
*I *4353:B I *D sky130_fd_sc_hd__xor2_2
*I *4352:B I *D sky130_fd_sc_hd__nor2_2
*I *4351:Y O *D sky130_fd_sc_hd__xnor2_2
*CAP
1 *4353:B 0
2 *4352:B 0.000157236
3 *4351:Y 0.000116665
4 *272:10 0.000273902
5 *272:10 *4356:B1 0
6 *4353:A *4352:B 0.000141606
7 *4353:A *272:10 3.25831e-05
8 *227:154 *4352:B 5.92849e-05
9 *227:154 *272:10 7.24866e-05
10 *228:36 *272:10 2.68526e-05
*RES
1 *4351:Y *272:10 6.195 
2 *272:10 *4352:B 6.735 
3 *272:10 *4353:B 2 
*END

*D_NET *273 0.00108702
*CONN
*I *4356:B1 I *D sky130_fd_sc_hd__a21o_2
*I *4352:Y O *D sky130_fd_sc_hd__nor2_2
*CAP
1 *4356:B1 0.000371751
2 *4352:Y 0.000371751
3 *4356:B1 *4356:A2 1.34361e-05
4 *4356:B1 *274:8 9.29751e-06
5 *4356:B1 *1030:37 4.77719e-05
6 *4356:A1 *4356:B1 0.000108329
7 *223:28 *4356:B1 0
8 *227:154 *4356:B1 0
9 *267:10 *4356:B1 0.000164686
10 *272:10 *4356:B1 0
*RES
1 *4352:Y *4356:B1 14.16 
*END

*D_NET *274 0.000625476
*CONN
*I *4356:A2 I *D sky130_fd_sc_hd__a21o_2
*I *4354:B I *D sky130_fd_sc_hd__xnor2_2
*I *4353:X O *D sky130_fd_sc_hd__xor2_2
*CAP
1 *4356:A2 0.000113635
2 *4354:B 0
3 *4353:X 8.50249e-05
4 *274:8 0.00019866
5 *4356:A1 *4356:A2 0.00011301
6 *4356:B1 *4356:A2 1.34361e-05
7 *4356:B1 *274:8 9.29751e-06
8 *267:10 *4356:A2 1.34361e-05
9 *267:10 *274:8 7.89767e-05
*RES
1 *4353:X *274:8 5.49 
2 *274:8 *4354:B 3.6 
3 *274:8 *4356:A2 6.045 
*END

*D_NET *275 0.000683313
*CONN
*I *4355:A_N I *D sky130_fd_sc_hd__nand2b_2
*I *4372:B I *D sky130_fd_sc_hd__xnor2_2
*I *4354:Y O *D sky130_fd_sc_hd__xnor2_2
*CAP
1 *4355:A_N 6.0293e-05
2 *4372:B 0
3 *4354:Y 7.10666e-05
4 *275:8 0.00013136
5 *4355:B *4355:A_N 0.000166346
6 *4355:B *275:8 2.30797e-05
7 *223:28 *4355:A_N 6.41315e-05
8 *223:28 *275:8 4.92047e-05
9 *266:10 *275:8 0.000117832
*RES
1 *4354:Y *275:8 5.235 
2 *275:8 *4372:B 3.6 
3 *275:8 *4355:A_N 5.745 
*END

*D_NET *276 0.000997062
*CONN
*I *4370:A I *D sky130_fd_sc_hd__xor2_2
*I *4369:A I *D sky130_fd_sc_hd__nor2_2
*I *4355:Y O *D sky130_fd_sc_hd__nand2b_2
*CAP
1 *4370:A 0.000146656
2 *4369:A 1.17375e-05
3 *4355:Y 0.000243553
4 *276:8 0.000401946
5 *4369:A *1144:DIODE 2.75229e-05
6 *4369:A *1039:51 4.82919e-05
7 *4370:A *4369:B 6.4422e-05
8 *4370:A *4370:B 4.99619e-05
9 *276:8 *4369:B 2.97004e-06
*RES
1 *4355:Y *276:8 7.53 
2 *276:8 *4369:A 4.05 
3 *276:8 *4370:A 6.39 
*END

*D_NET *277 0.00303806
*CONN
*I *4477:A I *D sky130_fd_sc_hd__and3_2
*I *4367:A I *D sky130_fd_sc_hd__nand2_2
*I *4368:A I *D sky130_fd_sc_hd__xnor2_2
*I *4356:X O *D sky130_fd_sc_hd__a21o_2
*CAP
1 *4477:A 4.1311e-05
2 *4367:A 1.87946e-05
3 *4368:A 6.45387e-05
4 *4356:X 0.000483042
5 *277:25 0.00018318
6 *277:10 0.000670656
7 *4367:A *4477:B 9.13949e-06
8 *4477:A *4477:B 4.97887e-05
9 *277:10 *4366:A 0
10 *277:10 *4464:A1 0
11 *277:10 *287:10 0.00011852
12 *277:10 *385:10 0.000293733
13 *277:10 *1030:37 9.64021e-05
14 *277:25 *4477:B 2.20014e-05
15 *277:25 *287:10 3.09233e-05
16 *277:25 *287:23 0.000392584
17 *277:25 *385:10 0.000332049
18 *4465:A1 *4367:A 0
19 *4465:A1 *4477:A 7.35756e-05
20 *4465:A1 *277:25 0.000157818
21 *223:28 *277:10 0
*RES
1 *4356:X *277:10 12.585 
2 *277:10 *4368:A 4.395 
3 *277:10 *277:25 7.415 
4 *277:25 *4367:A 1.96 
5 *277:25 *4477:A 2.74 
*END

*D_NET *278 0.00182723
*CONN
*I *4366:A I *D sky130_fd_sc_hd__xnor2_2
*I *4464:A1 I *D sky130_fd_sc_hd__a21o_2
*I *4357:Y O *D sky130_fd_sc_hd__o21ai_2
*CAP
1 *4366:A 0.00013326
2 *4464:A1 9.61074e-05
3 *4357:Y 0.000258077
4 *278:8 0.000487445
5 *4366:A *1144:DIODE 0.000235339
6 *4366:A *4366:B 8.64421e-05
7 *4366:A *4464:A2 0.000130721
8 *4366:A *385:10 0
9 *4366:A *1039:51 5.93081e-05
10 *4464:A1 *4464:A2 5.23362e-05
11 *4464:A1 *4464:B1 4.82863e-05
12 *278:8 *4464:A2 2.75145e-05
13 *278:8 *4464:B1 5.36281e-05
14 *4357:A1 *278:8 8.65905e-05
15 *4357:A2 *278:8 7.00889e-06
16 *4364:A *4366:A 4.77757e-05
17 *227:154 *4464:A1 1.73877e-05
18 *277:10 *4366:A 0
19 *277:10 *4464:A1 0
*RES
1 *4357:Y *278:8 7.5 
2 *278:8 *4464:A1 5.175 
3 *278:8 *4366:A 7.77 
*END

*D_NET *279 0.00104307
*CONN
*I *4359:B I *D sky130_fd_sc_hd__nand2_2
*I *4360:B I *D sky130_fd_sc_hd__xnor2_2
*I *4358:X O *D sky130_fd_sc_hd__xor2_2
*CAP
1 *4359:B 0.000198996
2 *4360:B 0
3 *4358:X 0.000213525
4 *279:10 0.000412521
5 *4359:B *4358:A 0
6 *4359:B *1030:14 9.29751e-06
7 *4359:B *1038:12 0
8 *4359:B *1039:28 0.000189291
9 *279:10 *4358:A 0
10 *279:10 *4358:B 0
11 *279:10 *1030:14 1.94351e-05
*RES
1 *4358:X *279:10 7.05 
2 *279:10 *4360:B 3.6 
3 *279:10 *4359:B 7.785 
*END

*D_NET *280 0.000605813
*CONN
*I *4465:B1 I *D sky130_fd_sc_hd__o21ai_2
*I *4359:Y O *D sky130_fd_sc_hd__nand2_2
*CAP
1 *4465:B1 0.00027014
2 *4359:Y 0.00027014
3 *4465:B1 *1144:DIODE 6.55328e-05
4 *4465:B1 *1038:12 0
*RES
1 *4359:Y *4465:B1 11.1 
*END

*D_NET *281 0.000894341
*CONN
*I *4361:B I *D sky130_fd_sc_hd__or2_2
*I *4362:B I *D sky130_fd_sc_hd__xnor2_2
*I *4360:Y O *D sky130_fd_sc_hd__xnor2_2
*CAP
1 *4361:B 9.34309e-05
2 *4362:B 0
3 *4360:Y 0.000100944
4 *281:10 0.000194375
5 *4361:B *1144:DIODE 8.97486e-05
6 *4361:B *1039:22 4.00541e-06
7 *4361:B *1039:28 8.6099e-05
8 *4361:B *1095:23 4.82919e-05
9 *281:10 *1144:DIODE 7.89689e-05
10 *281:10 *1030:14 7.23533e-05
11 *281:10 *1039:28 3.95347e-05
12 *281:10 *1039:51 8.65905e-05
*RES
1 *4360:Y *281:10 6.03 
2 *281:10 *4362:B 3.6 
3 *281:10 *4361:B 6.3 
*END

*D_NET *282 0.00167374
*CONN
*I *4473:A I *D sky130_fd_sc_hd__xnor2_2
*I *4471:A I *D sky130_fd_sc_hd__nor2_2
*I *4472:A I *D sky130_fd_sc_hd__nand2_2
*I *4361:X O *D sky130_fd_sc_hd__or2_2
*CAP
1 *4473:A 0
2 *4471:A 0.000111208
3 *4472:A 0
4 *4361:X 0.000178449
5 *282:23 0.000194665
6 *282:10 0.000261905
7 *4471:A *4473:B 0.000122325
8 *4471:A *4485:B1 6.3889e-05
9 *282:10 *386:8 0.000166346
10 *282:10 *1095:23 3.23663e-05
11 *282:23 *4485:B1 5.05437e-05
12 *282:23 *386:8 0.000164679
13 *4361:A *282:10 4.82919e-05
14 *224:73 *282:10 7.89767e-05
15 *225:31 *282:10 0.000137777
16 *225:31 *282:23 6.23206e-05
*RES
1 *4361:X *282:10 8.67 
2 *282:10 *4472:A 3.6 
3 *282:10 *282:23 4.685 
4 *282:23 *4471:A 3.775 
5 *282:23 *4473:A 1.6 
*END

*D_NET *283 0.00114985
*CONN
*I *4364:B I *D sky130_fd_sc_hd__nand2_2
*I *4365:B I *D sky130_fd_sc_hd__xnor2_2
*I *4363:B I *D sky130_fd_sc_hd__nor2_2
*I *4362:Y O *D sky130_fd_sc_hd__xnor2_2
*CAP
1 *4364:B 7.48304e-05
2 *4365:B 0
3 *4363:B 5.82454e-05
4 *4362:Y 2.61242e-05
5 *283:10 0.000114849
6 *283:6 0.000157559
7 *224:58 *4363:B 3.09164e-05
8 *224:73 *4363:B 0.00015997
9 *224:73 *283:10 0.000175901
10 *227:154 *4364:B 7.49327e-05
11 *227:154 *283:10 6.0236e-05
12 *227:156 *4364:B 4.82919e-05
13 *227:156 *283:6 4.66108e-05
14 *271:8 *4363:B 5.53249e-06
15 *271:19 *4363:B 9.68865e-05
16 *271:19 *283:10 1.89685e-05
*RES
1 *4362:Y *283:6 2.05 
2 *283:6 *283:10 4.145 
3 *283:10 *4363:B 5.745 
4 *283:10 *4365:B 3.6 
5 *283:6 *4364:B 3.085 
*END

*D_NET *284 0.000480664
*CONN
*I *4464:B1 I *D sky130_fd_sc_hd__a21o_2
*I *4363:Y O *D sky130_fd_sc_hd__nor2_2
*CAP
1 *4464:B1 0.000164394
2 *4363:Y 0.000164394
3 *4464:B1 *4464:A2 4.99619e-05
4 *4464:A1 *4464:B1 4.82863e-05
5 *278:8 *4464:B1 5.36281e-05
*RES
1 *4363:Y *4464:B1 6.095 
*END

*D_NET *285 0.000874816
*CONN
*I *4464:A2 I *D sky130_fd_sc_hd__a21o_2
*I *4364:Y O *D sky130_fd_sc_hd__nand2_2
*CAP
1 *4464:A2 0.000158162
2 *4364:Y 0.000158162
3 *4464:A2 *385:10 0
4 *4364:A *4464:A2 8.97564e-05
5 *4366:A *4464:A2 0.000130721
6 *4464:A1 *4464:A2 5.23362e-05
7 *4464:B1 *4464:A2 4.99619e-05
8 *224:73 *4464:A2 0
9 *227:154 *4464:A2 0.000208202
10 *278:8 *4464:A2 2.75145e-05
*RES
1 *4364:Y *4464:A2 12.345 
*END

*D_NET *286 0.000197393
*CONN
*I *4366:B I *D sky130_fd_sc_hd__xnor2_2
*I *4365:Y O *D sky130_fd_sc_hd__xnor2_2
*CAP
1 *4366:B 1.22544e-05
2 *4365:Y 1.22544e-05
3 *4366:B *1039:51 8.64421e-05
4 *4366:A *4366:B 8.64421e-05
*RES
1 *4365:Y *4366:B 3.995 
*END

*D_NET *287 0.00212886
*CONN
*I *4477:B I *D sky130_fd_sc_hd__and3_2
*I *4367:B I *D sky130_fd_sc_hd__nand2_2
*I *4368:B I *D sky130_fd_sc_hd__xnor2_2
*I *4366:Y O *D sky130_fd_sc_hd__xnor2_2
*CAP
1 *4477:B 0.000192319
2 *4367:B 0
3 *4368:B 0
4 *4366:Y 0.00023184
5 *287:23 0.000396772
6 *287:10 0.000436293
7 *287:10 *1039:51 0.000235238
8 *287:23 *385:10 1.34361e-05
9 *4367:A *4477:B 9.13949e-06
10 *4465:A1 *4477:B 0
11 *4477:A *4477:B 4.97887e-05
12 *277:10 *287:10 0.00011852
13 *277:25 *4477:B 2.20014e-05
14 *277:25 *287:10 3.09233e-05
15 *277:25 *287:23 0.000392584
*RES
1 *4366:Y *287:10 7.41 
2 *287:10 *4368:B 3.6 
3 *287:10 *287:23 6.725 
4 *287:23 *4367:B 1.6 
5 *287:23 *4477:B 4.96 
*END

*D_NET *288 0.000466237
*CONN
*I *4478:A I *D sky130_fd_sc_hd__xnor2_2
*I *4367:Y O *D sky130_fd_sc_hd__nand2_2
*CAP
1 *4478:A 0.000143899
2 *4367:Y 0.000143899
3 *4478:A *4475:A 0
4 *4478:A *385:10 0
5 *223:51 *4478:A 0.000178439
*RES
1 *4367:Y *4478:A 9.795 
*END

*D_NET *289 0.000578804
*CONN
*I *4369:B I *D sky130_fd_sc_hd__nor2_2
*I *4370:B I *D sky130_fd_sc_hd__xor2_2
*I *4368:Y O *D sky130_fd_sc_hd__xnor2_2
*CAP
1 *4369:B 0.000103833
2 *4370:B 0.000191236
3 *4368:Y 8.7403e-05
4 *4369:B *4384:B1 0
5 *4369:B *4463:B1 7.89767e-05
6 *4370:A *4369:B 6.4422e-05
7 *4370:A *4370:B 4.99619e-05
8 *276:8 *4369:B 2.97004e-06
*RES
1 *4368:Y *4370:B 3.0475 
2 *4370:B *4369:B 7.94 
*END

*D_NET *290 0.000944688
*CONN
*I *4463:B1 I *D sky130_fd_sc_hd__a21oi_2
*I *4369:Y O *D sky130_fd_sc_hd__nor2_2
*CAP
1 *4463:B1 0.000287968
2 *4369:Y 0.000287968
3 *4463:B1 *1150:DIODE 0
4 *4463:B1 *4463:A1 4.99619e-05
5 *4463:B1 *291:8 0
6 *4463:B1 *1095:23 0.000239813
7 *4369:B *4463:B1 7.89767e-05
*RES
1 *4369:Y *4463:B1 13.05 
*END

*D_NET *291 0.00114337
*CONN
*I *4371:B I *D sky130_fd_sc_hd__xnor2_2
*I *4463:A2 I *D sky130_fd_sc_hd__a21oi_2
*I *4370:X O *D sky130_fd_sc_hd__xor2_2
*CAP
1 *4371:B 5.44292e-05
2 *4463:A2 9.47209e-05
3 *4370:X 0.00012683
4 *291:8 0.00027598
5 *4371:B *1150:DIODE 9.24127e-05
6 *4371:B *1155:DIODE 0.000116853
7 *4371:B *982:139 3.09233e-05
8 *4463:A2 *4463:A1 0.000122337
9 *4463:A2 *384:14 8.8266e-05
10 *4463:A2 *1095:23 2.66586e-05
11 *291:8 *1150:DIODE 0.000113964
12 *4463:B1 *291:8 0
*RES
1 *4370:X *291:8 6 
2 *291:8 *4463:A2 5.79 
3 *291:8 *4371:B 5.49 
*END

*D_NET *292 0.000723644
*CONN
*I *4385:A_N I *D sky130_fd_sc_hd__and2b_2
*I *4386:A I *D sky130_fd_sc_hd__xnor2_2
*I *4371:Y O *D sky130_fd_sc_hd__xnor2_2
*CAP
1 *4385:A_N 0.000170178
2 *4386:A 2.08101e-05
3 *4371:Y 0.000112755
4 *292:6 0.000303743
5 *4385:A_N *4386:B 0
6 *4385:A_N *1020:58 0.000116158
*RES
1 *4371:Y *292:6 3.085 
2 *292:6 *4386:A 1.96 
3 *292:6 *4385:A_N 8.465 
*END

*D_NET *293 0.00078288
*CONN
*I *4382:A I *D sky130_fd_sc_hd__and3_2
*I *4383:A I *D sky130_fd_sc_hd__xnor2_2
*I *4372:Y O *D sky130_fd_sc_hd__xnor2_2
*CAP
1 *4382:A 0
2 *4383:A 0.000127047
3 *4372:Y 0.00010907
4 *293:6 0.000236117
5 *4383:A *1150:DIODE 3.84409e-05
6 *4383:A *4384:B1 0.000162318
7 *4383:A *294:27 9.84957e-05
8 *293:6 *294:27 1.1392e-05
*RES
1 *4372:Y *293:6 3.085 
2 *293:6 *4383:A 8.705 
3 *293:6 *4382:A 1.6 
*END

*D_NET *294 0.00275044
*CONN
*I *4396:A I *D sky130_fd_sc_hd__xnor2_2
*I *4382:B I *D sky130_fd_sc_hd__and3_2
*I *4381:A I *D sky130_fd_sc_hd__nand2_2
*I *4373:X O *D sky130_fd_sc_hd__xor2_2
*CAP
1 *4396:A 0.000244838
2 *4382:B 0
3 *4381:A 2.11983e-05
4 *4373:X 0.000606379
5 *294:27 0.000506806
6 *294:8 0.000889545
7 *4396:A *4382:C 5.75589e-05
8 *4396:A *4384:B1 7.3151e-05
9 *294:8 *4383:B 2.24336e-05
10 *294:8 *4422:B 0
11 *294:8 *301:10 0
12 *294:8 *301:19 0
13 *294:8 *342:8 0
14 *294:27 *1150:DIODE 4.40123e-05
15 *294:27 *4383:B 1.53032e-05
16 *294:27 *4384:B1 4.66108e-05
17 *4373:B *294:8 6.4422e-05
18 *4383:A *294:27 9.84957e-05
19 *228:36 *4381:A 4.82919e-05
20 *293:6 *294:27 1.1392e-05
*RES
1 *4373:X *294:8 13.905 
2 *294:8 *4381:A 4.05 
3 *294:8 *294:27 6.35 
4 *294:27 *4382:B 1.6 
5 *294:27 *4396:A 5.44 
*END

*D_NET *295 0.002783
*CONN
*I *4461:D I *D sky130_fd_sc_hd__and4bb_2
*I *4398:A I *D sky130_fd_sc_hd__or2_2
*I *4374:Y O *D sky130_fd_sc_hd__xnor2_2
*CAP
1 *4461:D 0.000614803
2 *4398:A 0
3 *4374:Y 0.000240204
4 *295:8 0.000855006
5 *4461:D *1154:DIODE 1.03423e-05
6 *4461:D *4408:A2_N 0.000337531
7 *4461:D *4430:B 0
8 *4461:D *4461:A_N 0.000174577
9 *4461:D *4461:B_N 8.65961e-05
10 *4461:D *4461:C 4.99619e-05
11 *4461:D *4462:C 6.38722e-05
12 *4461:D *319:10 4.99619e-05
13 *4461:D *333:10 0
14 *295:8 *4398:B 0.000114433
15 *1153:DIODE *4461:D 8.57237e-05
16 *1153:DIODE *295:8 9.99851e-05
*RES
1 *4374:Y *295:8 6.205 
2 *295:8 *4398:A 1.6 
3 *295:8 *4461:D 17.675 
*END

*D_NET *296 7.5685e-05
*CONN
*I *4378:B1 I *D sky130_fd_sc_hd__a21oi_2
*I *4375:Y O *D sky130_fd_sc_hd__nor2_2
*CAP
1 *4378:B1 1.14432e-05
2 *4375:Y 1.14432e-05
3 *4378:B1 *301:10 7.00889e-06
4 *4378:B1 *1032:43 2.75229e-05
5 *1143:DIODE *4378:B1 1.82667e-05
*RES
1 *4375:Y *4378:B1 3.65 
*END

*D_NET *297 0.0027313
*CONN
*I *4461:A_N I *D sky130_fd_sc_hd__and4bb_2
*I *4378:A2 I *D sky130_fd_sc_hd__a21oi_2
*I *4376:X O *D sky130_fd_sc_hd__or2_2
*CAP
1 *4461:A_N 0.00078395
2 *4378:A2 0.000183996
3 *4376:X 0.000102901
4 *297:8 0.00107085
5 *4378:A2 *4378:A1 9.50342e-06
6 *4378:A2 *4388:A 4.36369e-05
7 *4461:A_N *4388:A 0
8 *4461:A_N *4405:A 0.000160641
9 *4461:A_N *301:10 0.000114492
10 *4461:A_N *309:10 1.4399e-05
11 *297:8 *4378:A1 0
12 *297:8 *314:10 0
13 *297:8 *1032:43 7.23602e-05
14 *4461:D *4461:A_N 0.000174577
15 *228:36 *4461:A_N 0
16 *228:36 *297:8 0
*RES
1 *4376:X *297:8 5.6175 
2 *297:8 *4378:A2 5.9175 
3 *297:8 *4461:A_N 15.9225 
*END

*D_NET *298 0.000679227
*CONN
*I *4389:B I *D sky130_fd_sc_hd__xnor2_2
*I *4377:X O *D sky130_fd_sc_hd__xor2_2
*CAP
1 *4389:B 0.000168461
2 *4377:X 0.000168461
3 *4389:B *4377:B 4.82863e-05
4 *4389:B *4389:A 0.000154806
5 *4389:B *4404:A0 4.82863e-05
6 *4389:B *1033:10 9.09263e-05
*RES
1 *4377:X *4389:B 11.325 
*END

*D_NET *299 0.000925945
*CONN
*I *4388:A I *D sky130_fd_sc_hd__xnor2_2
*I *4380:A I *D sky130_fd_sc_hd__nor2_2
*I *4378:Y O *D sky130_fd_sc_hd__a21oi_2
*CAP
1 *4388:A 0.000181268
2 *4380:A 7.25879e-05
3 *4378:Y 8.67543e-05
4 *299:6 0.00034061
5 *4380:A *301:10 1.4389e-05
6 *4388:A *4378:A1 2.50049e-05
7 *4388:A *4388:B 0.000112097
8 *4388:A *301:10 0
9 *4388:A *342:8 0
10 *299:6 *4378:A1 2.75229e-05
11 *299:6 *301:10 2.20732e-05
12 *4378:A2 *4388:A 4.36369e-05
13 *4461:A_N *4388:A 0
*RES
1 *4378:Y *299:6 2.74 
2 *299:6 *4380:A 2.665 
3 *299:6 *4388:A 8.96 
*END

*D_NET *300 0.000844986
*CONN
*I *4380:B I *D sky130_fd_sc_hd__nor2_2
*I *4388:B I *D sky130_fd_sc_hd__xnor2_2
*I *4379:Y O *D sky130_fd_sc_hd__xnor2_2
*CAP
1 *4380:B 0
2 *4388:B 0.000146119
3 *4379:Y 0.00014322
4 *300:6 0.000289339
5 *4388:B *342:8 0
6 *300:6 *301:10 2.75145e-05
7 *1143:DIODE *300:6 7.67345e-05
8 *4388:A *4388:B 0.000112097
9 *230:86 *300:6 4.99619e-05
*RES
1 *4379:Y *300:6 4.465 
2 *300:6 *4388:B 8.45 
3 *300:6 *4380:B 1.6 
*END

*D_NET *301 0.00328691
*CONN
*I *4382:C I *D sky130_fd_sc_hd__and3_2
*I *4381:B I *D sky130_fd_sc_hd__nand2_2
*I *4395:A_N I *D sky130_fd_sc_hd__and2b_2
*I *4380:Y O *D sky130_fd_sc_hd__nor2_2
*CAP
1 *4382:C 0.000178617
2 *4381:B 3.44213e-05
3 *4395:A_N 0
4 *4380:Y 0.000647738
5 *301:19 0.00032044
6 *301:10 0.000755139
7 *4382:C *4383:B 4.71081e-05
8 *4382:C *4384:B1 3.03775e-05
9 *4382:C *4396:B 0
10 *301:10 *4378:A1 2.75229e-05
11 *301:19 *4383:B 2.45182e-05
12 *1143:DIODE *301:10 0.000382758
13 *4373:B *301:10 0
14 *4378:B1 *301:10 7.00889e-06
15 *4380:A *301:10 1.4389e-05
16 *4388:A *301:10 0
17 *4396:A *4382:C 5.75589e-05
18 *4461:A_N *301:10 0.000114492
19 *228:36 *4381:B 8.65905e-05
20 *228:36 *4382:C 1.0183e-05
21 *228:36 *301:10 0.000403544
22 *228:36 *301:19 9.49203e-05
23 *294:8 *301:10 0
24 *294:8 *301:19 0
25 *299:6 *301:10 2.20732e-05
26 *300:6 *301:10 2.75145e-05
*RES
1 *4380:Y *301:10 18.735 
2 *301:10 *4395:A_N 3.6 
3 *301:10 *301:19 2.655 
4 *301:19 *4381:B 4.395 
5 *301:19 *4382:C 6.72 
*END

*D_NET *302 0.000744499
*CONN
*I *4383:B I *D sky130_fd_sc_hd__xnor2_2
*I *4381:Y O *D sky130_fd_sc_hd__nand2_2
*CAP
1 *4383:B 0.000171885
2 *4381:Y 0.000171885
3 *4383:B *1150:DIODE 0.000291365
4 *4383:B *4396:B 0
5 *4382:C *4383:B 4.71081e-05
6 *294:8 *4383:B 2.24336e-05
7 *294:27 *4383:B 1.53032e-05
8 *301:19 *4383:B 2.45182e-05
*RES
1 *4381:Y *4383:B 11.64 
*END

*D_NET *303 0.00133039
*CONN
*I *4384:B1 I *D sky130_fd_sc_hd__a21o_2
*I *4382:X O *D sky130_fd_sc_hd__and3_2
*CAP
1 *4384:B1 0.000250242
2 *4382:X 0.000250242
3 *4384:B1 *1150:DIODE 0.000517454
4 *4369:B *4384:B1 0
5 *4382:C *4384:B1 3.03775e-05
6 *4383:A *4384:B1 0.000162318
7 *4396:A *4384:B1 7.3151e-05
8 *294:27 *4384:B1 4.66108e-05
*RES
1 *4382:X *4384:B1 14.31 
*END

*D_NET *304 0.000630375
*CONN
*I *4384:A2 I *D sky130_fd_sc_hd__a21o_2
*I *4387:B I *D sky130_fd_sc_hd__xnor2_2
*I *4383:Y O *D sky130_fd_sc_hd__xnor2_2
*CAP
1 *4384:A2 1.02651e-05
2 *4387:B 0.000226922
3 *4383:Y 0.000216657
4 *4384:A2 *4387:A 8.8266e-05
5 *4384:A2 *305:10 8.8266e-05
6 *4387:B *1145:DIODE 0
7 *4387:B *1147:DIODE 0
8 *4387:B *1150:DIODE 0
9 *4387:B *4400:B 0
10 *4387:B *317:8 0
*RES
1 *4383:Y *4387:B 10.62 
2 *4387:B *4384:A2 3.995 
*END

*D_NET *305 0.00213782
*CONN
*I *4386:B I *D sky130_fd_sc_hd__xnor2_2
*I *4385:B I *D sky130_fd_sc_hd__and2b_2
*I *4384:X O *D sky130_fd_sc_hd__a21o_2
*CAP
1 *4386:B 0.000158672
2 *4385:B 7.47437e-05
3 *4384:X 0.000389616
4 *305:10 0.000623031
5 *4385:B *384:14 0.000116448
6 *4385:B *1095:23 0.000352161
7 *4386:B *1150:DIODE 0
8 *4386:B *1020:58 0
9 *305:10 *1150:DIODE 0
10 *305:10 *4387:A 6.65725e-05
11 *305:10 *1020:58 0
12 *305:10 *1020:60 0
13 *305:10 *1039:51 0.00010768
14 *305:10 *1117:217 0.00016063
15 *4384:A2 *305:10 8.8266e-05
16 *4385:A_N *4386:B 0
*RES
1 *4384:X *305:10 10.92 
2 *305:10 *4385:B 6.81 
3 *305:10 *4386:B 6 
*END

*D_NET *306 0.00186675
*CONN
*I *4483:B1 I *D sky130_fd_sc_hd__a31o_2
*I *4506:A1 I *D sky130_fd_sc_hd__a21o_2
*I *4385:X O *D sky130_fd_sc_hd__and2b_2
*CAP
1 *4483:B1 0.000397637
2 *4506:A1 0
3 *4385:X 0.000339157
4 *306:6 0.000736794
5 *4483:B1 *4506:A2 3.66286e-05
6 *4483:B1 *367:49 0
7 *4483:B1 *427:12 0
8 *4483:B1 *1095:23 0.000146622
9 *306:6 *4506:A2 4.99619e-05
10 *306:6 *1095:23 0.000159951
*RES
1 *4385:X *306:6 6.19 
2 *306:6 *4506:A1 1.6 
3 *306:6 *4483:B1 10.97 
*END

*D_NET *307 0.00468902
*CONN
*I *4483:A1 I *D sky130_fd_sc_hd__a31o_2
*I *4605:A I *D sky130_fd_sc_hd__and4_2
*I *4507:A1 I *D sky130_fd_sc_hd__a41o_2
*I *4449:A I *D sky130_fd_sc_hd__xor2_2
*I *4386:Y O *D sky130_fd_sc_hd__xnor2_2
*CAP
1 *4483:A1 0.000481226
2 *4605:A 0.000137581
3 *4507:A1 0
4 *4449:A 0.000354343
5 *4386:Y 0.000223107
6 *307:16 0.000662663
7 *307:12 0.000603241
8 *307:8 0.000861672
9 *4449:A *367:49 0.000137571
10 *4483:A1 *4506:B1 1.90662e-05
11 *4483:A1 *384:23 7.49327e-05
12 *4483:A1 *403:6 8.16598e-05
13 *4605:A *425:14 6.55406e-05
14 *4605:A *426:6 2.75145e-05
15 *307:8 *384:14 0.000115146
16 *307:8 *384:23 0.000238919
17 *307:12 *4481:A 8.97642e-05
18 *307:12 *400:12 7.71016e-05
19 *307:12 *427:12 0
20 *307:16 *4507:B1 0.000161529
21 *307:16 *427:12 0.000276441
*RES
1 *4386:Y *307:8 5.86 
2 *307:8 *307:12 5.42 
3 *307:12 *307:16 7.97 
4 *307:16 *4449:A 11.135 
5 *307:16 *4507:A1 1.6 
6 *307:12 *4605:A 6.195 
7 *307:8 *4483:A1 8.455 
*END

*D_NET *308 0.00167526
*CONN
*I *4399:B1 I *D sky130_fd_sc_hd__a21oi_2
*I *4446:A I *D sky130_fd_sc_hd__nand3_2
*I *4387:Y O *D sky130_fd_sc_hd__xnor2_2
*CAP
1 *4399:B1 0.000111266
2 *4446:A 0.000115056
3 *4387:Y 0.000369781
4 *308:8 0.000596103
5 *4399:B1 *4399:A1 0
6 *4399:B1 *320:6 4.82863e-05
7 *4446:A *4399:A1 0
8 *4446:A *4410:B 0.000183036
9 *4446:A *1039:51 6.44134e-05
10 *308:8 *4400:A 3.06386e-05
11 *308:8 *4400:B 4.70477e-05
12 *308:8 *4410:B 1.19928e-05
13 *308:8 *321:6 5.83121e-06
14 *308:8 *1039:51 9.18083e-05
*RES
1 *4387:Y *308:8 8.19 
2 *308:8 *4446:A 6.51 
3 *308:8 *4399:B1 5.43 
*END

*D_NET *309 0.00226009
*CONN
*I *4408:A1_N I *D sky130_fd_sc_hd__a2bb2oi_2
*I *4407:A I *D sky130_fd_sc_hd__xnor2_2
*I *4394:A_N I *D sky130_fd_sc_hd__nand2b_2
*I *4388:Y O *D sky130_fd_sc_hd__xnor2_2
*CAP
1 *4408:A1_N 0.000273077
2 *4407:A 0
3 *4394:A_N 0
4 *4388:Y 0.000175327
5 *309:19 0.000323244
6 *309:10 0.000225494
7 *4408:A1_N *1149:DIODE 4.82919e-05
8 *4408:A1_N *4395:B 0.000200921
9 *4408:A1_N *4408:B1 2.05056e-05
10 *4408:A1_N *4408:B2 0.0001249
11 *4408:A1_N *329:10 8.8266e-05
12 *309:10 *4394:B 0
13 *309:10 *4407:B 5.63405e-05
14 *309:10 *314:10 0
15 *309:19 *4395:B 7.55313e-05
16 *309:19 *4407:B 1.01661e-05
17 *4461:A_N *309:10 1.4399e-05
18 *228:36 *4408:A1_N 0.000157051
19 *228:36 *309:10 0.000314452
20 *228:36 *309:19 0.00015212
*RES
1 *4388:Y *309:10 7.725 
2 *309:10 *4394:A_N 3.6 
3 *309:10 *309:19 1.89 
4 *309:19 *4407:A 3.6 
5 *309:19 *4408:A1_N 10.38 
*END

*D_NET *310 0.000640305
*CONN
*I *4393:A_N I *D sky130_fd_sc_hd__and2b_2
*I *4401:A I *D sky130_fd_sc_hd__xnor2_2
*I *4389:Y O *D sky130_fd_sc_hd__xnor2_2
*CAP
1 *4393:A_N 0.000124505
2 *4401:A 2.42846e-05
3 *4389:Y 0.000133455
4 *310:8 0.000282245
5 *4393:A_N *4401:B 0
6 *4393:A_N *4404:A0 4.82919e-05
7 *4393:A_N *1015:56 0
8 *4401:A *1033:29 2.75229e-05
9 *310:8 *1015:56 0
*RES
1 *4389:Y *310:8 5.745 
2 *310:8 *4401:A 4.05 
3 *310:8 *4393:A_N 5.685 
*END

*D_NET *311 0.00242121
*CONN
*I *4412:A I *D sky130_fd_sc_hd__or2_2
*I *4404:S I *D sky130_fd_sc_hd__mux2_1
*I *4427:B1 I *D sky130_fd_sc_hd__a22o_2
*I *4392:B1 I *D sky130_fd_sc_hd__o21ai_2
*I *4390:Y O *D sky130_fd_sc_hd__nand2_2
*CAP
1 *4412:A 3.92577e-05
2 *4404:S 5.83925e-05
3 *4427:B1 0.000223345
4 *4392:B1 3.03783e-05
5 *4390:Y 0.00015057
6 *311:25 0.00032616
7 *311:16 0.000239105
8 *311:10 0.000354132
9 *4392:B1 *4404:A0 0.000200615
10 *4392:B1 *312:21 0.000163199
11 *4404:S *1026:69 5.30673e-05
12 *4404:S *1026:90 3.26889e-05
13 *4412:A *4432:B 2.75229e-05
14 *4427:B1 *4427:B2 4.75576e-05
15 *4427:B1 *312:21 5.83121e-06
16 *4427:B1 *325:10 0
17 *4427:B1 *333:10 0
18 *4427:B1 *1021:8 0
19 *4427:B1 *1095:81 5.13155e-05
20 *311:10 *4412:B 9.14049e-05
21 *311:10 *312:8 0
22 *311:10 *1004:40 9.32739e-05
23 *311:10 *1021:12 1.26548e-05
24 *311:16 *4404:A0 3.83041e-05
25 *311:16 *4432:B 4.91952e-05
26 *311:16 *1026:69 0.000124895
27 *311:16 *1026:90 8.34281e-06
28 *311:25 *1026:90 0
29 *227:91 *4427:B1 0
*RES
1 *4390:Y *311:10 8.51 
2 *311:10 *311:16 2.985 
3 *311:16 *4392:B1 3.43 
4 *311:16 *311:25 0.87 
5 *311:25 *4427:B1 9.47 
6 *311:25 *4404:S 3.1 
7 *311:10 *4412:A 2.41 
*END

*D_NET *312 0.00161056
*CONN
*I *4420:B I *D sky130_fd_sc_hd__nor2_2
*I *4392:A2 I *D sky130_fd_sc_hd__o21ai_2
*I *4403:A I *D sky130_fd_sc_hd__nor2_2
*I *4391:Y O *D sky130_fd_sc_hd__nor2_2
*CAP
1 *4420:B 4.61438e-05
2 *4392:A2 2.32168e-05
3 *4403:A 0
4 *4391:Y 0.000143586
5 *312:21 0.00028164
6 *312:8 0.000355865
7 *4392:A2 *4404:A0 2.75229e-05
8 *4392:A2 *313:6 5.83121e-06
9 *4420:B *322:8 0.000208491
10 *312:8 *1021:12 0
11 *312:21 *4404:A0 5.82176e-05
12 *312:21 *4404:A1 2.66935e-05
13 *312:21 *325:10 5.34747e-05
14 *312:21 *1021:12 0
15 *1146:DIODE *4420:B 3.09233e-05
16 *1146:DIODE *312:21 0
17 *4392:B1 *312:21 0.000163199
18 *4427:B1 *312:21 5.83121e-06
19 *227:91 *4420:B 0.000156842
20 *227:115 *4420:B 2.30797e-05
21 *311:10 *312:8 0
*RES
1 *4391:Y *312:8 5.745 
2 *312:8 *4403:A 3.6 
3 *312:8 *312:21 6.41 
4 *312:21 *4392:A2 2.05 
5 *312:21 *4420:B 8 
*END

*D_NET *313 0.000640302
*CONN
*I *4393:B I *D sky130_fd_sc_hd__and2b_2
*I *4401:B I *D sky130_fd_sc_hd__xnor2_2
*I *4392:Y O *D sky130_fd_sc_hd__o21ai_2
*CAP
1 *4393:B 0
2 *4401:B 0.000160689
3 *4392:Y 8.13828e-05
4 *313:6 0.000242072
5 *4401:B *4376:B 0
6 *4401:B *322:8 0
7 *4401:B *1015:56 0
8 *313:6 *4404:A0 6.2061e-05
9 *313:6 *314:10 8.8266e-05
10 *4392:A2 *313:6 5.83121e-06
11 *4393:A_N *4401:B 0
*RES
1 *4392:Y *313:6 3.43 
2 *313:6 *4401:B 8 
3 *313:6 *4393:B 1.6 
*END

*D_NET *314 0.00169519
*CONN
*I *4394:B I *D sky130_fd_sc_hd__nand2b_2
*I *4406:B1 I *D sky130_fd_sc_hd__a21o_2
*I *4393:X O *D sky130_fd_sc_hd__and2b_2
*CAP
1 *4394:B 0.000119363
2 *4406:B1 0
3 *4393:X 0.000411887
4 *314:10 0.000531251
5 *4394:B *4407:B 7.81954e-05
6 *4394:B *4408:A2_N 0
7 *4394:B *325:21 0
8 *314:10 *322:8 0.000153449
9 *314:10 *325:21 0
10 *227:137 *314:10 0.000312778
11 *228:36 *314:10 0
12 *297:8 *314:10 0
13 *309:10 *4394:B 0
14 *309:10 *314:10 0
15 *313:6 *314:10 8.8266e-05
*RES
1 *4393:X *314:10 11.895 
2 *314:10 *4406:B1 3.6 
3 *314:10 *4394:B 6 
*END

*D_NET *315 0.00164967
*CONN
*I *4398:B I *D sky130_fd_sc_hd__or2_2
*I *4395:B I *D sky130_fd_sc_hd__and2b_2
*I *4394:Y O *D sky130_fd_sc_hd__nand2b_2
*CAP
1 *4398:B 4.19758e-05
2 *4395:B 0.000259647
3 *4394:Y 0
4 *315:4 0.000301623
5 *4395:B *1149:DIODE 0.000160651
6 *4395:B *4407:B 0.000136877
7 *4395:B *4416:B 0
8 *4395:B *319:10 0
9 *4395:B *328:10 0
10 *4395:B *343:10 8.65905e-05
11 *1153:DIODE *4398:B 0.000198939
12 *4408:A1_N *4395:B 0.000200921
13 *228:36 *4395:B 7.24866e-05
14 *295:8 *4398:B 0.000114433
15 *309:19 *4395:B 7.55313e-05
*RES
1 *4394:Y *315:4 1.6 
2 *315:4 *4395:B 12.62 
3 *315:4 *4398:B 3.43 
*END

*D_NET *316 0.000508774
*CONN
*I *4396:B I *D sky130_fd_sc_hd__xnor2_2
*I *4395:X O *D sky130_fd_sc_hd__and2b_2
*CAP
1 *4396:B 0.000167763
2 *4395:X 0.000167763
3 *4396:B *1149:DIODE 8.08439e-05
4 *4396:B *317:8 0
5 *4382:C *4396:B 0
6 *4383:B *4396:B 0
7 *228:36 *4396:B 9.24049e-05
*RES
1 *4395:X *4396:B 10.875 
*END

*D_NET *317 0.00104113
*CONN
*I *4400:B I *D sky130_fd_sc_hd__xor2_2
*I *4397:B I *D sky130_fd_sc_hd__nand2_2
*I *4396:Y O *D sky130_fd_sc_hd__xnor2_2
*CAP
1 *4400:B 0.000145519
2 *4397:B 0
3 *4396:Y 0.00023843
4 *317:8 0.000383949
5 *4400:B *1147:DIODE 0.000114492
6 *4400:B *4399:A2 0
7 *4400:B *4400:A 8.07672e-05
8 *4400:B *319:10 0
9 *4400:B *1020:60 3.09233e-05
10 *317:8 *319:10 0
11 *4387:B *4400:B 0
12 *4387:B *317:8 0
13 *4396:B *317:8 0
14 *308:8 *4400:B 4.70477e-05
*RES
1 *4396:Y *317:8 7.53 
2 *317:8 *4397:B 3.6 
3 *317:8 *4400:B 5.1425 
*END

*D_NET *318 0.000960468
*CONN
*I *4446:B I *D sky130_fd_sc_hd__nand3_2
*I *4399:A1 I *D sky130_fd_sc_hd__a21oi_2
*I *4397:Y O *D sky130_fd_sc_hd__nand2_2
*CAP
1 *4446:B 0
2 *4399:A1 0.000280631
3 *4397:Y 0.000138593
4 *318:8 0.000419224
5 *4399:A1 *4399:A2 0
6 *4399:A1 *4410:B 7.37282e-05
7 *318:8 *4397:A 0
8 *318:8 *4446:C 4.82919e-05
9 *4399:B1 *4399:A1 0
10 *4446:A *4399:A1 0
*RES
1 *4397:Y *318:8 3.79 
2 *318:8 *4399:A1 10.235 
3 *318:8 *4446:B 1.6 
*END

*D_NET *319 0.00271608
*CONN
*I *4399:A2 I *D sky130_fd_sc_hd__a21oi_2
*I *4446:C I *D sky130_fd_sc_hd__nand3_2
*I *4398:X O *D sky130_fd_sc_hd__or2_2
*CAP
1 *4399:A2 0.000300461
2 *4446:C 2.2266e-05
3 *4398:X 0.000793281
4 *319:10 0.00111601
5 *4399:A2 *1020:60 0
6 *319:10 *1149:DIODE 0
7 *319:10 *4407:B 0
8 *319:10 *4408:A2_N 0.000337524
9 *319:10 *4410:B 0
10 *319:10 *4415:B1 0
11 *319:10 *4416:B 0
12 *319:10 *4418:B 0
13 *319:10 *328:10 0
14 *319:10 *329:10 0
15 *1153:DIODE *319:10 4.82863e-05
16 *4395:B *319:10 0
17 *4399:A1 *4399:A2 0
18 *4400:B *4399:A2 0
19 *4400:B *319:10 0
20 *4461:D *319:10 4.99619e-05
21 *317:8 *319:10 0
22 *318:8 *4446:C 4.82919e-05
*RES
1 *4398:X *319:10 17.925 
2 *319:10 *4446:C 4.05 
3 *319:10 *4399:A2 8.235 
*END

*D_NET *320 0.00188274
*CONN
*I *4451:A_N I *D sky130_fd_sc_hd__and2b_2
*I *4447:B1 I *D sky130_fd_sc_hd__a211o_2
*I *4399:Y O *D sky130_fd_sc_hd__a21oi_2
*CAP
1 *4451:A_N 0.000173123
2 *4447:B1 0.000233989
3 *4399:Y 0.000428906
4 *320:6 0.000836018
5 *4447:B1 *4409:B 0
6 *4447:B1 *331:12 0.000115847
7 *4447:B1 *367:14 0
8 *4451:A_N *367:14 4.65698e-05
9 *4399:B1 *320:6 4.82863e-05
*RES
1 *4399:Y *320:6 7.57 
2 *320:6 *4447:B1 9.53 
3 *320:6 *4451:A_N 4.12 
*END

*D_NET *321 0.000946419
*CONN
*I *4410:A I *D sky130_fd_sc_hd__xnor2_2
*I *4409:B I *D sky130_fd_sc_hd__and2b_2
*I *4400:X O *D sky130_fd_sc_hd__xor2_2
*CAP
1 *4410:A 0
2 *4409:B 0.000168434
3 *4400:X 0.000117475
4 *321:6 0.000285909
5 *4409:B *4409:A_N 4.05674e-06
6 *4409:B *367:14 0.0001249
7 *4409:B *1039:51 0
8 *321:6 *4410:B 0.000239813
9 *4447:B1 *4409:B 0
10 *308:8 *321:6 5.83121e-06
*RES
1 *4400:X *321:6 4.12 
2 *321:6 *4409:B 8.63 
3 *321:6 *4410:A 1.6 
*END

*D_NET *322 0.00261903
*CONN
*I *4411:A I *D sky130_fd_sc_hd__xnor2_2
*I *4406:A1 I *D sky130_fd_sc_hd__a21o_2
*I *4405:A I *D sky130_fd_sc_hd__nand2_2
*I *4401:Y O *D sky130_fd_sc_hd__xnor2_2
*CAP
1 *4411:A 0.0002217
2 *4406:A1 0
3 *4405:A 8.77292e-05
4 *4401:Y 0.000263951
5 *322:23 0.000268848
6 *322:8 0.000398828
7 *4411:A *4406:A2 8.65905e-05
8 *4411:A *4411:B 0.000148084
9 *322:8 *325:10 6.36273e-05
10 *322:23 *325:10 1.22762e-05
11 *322:23 *325:21 4.49328e-05
12 *1146:DIODE *322:8 5.84378e-05
13 *4401:B *322:8 0
14 *4420:B *322:8 0.000208491
15 *4461:A_N *4405:A 0.000160641
16 *227:115 *322:8 8.15676e-05
17 *227:137 *322:8 0.000180689
18 *227:137 *322:23 0.000132089
19 *229:10 *4411:A 4.7101e-05
20 *314:10 *322:8 0.000153449
*RES
1 *4401:Y *322:8 11.1 
2 *322:8 *4405:A 5.445 
3 *322:8 *322:23 3.635 
4 *322:23 *4406:A1 1.6 
5 *322:23 *4411:A 5.53 
*END

*D_NET *323 0.000680743
*CONN
*I *4412:B I *D sky130_fd_sc_hd__or2_2
*I *4403:B I *D sky130_fd_sc_hd__nor2_2
*I *4402:Y O *D sky130_fd_sc_hd__nand2b_2
*CAP
1 *4412:B 4.62114e-05
2 *4403:B 7.80188e-05
3 *4402:Y 0
4 *323:4 0.00012423
5 *4403:B *4402:A_N 8.40213e-05
6 *4403:B *4404:A1 4.99619e-05
7 *4403:B *1021:18 3.00381e-05
8 *4403:B *1033:29 6.47326e-05
9 *4412:B *1004:40 0
10 *4412:B *1021:12 0.000112123
11 *311:10 *4412:B 9.14049e-05
*RES
1 *4402:Y *323:4 1.6 
2 *323:4 *4403:B 3.79 
3 *323:4 *4412:B 6.98 
*END

*D_NET *324 0.000248049
*CONN
*I *4404:A1 I *D sky130_fd_sc_hd__mux2_1
*I *4403:Y O *D sky130_fd_sc_hd__nor2_2
*CAP
1 *4404:A1 6.63665e-05
2 *4403:Y 6.63665e-05
3 *4404:A1 *4402:A_N 3.86607e-05
4 *4403:B *4404:A1 4.99619e-05
5 *312:21 *4404:A1 2.66935e-05
*RES
1 *4403:Y *4404:A1 8.52 
*END

*D_NET *325 0.00201848
*CONN
*I *4411:B I *D sky130_fd_sc_hd__xnor2_2
*I *4406:A2 I *D sky130_fd_sc_hd__a21o_2
*I *4405:B I *D sky130_fd_sc_hd__nand2_2
*I *4404:X O *D sky130_fd_sc_hd__mux2_1
*CAP
1 *4411:B 3.82855e-05
2 *4406:A2 1.71225e-05
3 *4405:B 0
4 *4404:X 0.00040753
5 *325:21 0.00013038
6 *325:10 0.000482502
7 *325:10 *4427:B2 4.11281e-05
8 *325:10 *4430:B 0
9 *325:21 *4408:A2_N 5.42473e-05
10 *325:21 *4430:B 0
11 *1143:DIODE *325:10 0
12 *4394:B *325:21 0
13 *4411:A *4406:A2 8.65905e-05
14 *4411:A *4411:B 0.000148084
15 *4427:B1 *325:10 0
16 *227:91 *325:10 0.00011852
17 *227:115 *325:10 0.000179015
18 *229:10 *4406:A2 5.05437e-05
19 *229:10 *4411:B 9.02174e-05
20 *312:21 *325:10 5.34747e-05
21 *314:10 *325:21 0
22 *322:8 *325:10 6.36273e-05
23 *322:23 *325:10 1.22762e-05
24 *322:23 *325:21 4.49328e-05
*RES
1 *4404:X *325:10 10.455 
2 *325:10 *4405:B 3.6 
3 *325:10 *325:21 3.89 
4 *325:21 *4406:A2 2.395 
5 *325:21 *4411:B 3.085 
*END

*D_NET *326 0.00137464
*CONN
*I *4408:A2_N I *D sky130_fd_sc_hd__a2bb2oi_2
*I *4405:Y O *D sky130_fd_sc_hd__nand2_2
*CAP
1 *4408:A2_N 0.000322669
2 *4405:Y 0.000322669
3 *4408:A2_N *4407:B 0
4 *4408:A2_N *4414:B 0
5 *4408:A2_N *4415:B1 0
6 *4394:B *4408:A2_N 0
7 *4461:D *4408:A2_N 0.000337531
8 *319:10 *4408:A2_N 0.000337524
9 *325:21 *4408:A2_N 5.42473e-05
*RES
1 *4405:Y *4408:A2_N 15.21 
*END

*D_NET *327 0.000553319
*CONN
*I *4407:B I *D sky130_fd_sc_hd__xnor2_2
*I *4406:X O *D sky130_fd_sc_hd__a21o_2
*CAP
1 *4407:B 0.00013587
2 *4406:X 0.00013587
3 *4394:B *4407:B 7.81954e-05
4 *4395:B *4407:B 0.000136877
5 *4408:A2_N *4407:B 0
6 *309:10 *4407:B 5.63405e-05
7 *309:19 *4407:B 1.01661e-05
8 *319:10 *4407:B 0
*RES
1 *4406:X *4407:B 10.62 
*END

*D_NET *328 0.00108338
*CONN
*I *4416:B I *D sky130_fd_sc_hd__xnor2_2
*I *4408:B1 I *D sky130_fd_sc_hd__a2bb2oi_2
*I *4407:Y O *D sky130_fd_sc_hd__xnor2_2
*CAP
1 *4416:B 0.000209701
2 *4408:B1 3.81541e-05
3 *4407:Y 0.000136898
4 *328:10 0.000384753
5 *4408:B1 *4408:B2 4.99619e-05
6 *4416:B *1149:DIODE 0.000119521
7 *328:10 *347:6 3.72916e-05
8 *328:10 *1031:44 8.65961e-05
9 *4395:B *4416:B 0
10 *4395:B *328:10 0
11 *4408:A1_N *4408:B1 2.05056e-05
12 *319:10 *4416:B 0
13 *319:10 *328:10 0
*RES
1 *4407:Y *328:10 6.285 
2 *328:10 *4408:B1 4.395 
3 *328:10 *4416:B 7.785 
*END

*D_NET *329 0.00365539
*CONN
*I *4409:A_N I *D sky130_fd_sc_hd__and2b_2
*I *4410:B I *D sky130_fd_sc_hd__xnor2_2
*I *4408:Y O *D sky130_fd_sc_hd__a2bb2oi_2
*CAP
1 *4409:A_N 0.00024763
2 *4410:B 0.000203434
3 *4408:Y 0.000774927
4 *329:10 0.00122599
5 *4409:A_N *367:14 3.22936e-05
6 *4409:A_N *1039:51 6.57653e-06
7 *4410:B *1039:51 0.00015896
8 *329:10 *4415:A1 2.24992e-05
9 *329:10 *4415:B1 6.55328e-05
10 *329:10 *4417:B 8.87475e-05
11 *329:10 *4418:B 0
12 *329:10 *336:10 0.000178504
13 *329:10 *1039:51 4.93992e-05
14 *4399:A1 *4410:B 7.37282e-05
15 *4408:A1_N *329:10 8.8266e-05
16 *4409:B *4409:A_N 4.05674e-06
17 *4446:A *4410:B 0.000183036
18 *308:8 *4410:B 1.19928e-05
19 *319:10 *4410:B 0
20 *319:10 *329:10 0
21 *321:6 *4410:B 0.000239813
*RES
1 *4408:Y *329:10 16.7475 
2 *329:10 *4410:B 9.3525 
3 *329:10 *4409:A_N 6.7125 
*END

*D_NET *330 0.000941714
*CONN
*I *4445:B1 I *D sky130_fd_sc_hd__a21o_2
*I *4447:C1 I *D sky130_fd_sc_hd__a211o_2
*I *4409:X O *D sky130_fd_sc_hd__and2b_2
*CAP
1 *4445:B1 0.000185559
2 *4447:C1 1.90984e-05
3 *4409:X 4.63304e-05
4 *330:8 0.000250988
5 *4445:B1 *4445:A1 0.000123414
6 *4445:B1 *4447:A2 8.65905e-05
7 *4445:B1 *367:14 0.000107424
8 *4445:B1 *368:10 3.00381e-05
9 *4447:C1 *4445:A1 4.00541e-06
10 *330:8 *367:14 8.8266e-05
*RES
1 *4409:X *330:8 2.755 
2 *330:8 *4447:C1 1.96 
3 *330:8 *4445:B1 5.86 
*END

*D_NET *331 0.00158701
*CONN
*I *4453:A I *D sky130_fd_sc_hd__xnor2_2
*I *4447:A1 I *D sky130_fd_sc_hd__a211o_2
*I *4445:A1 I *D sky130_fd_sc_hd__a21o_2
*I *4410:Y O *D sky130_fd_sc_hd__xnor2_2
*CAP
1 *4453:A 0.000226883
2 *4447:A1 0
3 *4445:A1 0.000143617
4 *4410:Y 3.37585e-05
5 *331:12 0.000226543
6 *331:6 0.000343567
7 *4445:A1 *4447:A2 8.65905e-05
8 *4453:A *4453:B 0.000201508
9 *331:12 *4447:A2 4.18603e-06
10 *331:12 *4453:B 0
11 *331:12 *367:14 7.70938e-05
12 *4445:B1 *4445:A1 0.000123414
13 *4447:B1 *331:12 0.000115847
14 *4447:C1 *4445:A1 4.00541e-06
*RES
1 *4410:Y *331:6 2.05 
2 *331:6 *331:12 6.4 
3 *331:12 *4445:A1 4.6 
4 *331:12 *4447:A1 1.6 
5 *331:6 *4453:A 5.5 
*END

*D_NET *332 0.00099649
*CONN
*I *4414:A I *D sky130_fd_sc_hd__xor2_2
*I *4413:A I *D sky130_fd_sc_hd__nor2_2
*I *4411:Y O *D sky130_fd_sc_hd__xnor2_2
*CAP
1 *4414:A 0.000134018
2 *4413:A 0
3 *4411:Y 9.20407e-05
4 *332:8 0.000226059
5 *4414:A *4414:B 0.000152127
6 *4414:A *4415:B1 1.1561e-05
7 *4414:A *335:12 3.05295e-05
8 *4414:A *347:6 5.85443e-05
9 *4414:A *348:28 0
10 *4414:A *1031:44 9.73899e-05
11 *332:8 *4414:B 9.50342e-06
12 *332:8 *333:10 0.000184717
13 *332:8 *348:28 0
*RES
1 *4411:Y *332:8 5.745 
2 *332:8 *4413:A 3.6 
3 *332:8 *4414:A 7.23 
*END

*D_NET *333 0.00200219
*CONN
*I *4414:B I *D sky130_fd_sc_hd__xor2_2
*I *4413:B I *D sky130_fd_sc_hd__nor2_2
*I *4412:X O *D sky130_fd_sc_hd__or2_2
*CAP
1 *4414:B 4.97914e-05
2 *4413:B 0
3 *4412:X 0.000606974
4 *333:10 0.000656766
5 *4414:B *4415:B1 0.000117825
6 *333:10 *1154:DIODE 2.87867e-05
7 *333:10 *4430:B 0
8 *333:10 *1004:44 0
9 *333:10 *1004:57 0
10 *333:10 *1021:8 5.39718e-05
11 *333:10 *1026:90 8.8266e-05
12 *1143:DIODE *333:10 5.34608e-05
13 *4408:A2_N *4414:B 0
14 *4414:A *4414:B 0.000152127
15 *4427:B1 *333:10 0
16 *4461:D *333:10 0
17 *332:8 *4414:B 9.50342e-06
18 *332:8 *333:10 0.000184717
*RES
1 *4412:X *333:10 14.19 
2 *333:10 *4413:B 3.6 
3 *333:10 *4414:B 3.89 
*END

*D_NET *334 0.000816991
*CONN
*I *4415:B1 I *D sky130_fd_sc_hd__a21o_2
*I *4413:Y O *D sky130_fd_sc_hd__nor2_2
*CAP
1 *4415:B1 0.000283204
2 *4413:Y 0.000283204
3 *4415:B1 *4415:A1 5.56629e-05
4 *4415:B1 *335:12 0
5 *4408:A2_N *4415:B1 0
6 *4414:A *4415:B1 1.1561e-05
7 *4414:B *4415:B1 0.000117825
8 *319:10 *4415:B1 0
9 *329:10 *4415:B1 6.55328e-05
*RES
1 *4413:Y *4415:B1 12.66 
*END

*D_NET *335 0.0010957
*CONN
*I *4415:A2 I *D sky130_fd_sc_hd__a21o_2
*I *4419:B I *D sky130_fd_sc_hd__xnor2_2
*I *4414:X O *D sky130_fd_sc_hd__xor2_2
*CAP
1 *4415:A2 0
2 *4419:B 0.000103436
3 *4414:X 0.000274691
4 *335:12 0.000378127
5 *4419:B *4415:A1 0.00019408
6 *4419:B *343:10 4.82919e-05
7 *335:12 *4415:A1 1.82563e-05
8 *335:12 *4428:B 0
9 *335:12 *343:10 4.82863e-05
10 *335:12 *348:28 0
11 *335:12 *363:20 0
12 *4414:A *335:12 3.05295e-05
13 *4415:B1 *335:12 0
*RES
1 *4414:X *335:12 10.49 
2 *335:12 *4419:B 8.195 
3 *335:12 *4415:A2 1.6 
*END

*D_NET *336 0.00117678
*CONN
*I *4417:B I *D sky130_fd_sc_hd__nand2b_2
*I *4418:A I *D sky130_fd_sc_hd__xor2_2
*I *4415:X O *D sky130_fd_sc_hd__a21o_2
*CAP
1 *4417:B 3.90241e-05
2 *4418:A 0
3 *4415:X 0.000146531
4 *336:10 0.000185555
5 *4417:B *1039:51 0.000166346
6 *336:10 *4415:A1 0.000141599
7 *336:10 *343:10 5.05521e-05
8 *336:10 *1039:51 0.000179922
9 *329:10 *4417:B 8.87475e-05
10 *329:10 *336:10 0.000178504
*RES
1 *4415:X *336:10 8.07 
2 *336:10 *4418:A 3.6 
3 *336:10 *4417:B 5.49 
*END

*D_NET *337 0.000751195
*CONN
*I *4417:A_N I *D sky130_fd_sc_hd__nand2b_2
*I *4418:B I *D sky130_fd_sc_hd__xor2_2
*I *4416:Y O *D sky130_fd_sc_hd__xnor2_2
*CAP
1 *4417:A_N 0.000100476
2 *4418:B 0.000315022
3 *4416:Y 0.000214546
4 *4417:A_N *1039:51 0.000121152
5 *319:10 *4418:B 0
6 *329:10 *4418:B 0
*RES
1 *4416:Y *4418:B 8.7575 
2 *4418:B *4417:A_N 8 
*END

*D_NET *338 0.00122676
*CONN
*I *4444:B1 I *D sky130_fd_sc_hd__o21ai_2
*I *4417:Y O *D sky130_fd_sc_hd__nand2b_2
*CAP
1 *4444:B1 0.000577203
2 *4417:Y 0.000577203
3 *4444:B1 *364:10 0
4 *4444:B1 *365:8 7.23533e-05
*RES
1 *4417:Y *4444:B1 14.115 
*END

*D_NET *339 0.000764012
*CONN
*I *4454:A I *D sky130_fd_sc_hd__xnor2_2
*I *4444:A1 I *D sky130_fd_sc_hd__o21ai_2
*I *4418:X O *D sky130_fd_sc_hd__xor2_2
*CAP
1 *4454:A 9.91504e-05
2 *4444:A1 0.000337873
3 *4418:X 0.000238722
4 *4454:A *4454:B 8.8266e-05
*RES
1 *4418:X *4444:A1 6.755 
2 *4444:A1 *4454:A 5.045 
*END

*D_NET *340 0.000730516
*CONN
*I *4424:A I *D sky130_fd_sc_hd__nand2_2
*I *4423:A I *D sky130_fd_sc_hd__nor2_2
*I *4419:Y O *D sky130_fd_sc_hd__xnor2_2
*CAP
1 *4424:A 0.000195183
2 *4423:A 0
3 *4419:Y 2.9853e-05
4 *340:6 0.000225036
5 *4424:A *4423:B 0.000186099
6 *4424:A *343:10 4.82863e-05
7 *4424:A *363:20 4.60584e-05
*RES
1 *4419:Y *340:6 2.05 
2 *340:6 *4423:A 1.6 
3 *340:6 *4424:A 9.695 
*END

*D_NET *341 0.00253568
*CONN
*I *4427:B2 I *D sky130_fd_sc_hd__a22o_2
*I *4421:B I *D sky130_fd_sc_hd__xnor2_2
*I *4420:Y O *D sky130_fd_sc_hd__nor2_2
*CAP
1 *4427:B2 0.000180049
2 *4421:B 0.000378816
3 *4420:Y 0.000558865
4 *4421:B *1151:DIODE 2.75229e-05
5 *4421:B *4376:A 0.000545978
6 *4421:B *4376:B 4.66108e-05
7 *4421:B *1032:43 4.85494e-05
8 *4421:B *1033:8 0.00054624
9 *4427:B2 *1151:DIODE 4.66108e-05
10 *4427:B2 *1095:81 0
11 *4427:B2 *1095:166 6.77501e-05
12 *4427:B1 *4427:B2 4.75576e-05
13 *325:10 *4427:B2 4.11281e-05
*RES
1 *4420:Y *4421:B 13.31 
2 *4420:Y *4427:B2 10.065 
*END

*D_NET *342 0.00196287
*CONN
*I *4422:B I *D sky130_fd_sc_hd__or2_2
*I *4426:B I *D sky130_fd_sc_hd__xnor2_2
*I *4421:Y O *D sky130_fd_sc_hd__xnor2_2
*CAP
1 *4422:B 0.000250154
2 *4426:B 0
3 *4421:Y 0.000615619
4 *342:8 0.000865772
5 *4422:B *4426:A 0
6 *342:8 *4378:A1 0
7 *4345:B1 *342:8 0
8 *4373:B *342:8 0
9 *4374:A *342:8 0.000183043
10 *4388:A *342:8 0
11 *4388:B *342:8 0
12 *4422:A *4422:B 4.82863e-05
13 *266:10 *342:8 0
14 *294:8 *4422:B 0
15 *294:8 *342:8 0
*RES
1 *4421:Y *342:8 13.65 
2 *342:8 *4426:B 3.6 
3 *342:8 *4422:B 7.725 
*END

*D_NET *343 0.00311321
*CONN
*I *4424:B I *D sky130_fd_sc_hd__nand2_2
*I *4423:B I *D sky130_fd_sc_hd__nor2_2
*I *4422:X O *D sky130_fd_sc_hd__or2_2
*CAP
1 *4424:B 0
2 *4423:B 0.000115202
3 *4422:X 0.00117647
4 *343:10 0.00129168
5 *4423:B *4443:B1 0
6 *4423:B *364:10 0
7 *343:10 *4415:A1 1.34594e-05
8 *343:10 *363:20 4.82919e-05
9 *4395:B *343:10 8.65905e-05
10 *4419:B *343:10 4.82919e-05
11 *4424:A *4423:B 0.000186099
12 *4424:A *343:10 4.82863e-05
13 *335:12 *343:10 4.82863e-05
14 *336:10 *343:10 5.05521e-05
*RES
1 *4422:X *343:10 19.765 
2 *343:10 *4423:B 8 
3 *343:10 *4424:B 1.6 
*END

*D_NET *344 0.000581168
*CONN
*I *4425:A_N I *D sky130_fd_sc_hd__and2b_2
*I *4443:B1 I *D sky130_fd_sc_hd__a21oi_2
*I *4423:Y O *D sky130_fd_sc_hd__nor2_2
*CAP
1 *4425:A_N 5.81183e-05
2 *4443:B1 8.21327e-05
3 *4423:Y 7.95331e-05
4 *344:6 0.000219784
5 *4443:B1 *4425:B 0
6 *4443:B1 *364:10 0.000141599
7 *4423:B *4443:B1 0
*RES
1 *4423:Y *344:6 2.74 
2 *344:6 *4443:B1 7.49 
3 *344:6 *4425:A_N 2.395 
*END

*D_NET *345 0.000738406
*CONN
*I *4425:B I *D sky130_fd_sc_hd__and2b_2
*I *4443:A1 I *D sky130_fd_sc_hd__a21oi_2
*I *4424:Y O *D sky130_fd_sc_hd__nand2_2
*CAP
1 *4425:B 9.605e-05
2 *4443:A1 0
3 *4424:Y 7.00689e-05
4 *345:6 0.000166119
5 *4425:B *4455:B 0.000164686
6 *4425:B *363:20 3.83041e-05
7 *4425:B *364:10 0
8 *345:6 *363:20 0.000203178
9 *4443:B1 *4425:B 0
*RES
1 *4424:Y *345:6 3.43 
2 *345:6 *4443:A1 1.6 
3 *345:6 *4425:B 7.94 
*END

*D_NET *346 0.000445233
*CONN
*I *4455:A I *D sky130_fd_sc_hd__xnor2_2
*I *4425:X O *D sky130_fd_sc_hd__and2b_2
*CAP
1 *4455:A 0.000184568
2 *4425:X 0.000184568
3 *4455:A *4455:B 7.60965e-05
*RES
1 *4425:X *4455:A 5.645 
*END

*D_NET *347 0.00331392
*CONN
*I *4429:A I *D sky130_fd_sc_hd__xor2_2
*I *4442:A2 I *D sky130_fd_sc_hd__a31o_2
*I *4426:Y O *D sky130_fd_sc_hd__xnor2_2
*CAP
1 *4429:A 9.07029e-05
2 *4442:A2 0
3 *4426:Y 0.00120751
4 *347:6 0.00129821
5 *4429:A *4428:B 0.000120955
6 *4429:A *4442:A1 2.75145e-05
7 *4429:A *4442:B1 6.4285e-05
8 *4429:A *1031:44 1.34503e-05
9 *347:6 *4428:B 1.34594e-05
10 *347:6 *363:20 2.50602e-05
11 *347:6 *1031:44 0.000356941
12 *4414:A *347:6 5.85443e-05
13 *328:10 *347:6 3.72916e-05
*RES
1 *4426:Y *347:6 16.54 
2 *347:6 *4442:A2 1.6 
3 *347:6 *4429:A 4.045 
*END

*D_NET *348 0.00219677
*CONN
*I *4428:B I *D sky130_fd_sc_hd__nand2_2
*I *4442:A3 I *D sky130_fd_sc_hd__a31o_2
*I *4430:B I *D sky130_fd_sc_hd__xnor2_2
*I *4427:X O *D sky130_fd_sc_hd__a22o_2
*CAP
1 *4428:B 0.000111775
2 *4442:A3 0
3 *4430:B 0.00063821
4 *4427:X 0.00051695
5 *348:28 0.000233036
6 *4428:B *4428:A 0.000133068
7 *4428:B *4442:A1 5.23362e-05
8 *4428:B *363:20 0.000139711
9 *4428:B *1031:44 4.35348e-05
10 *348:28 *4442:A1 6.57653e-06
11 *1153:DIODE *4430:B 3.64998e-06
12 *4414:A *348:28 0
13 *4429:A *4428:B 0.000120955
14 *4430:A *4430:B 0.000183512
15 *4461:D *4430:B 0
16 *325:10 *4430:B 0
17 *325:21 *4430:B 0
18 *332:8 *348:28 0
19 *333:10 *4430:B 0
20 *335:12 *4428:B 0
21 *335:12 *348:28 0
22 *347:6 *4428:B 1.34594e-05
*RES
1 *4427:X *4430:B 15.87 
2 *4430:B *348:28 7.235 
3 *348:28 *4442:A3 1.6 
4 *348:28 *4428:B 9.5 
*END

*D_NET *349 0.000351406
*CONN
*I *4429:B I *D sky130_fd_sc_hd__xor2_2
*I *4428:Y O *D sky130_fd_sc_hd__nand2_2
*CAP
1 *4429:B 0.000136924
2 *4428:Y 0.000136924
3 *4429:B *4428:A 4.70343e-05
4 *4429:B *4442:A1 3.05238e-05
*RES
1 *4428:Y *4429:B 8.195 
*END

*D_NET *350 0.000388929
*CONN
*I *4441:B1 I *D sky130_fd_sc_hd__a21oi_2
*I *4456:A I *D sky130_fd_sc_hd__and3_2
*I *4429:X O *D sky130_fd_sc_hd__xor2_2
*CAP
1 *4441:B1 0
2 *4456:A 0.000117336
3 *4429:X 2.32329e-05
4 *350:6 0.000140569
5 *4456:A *1154:DIODE 7.44453e-05
6 *4456:A *351:10 5.83121e-06
7 *350:6 *4442:B1 2.75145e-05
*RES
1 *4429:X *350:6 2.05 
2 *350:6 *4456:A 7.685 
3 *350:6 *4441:B1 1.6 
*END

*D_NET *351 0.00193126
*CONN
*I *4434:A I *D sky130_fd_sc_hd__nand2_2
*I *4440:D_N I *D sky130_fd_sc_hd__or4b_2
*I *4439:A I *D sky130_fd_sc_hd__or2_2
*I *4430:Y O *D sky130_fd_sc_hd__xnor2_2
*CAP
1 *4434:A 0
2 *4440:D_N 1.37561e-05
3 *4439:A 7.52707e-05
4 *4430:Y 0.000487743
5 *351:12 0.000198075
6 *351:10 0.000596791
7 *4439:A *4434:B 4.18603e-06
8 *4439:A *4458:A2 6.02202e-05
9 *4439:A *4458:B1 0
10 *4439:A *354:16 5.42473e-05
11 *4440:D_N *361:10 2.75229e-05
12 *351:10 *1154:DIODE 0.000186635
13 *351:12 *1154:DIODE 4.13249e-05
14 *351:12 *4434:B 7.38021e-05
15 *351:12 *4458:A1 0
16 *1143:DIODE *4439:A 4.82919e-05
17 *4456:A *351:10 5.83121e-06
18 *227:89 *4439:A 3.00381e-05
19 *228:16 *4440:D_N 2.75229e-05
*RES
1 *4430:Y *351:10 12.12 
2 *351:10 *351:12 2.4 
3 *351:12 *4439:A 5.685 
4 *351:12 *4440:D_N 4.05 
5 *351:10 *4434:A 3.6 
*END

*D_NET *352 0.00195384
*CONN
*I *4435:A1 I *D sky130_fd_sc_hd__a21oi_2
*I *4433:B I *D sky130_fd_sc_hd__and3_2
*I *4461:B_N I *D sky130_fd_sc_hd__and4bb_2
*I *4431:X O *D sky130_fd_sc_hd__or2_2
*CAP
1 *4435:A1 4.99616e-05
2 *4433:B 0.000267978
3 *4461:B_N 9.66987e-05
4 *4431:X 4.99616e-05
5 *352:4 0.000364677
6 *4435:A1 *4433:A 9.91257e-05
7 *4435:A1 *4433:C 0
8 *4435:A1 *4435:B1 0
9 *4435:A1 *1032:43 1.61831e-05
10 *4461:B_N *4461:C 2.30292e-05
11 *4461:B_N *4462:C 0.0001249
12 *4461:B_N *1004:57 0.000138551
13 *4461:D *4461:B_N 8.65961e-05
14 *228:16 *4433:B 0.000433003
15 *228:16 *4435:A1 0.000203178
*RES
1 *4431:X *352:4 1.6 
2 *352:4 *4461:B_N 8.375 
3 *352:4 *4433:B 5.5 
4 *4431:X *4435:A1 5.39 
*END

*D_NET *353 0.000863029
*CONN
*I *4433:C I *D sky130_fd_sc_hd__and3_2
*I *4435:A2 I *D sky130_fd_sc_hd__a21oi_2
*I *4432:Y O *D sky130_fd_sc_hd__nand2_2
*CAP
1 *4433:C 3.79911e-05
2 *4435:A2 0
3 *4432:Y 0.000273384
4 *353:12 0.000311375
5 *4433:C *4433:A 3.83041e-05
6 *4433:C *354:10 4.00541e-06
7 *4433:C *356:8 4.60584e-05
8 *353:12 *4433:A 4.82919e-05
9 *353:12 *4436:B 0
10 *353:12 *4440:C 0
11 *353:12 *1004:44 0
12 *353:12 *1004:57 0
13 *4435:A1 *4433:C 0
14 *228:16 *4433:C 7.60965e-05
15 *228:16 *353:12 2.75229e-05
*RES
1 *4432:Y *353:12 9.98 
2 *353:12 *4435:A2 1.6 
3 *353:12 *4433:C 3.1 
*END

*D_NET *354 0.00129663
*CONN
*I *4440:A I *D sky130_fd_sc_hd__or4b_2
*I *4434:B I *D sky130_fd_sc_hd__nand2_2
*I *4439:B I *D sky130_fd_sc_hd__or2_2
*I *4436:A I *D sky130_fd_sc_hd__or2_2
*I *4433:X O *D sky130_fd_sc_hd__and3_2
*CAP
1 *4440:A 0
2 *4434:B 0.000118481
3 *4439:B 1.33704e-05
4 *4436:A 1.37047e-05
5 *4433:X 7.43196e-05
6 *354:16 7.99666e-05
7 *354:12 0.000171373
8 *354:10 7.43196e-05
9 *4434:B *4440:B 3.23391e-05
10 *354:10 *4440:C 4.66108e-05
11 *354:10 *356:8 3.09088e-05
12 *354:16 *4440:C 0.000137571
13 *1143:DIODE *4436:A 4.66108e-05
14 *1143:DIODE *4439:B 8.65961e-05
15 *4433:C *354:10 4.00541e-06
16 *4439:A *4434:B 4.18603e-06
17 *4439:A *354:16 5.42473e-05
18 *227:89 *4436:A 2.75229e-05
19 *227:89 *4439:B 4.60584e-05
20 *228:16 *354:10 0.000160635
21 *351:12 *4434:B 7.38021e-05
*RES
1 *4433:X *354:10 3.805 
2 *354:10 *354:12 2 
3 *354:12 *354:16 3.635 
4 *354:16 *4436:A 2.05 
5 *354:16 *4439:B 2.395 
6 *354:12 *4434:B 6 
7 *354:10 *4440:A 1.6 
*END

*D_NET *355 0.00179481
*CONN
*I *4441:A1 I *D sky130_fd_sc_hd__a21oi_2
*I *4456:B I *D sky130_fd_sc_hd__and3_2
*I *4458:A1 I *D sky130_fd_sc_hd__a21o_2
*I *4434:Y O *D sky130_fd_sc_hd__nand2_2
*CAP
1 *4441:A1 6.18552e-05
2 *4456:B 3.81602e-05
3 *4458:A1 0.000116791
4 *4434:Y 2.97592e-05
5 *355:21 0.000203124
6 *355:8 0.000249659
7 *4441:A1 *1154:DIODE 0.000129056
8 *4441:A1 *4441:A2 2.05661e-05
9 *4441:A1 *4457:B 9.47454e-05
10 *4441:A1 *361:19 5.55344e-05
11 *4456:B *4456:C 1.4389e-05
12 *4458:A1 *1154:DIODE 5.28859e-05
13 *4458:A1 *4458:B1 8.53113e-06
14 *4458:A1 *4459:B 0.000140912
15 *4458:A1 *361:10 6.13918e-05
16 *4458:A1 *361:19 1.1561e-05
17 *355:8 *4461:C 0.000122331
18 *355:8 *4462:C 6.97118e-05
19 *355:21 *1154:DIODE 0.000141888
20 *355:21 *361:19 0.000144444
21 *228:16 *4458:A1 2.75145e-05
22 *351:12 *4458:A1 0
*RES
1 *4434:Y *355:8 4.74 
2 *355:8 *4458:A1 6.705 
3 *355:8 *355:21 3.165 
4 *355:21 *4456:B 4.05 
5 *355:21 *4441:A1 6.255 
*END

*D_NET *356 0.00142627
*CONN
*I *4440:B I *D sky130_fd_sc_hd__or4b_2
*I *4436:B I *D sky130_fd_sc_hd__or2_2
*I *4435:Y O *D sky130_fd_sc_hd__a21oi_2
*CAP
1 *4440:B 0.000111656
2 *4436:B 6.57214e-05
3 *4435:Y 0.000263043
4 *356:8 0.00044042
5 *4436:B *4440:C 9.14049e-05
6 *4440:B *4440:C 5.23362e-05
7 *356:8 *4433:A 0.000124007
8 *356:8 *4440:C 5.83121e-06
9 *1143:DIODE *4436:B 4.82863e-05
10 *4433:C *356:8 4.60584e-05
11 *4434:B *4440:B 3.23391e-05
12 *227:89 *4436:B 3.00381e-05
13 *228:16 *4440:B 4.82919e-05
14 *228:16 *356:8 3.59311e-05
15 *353:12 *4436:B 0
16 *354:10 *356:8 3.09088e-05
*RES
1 *4435:Y *356:8 7.155 
2 *356:8 *4436:B 5.175 
3 *356:8 *4440:B 5.43 
*END

*D_NET *357 0.000894048
*CONN
*I *4700:A I *D sky130_fd_sc_hd__and2_2
*I *4438:A I *D sky130_fd_sc_hd__nor2_2
*I *4436:X O *D sky130_fd_sc_hd__or2_2
*CAP
1 *4700:A 4.93406e-05
2 *4438:A 0
3 *4436:X 0.000197899
4 *357:12 0.00024724
5 *4700:A *4438:B 9.53428e-06
6 *4700:A *4700:B 7.35729e-05
7 *4700:A *358:25 3.00381e-05
8 *4700:A *1026:90 0.000161529
9 *357:12 *4440:C 0
10 *357:12 *4458:B1 0
11 *227:89 *357:12 0.000124895
*RES
1 *4436:X *357:12 8.63 
2 *357:12 *4438:A 1.6 
3 *357:12 *4700:A 3.445 
*END

*D_NET *358 0.00257446
*CONN
*I *4440:C I *D sky130_fd_sc_hd__or4b_2
*I *4700:B I *D sky130_fd_sc_hd__and2_2
*I *4438:B I *D sky130_fd_sc_hd__nor2_2
*I *4705:A I *D sky130_fd_sc_hd__nand2_2
*I *4437:Y O *D sky130_fd_sc_hd__nand2_2
*CAP
1 *4440:C 0.000245729
2 *4700:B 5.73017e-05
3 *4438:B 1.85694e-05
4 *4705:A 0.000292168
5 *4437:Y 4.41202e-05
6 *358:25 0.000196198
7 *358:21 0.000443611
8 *358:8 0.000413844
9 *4440:C *4458:B1 0
10 *4700:B *4701:A 8.65961e-05
11 *4700:B *359:6 8.65905e-05
12 *4700:B *1026:90 3.09179e-05
13 *4705:A *4704:A 3.23663e-05
14 *4705:A *4704:B 4.82919e-05
15 *4705:A *4705:B 5.30673e-05
16 *358:21 *4458:B1 0
17 *358:25 *1026:90 7.8192e-05
18 *4436:B *4440:C 9.14049e-05
19 *4440:B *4440:C 5.23362e-05
20 *4700:A *4438:B 9.53428e-06
21 *4700:A *4700:B 7.35729e-05
22 *4700:A *358:25 3.00381e-05
23 *353:12 *4440:C 0
24 *354:10 *4440:C 4.66108e-05
25 *354:16 *4440:C 0.000137571
26 *356:8 *4440:C 5.83121e-06
27 *357:12 *4440:C 0
*RES
1 *4437:Y *358:8 4.215 
2 *358:8 *4705:A 7.425 
3 *358:8 *358:21 1.125 
4 *358:21 *358:25 4.175 
5 *358:25 *4438:B 1.96 
6 *358:25 *4700:B 3.79 
7 *358:21 *4440:C 8.49 
*END

*D_NET *359 0.00155375
*CONN
*I *4701:A I *D sky130_fd_sc_hd__or2_2
*I *4458:B1 I *D sky130_fd_sc_hd__a21o_2
*I *4438:Y O *D sky130_fd_sc_hd__nor2_2
*CAP
1 *4701:A 0.000220021
2 *4458:B1 0.000282488
3 *4438:Y 5.63588e-05
4 *359:6 0.000558868
5 *4458:B1 *4458:A2 4.11281e-05
6 *4458:B1 *361:10 5.4003e-05
7 *4458:B1 *622:10 0
8 *4701:A *4701:B 8.8266e-05
9 *4701:A *1026:90 4.92604e-05
10 *4439:A *4458:B1 0
11 *4440:C *4458:B1 0
12 *4458:A1 *4458:B1 8.53113e-06
13 *4700:B *4701:A 8.65961e-05
14 *4700:B *359:6 8.65905e-05
15 *1:6 *4458:B1 0
16 *230:12 *4458:B1 2.16389e-05
17 *357:12 *4458:B1 0
18 *358:21 *4458:B1 0
*RES
1 *4438:Y *359:6 2.395 
2 *359:6 *4458:B1 10.295 
3 *359:6 *4701:A 4.825 
*END

*D_NET *360 0.000312227
*CONN
*I *4458:A2 I *D sky130_fd_sc_hd__a21o_2
*I *4439:X O *D sky130_fd_sc_hd__or2_2
*CAP
1 *4458:A2 6.62743e-05
2 *4439:X 6.62743e-05
3 *1143:DIODE *4458:A2 4.82919e-05
4 *4439:A *4458:A2 6.02202e-05
5 *4458:B1 *4458:A2 4.11281e-05
6 *227:89 *4458:A2 3.00381e-05
*RES
1 *4439:X *4458:A2 9.03 
*END

*D_NET *361 0.00220866
*CONN
*I *4441:A2 I *D sky130_fd_sc_hd__a21oi_2
*I *4456:C I *D sky130_fd_sc_hd__and3_2
*I *4459:A I *D sky130_fd_sc_hd__nand2_2
*I *4440:X O *D sky130_fd_sc_hd__or4b_2
*CAP
1 *4441:A2 4.90686e-05
2 *4456:C 8.52866e-05
3 *4459:A 0
4 *4440:X 0.000286566
5 *361:19 0.000269812
6 *361:10 0.000422022
7 *4441:A2 *4457:B 9.30717e-05
8 *361:10 *4459:B 0.000139245
9 *4440:D_N *361:10 2.75229e-05
10 *4441:A1 *4441:A2 2.05661e-05
11 *4441:A1 *361:19 5.55344e-05
12 *4456:B *4456:C 1.4389e-05
13 *4458:A1 *361:10 6.13918e-05
14 *4458:A1 *361:19 1.1561e-05
15 *4458:B1 *361:10 5.4003e-05
16 *228:16 *361:10 4.88135e-05
17 *230:12 *4441:A2 7.3664e-05
18 *230:12 *361:10 0.000138196
19 *230:12 *361:19 0.000213507
20 *355:21 *361:19 0.000144444
*RES
1 *4440:X *361:10 9.03 
2 *361:10 *4459:A 3.6 
3 *361:10 *361:19 4.44 
4 *361:19 *4456:C 4.74 
5 *361:19 *4441:A2 5.235 
*END

*D_NET *362 0.00151624
*CONN
*I *4457:A I *D sky130_fd_sc_hd__or2_2
*I *4442:B1 I *D sky130_fd_sc_hd__a31o_2
*I *4441:Y O *D sky130_fd_sc_hd__a21oi_2
*CAP
1 *4457:A 0.000191121
2 *4442:B1 0.000479084
3 *4441:Y 0.000670205
4 *4457:A *4457:B 8.40269e-05
5 *4429:A *4442:B1 6.4285e-05
6 *350:6 *4442:B1 2.75145e-05
*RES
1 *4441:Y *4442:B1 8.84 
2 *4441:Y *4457:A 5.39 
*END

*D_NET *363 0.00224724
*CONN
*I *4443:A2 I *D sky130_fd_sc_hd__a21oi_2
*I *4455:B I *D sky130_fd_sc_hd__xnor2_2
*I *4442:X O *D sky130_fd_sc_hd__a31o_2
*CAP
1 *4443:A2 0
2 *4455:B 0.000185024
3 *4442:X 0.000505457
4 *363:20 0.000690481
5 *4455:B *364:10 0
6 *4455:B *1095:25 0
7 *363:20 *1031:44 0.000124895
8 *4424:A *363:20 4.60584e-05
9 *4425:B *4455:B 0.000164686
10 *4425:B *363:20 3.83041e-05
11 *4428:B *363:20 0.000139711
12 *4455:A *4455:B 7.60965e-05
13 *335:12 *363:20 0
14 *343:10 *363:20 4.82919e-05
15 *345:6 *363:20 0.000203178
16 *347:6 *363:20 2.50602e-05
*RES
1 *4442:X *363:20 15.665 
2 *363:20 *4455:B 9.485 
3 *363:20 *4443:A2 1.6 
*END

*D_NET *364 0.000779419
*CONN
*I *4454:B I *D sky130_fd_sc_hd__xnor2_2
*I *4444:A2 I *D sky130_fd_sc_hd__o21ai_2
*I *4443:Y O *D sky130_fd_sc_hd__a21oi_2
*CAP
1 *4454:B 8.22327e-05
2 *4444:A2 0
3 *4443:Y 0.000192544
4 *364:10 0.000274777
5 *364:10 *1095:25 0
6 *4423:B *364:10 0
7 *4425:B *364:10 0
8 *4443:B1 *364:10 0.000141599
9 *4444:B1 *364:10 0
10 *4454:A *4454:B 8.8266e-05
11 *4455:B *364:10 0
*RES
1 *4443:Y *364:10 9.275 
2 *364:10 *4444:A2 1.6 
3 *364:10 *4454:B 3.085 
*END

*D_NET *365 0.00154545
*CONN
*I *4453:B I *D sky130_fd_sc_hd__xnor2_2
*I *4445:A2 I *D sky130_fd_sc_hd__a21o_2
*I *4447:A2 I *D sky130_fd_sc_hd__a211o_2
*I *4444:Y O *D sky130_fd_sc_hd__o21ai_2
*CAP
1 *4453:B 0.000197825
2 *4445:A2 1.03832e-05
3 *4447:A2 2.28215e-05
4 *4444:Y 0.000187815
5 *365:21 0.000277214
6 *365:8 0.000279643
7 *4453:B *4452:A 0
8 *4453:B *368:10 0.00011852
9 *4444:B1 *365:8 7.23533e-05
10 *4445:A1 *4447:A2 8.65905e-05
11 *4445:B1 *4447:A2 8.65905e-05
12 *4453:A *4453:B 0.000201508
13 *331:12 *4447:A2 4.18603e-06
14 *331:12 *4453:B 0
*RES
1 *4444:Y *365:8 6.8925 
2 *365:8 *4447:A2 4.6275 
3 *365:8 *365:21 0.795 
4 *365:21 *4445:A2 3.8325 
5 *365:21 *4453:B 7.7025 
*END

*D_NET *366 0.000909539
*CONN
*I *4452:A I *D sky130_fd_sc_hd__xnor2_2
*I *4445:X O *D sky130_fd_sc_hd__a21o_2
*CAP
1 *4452:A 0.000305548
2 *4445:X 0.000305548
3 *4452:A *1095:25 0.000298442
4 *4453:B *4452:A 0
*RES
1 *4445:X *4452:A 12.45 
*END

*D_NET *367 0.00531895
*CONN
*I *4606:A I *D sky130_fd_sc_hd__nand3_2
*I *4507:A2 I *D sky130_fd_sc_hd__a41o_2
*I *4483:A2 I *D sky130_fd_sc_hd__a31o_2
*I *4448:A I *D sky130_fd_sc_hd__nand2_2
*I *4451:B I *D sky130_fd_sc_hd__and2b_2
*I *4446:Y O *D sky130_fd_sc_hd__nand3_2
*CAP
1 *4606:A 0.00013056
2 *4507:A2 0
3 *4483:A2 3.56913e-05
4 *4448:A 0
5 *4451:B 0
6 *4446:Y 0.000874457
7 *367:49 0.000288767
8 *367:38 0.000489153
9 *367:25 0.000493053
10 *367:14 0.00107226
11 *4483:A2 *4483:A3 5.83121e-06
12 *4483:A2 *403:6 1.47256e-05
13 *4606:A *4605:B 0.000170412
14 *4606:A *4606:B 0.000318374
15 *4606:A *4608:A2 0
16 *4606:A *368:32 5.56629e-05
17 *367:14 *368:10 0.000187416
18 *367:25 *1296:DIODE 0
19 *367:25 *4452:B 3.00381e-05
20 *367:25 *368:10 0
21 *367:25 *1095:25 0
22 *367:38 *1296:DIODE 0
23 *367:38 *4449:B 3.68596e-05
24 *367:38 *4483:A3 2.49909e-05
25 *367:38 *4484:A 3.23663e-05
26 *367:38 *4484:B 5.30673e-05
27 *367:38 *368:21 0
28 *367:38 *403:6 9.80943e-06
29 *367:49 *368:21 5.23362e-05
30 *367:49 *368:32 0.000329
31 *4409:A_N *367:14 3.22936e-05
32 *4409:B *367:14 0.0001249
33 *4445:B1 *367:14 0.000107424
34 *4447:B1 *367:14 0
35 *4449:A *367:49 0.000137571
36 *4451:A_N *367:14 4.65698e-05
37 *4483:B1 *367:49 0
38 *330:8 *367:14 8.8266e-05
39 *331:12 *367:14 7.70938e-05
*RES
1 *4446:Y *367:14 18.71 
2 *367:14 *4451:B 1.6 
3 *367:14 *367:25 5.03 
4 *367:25 *4448:A 3.6 
5 *367:25 *367:38 6.245 
6 *367:38 *4483:A2 2.05 
7 *367:38 *367:49 6.44 
8 *367:49 *4507:A2 3.6 
9 *367:49 *4606:A 7.74 
*END

*D_NET *368 0.00330349
*CONN
*I *4606:B I *D sky130_fd_sc_hd__nand3_2
*I *4507:A3 I *D sky130_fd_sc_hd__a41o_2
*I *4483:A3 I *D sky130_fd_sc_hd__a31o_2
*I *4448:B I *D sky130_fd_sc_hd__nand2_2
*I *4447:X O *D sky130_fd_sc_hd__a211o_2
*CAP
1 *4606:B 0.000186635
2 *4507:A3 0
3 *4483:A3 1.87612e-05
4 *4448:B 8.44717e-05
5 *4447:X 0.000303378
6 *368:32 0.000299361
7 *368:21 0.000244418
8 *368:10 0.000500781
9 *4448:B *1095:23 0.00011964
10 *4483:A3 *403:6 4.66108e-05
11 *4606:B *4605:B 0.000169001
12 *4606:B *403:10 5.53249e-06
13 *368:21 *4449:B 0
14 *368:32 *403:10 0.000202727
15 *4445:B1 *368:10 3.00381e-05
16 *4453:B *368:10 0.00011852
17 *4483:A2 *4483:A3 5.83121e-06
18 *4606:A *4606:B 0.000318374
19 *4606:A *368:32 5.56629e-05
20 *367:14 *368:10 0.000187416
21 *367:25 *368:10 0
22 *367:38 *4483:A3 2.49909e-05
23 *367:38 *368:21 0
24 *367:49 *368:21 5.23362e-05
25 *367:49 *368:32 0.000329
*RES
1 *4447:X *368:10 9.765 
2 *368:10 *4448:B 5.43 
3 *368:10 *368:21 1.89 
4 *368:21 *4483:A3 4.05 
5 *368:21 *368:32 4.44 
6 *368:32 *4507:A3 3.6 
7 *368:32 *4606:B 8.475 
*END

*D_NET *369 0.000618066
*CONN
*I *4449:B I *D sky130_fd_sc_hd__xor2_2
*I *4448:Y O *D sky130_fd_sc_hd__nand2_2
*CAP
1 *4449:B 0.000202905
2 *4448:Y 0.000202905
3 *4449:B *1296:DIODE 0.000154288
4 *4449:B *4509:A 0
5 *4449:B *403:10 0
6 *4449:B *1095:23 2.11084e-05
7 *367:38 *4449:B 3.68596e-05
8 *368:21 *4449:B 0
*RES
1 *4448:Y *4449:B 9.98 
*END

*D_NET *370 0.00821465
*CONN
*I *4450:A I *D sky130_fd_sc_hd__inv_2
*I *4687:B I *D sky130_fd_sc_hd__xnor2_2
*I *4725:B1 I *D sky130_fd_sc_hd__o211a_2
*I *4509:A I *D sky130_fd_sc_hd__and4_2
*I *4449:X O *D sky130_fd_sc_hd__xor2_2
*CAP
1 *4450:A 0.00018045
2 *4687:B 0
3 *4725:B1 0
4 *4509:A 0.000164196
5 *4449:X 0
6 *370:40 0.000236296
7 *370:31 0.00226295
8 *370:4 0.0023713
9 *4450:A *4725:C1 1.72991e-05
10 *4450:A *4962:A 8.51862e-05
11 *4450:A *4981:C1 0.00012994
12 *4450:A *851:18 0
13 *4509:A *1296:DIODE 1.4399e-05
14 *4509:A *595:14 0
15 *370:31 *1296:DIODE 0.000136382
16 *370:31 *4725:C1 4.55864e-06
17 *370:31 *4726:B1 0.000135905
18 *370:31 *4727:A 8.57024e-05
19 *370:31 *4727:C 0.000453813
20 *370:31 *4847:A 4.66108e-05
21 *370:31 *4847:B 0.000112656
22 *370:31 *4869:A1 4.66108e-05
23 *370:31 *4971:A1 2.49909e-05
24 *370:31 *4971:A3 8.40213e-05
25 *370:31 *4971:B2 8.20141e-05
26 *370:31 *4981:C1 0.000196271
27 *370:31 *748:16 0.000467382
28 *370:31 *755:8 0.000252629
29 *370:31 *851:18 0
30 *370:31 *914:49 9.80943e-06
31 *370:31 *945:14 0.000287332
32 *370:31 *988:8 5.05437e-05
33 *370:40 *4725:C1 0.000100749
34 *370:40 *4981:C1 0.000174649
35 *4449:B *4509:A 0
*RES
1 *4449:X *370:4 1.6 
2 *370:4 *4509:A 8.195 
3 *370:4 *370:31 41.225 
4 *370:31 *4725:B1 3.6 
5 *370:31 *370:40 2.145 
6 *370:40 *4687:B 3.6 
7 *370:40 *4450:A 7.095 
*END

*D_NET *371 0.000532291
*CONN
*I *4979:B2 I *D sky130_fd_sc_hd__a32oi_2
*I *4962:A I *D sky130_fd_sc_hd__nor2_2
*I *4450:Y O *D sky130_fd_sc_hd__inv_2
*CAP
1 *4979:B2 6.44441e-05
2 *4962:A 3.68396e-05
3 *4450:Y 0.000101284
4 *4979:B2 *4981:C1 0.000124351
5 *4979:B2 *4985:B1 0.000120186
6 *4450:A *4962:A 8.51862e-05
*RES
1 *4450:Y *4962:A 3.995 
2 *4450:Y *4979:B2 9.03 
*END

*D_NET *372 0.000231941
*CONN
*I *4452:B I *D sky130_fd_sc_hd__xnor2_2
*I *4451:X O *D sky130_fd_sc_hd__and2b_2
*CAP
1 *4452:B 0.000100951
2 *4451:X 0.000100951
3 *367:25 *4452:B 3.00381e-05
*RES
1 *4451:X *4452:B 4.955 
*END

*D_NET *373 0.0105738
*CONN
*I *4972:A I *D sky130_fd_sc_hd__xnor2_2
*I *4691:B I *D sky130_fd_sc_hd__nand2_2
*I *4690:B I *D sky130_fd_sc_hd__nor2_2
*I *4460:A I *D sky130_fd_sc_hd__and3_2
*I *4452:Y O *D sky130_fd_sc_hd__xnor2_2
*CAP
1 *4972:A 0.000789899
2 *4691:B 5.76678e-05
3 *4690:B 2.14552e-05
4 *4460:A 0.000525625
5 *4452:Y 0.000303257
6 *373:40 0.000933916
7 *373:31 0.0015643
8 *373:12 0.00228537
9 *4460:A *4966:B1 0
10 *4460:A *4966:B2 0
11 *4460:A *4977:B1 0.000114614
12 *4460:A *4977:B2 0.000317699
13 *4460:A *960:31 0
14 *4691:B *4740:C 0.000182055
15 *4691:B *5127:A 0.000101118
16 *4972:A *911:49 0
17 *4972:A *911:67 0.00104946
18 *373:12 *4509:B 0.000141599
19 *373:12 *1095:25 0
20 *373:31 *1246:DIODE 0.000197115
21 *373:31 *4851:A1 1.58784e-05
22 *373:31 *4851:A2 1.00714e-05
23 *373:31 *4852:B1 4.82863e-05
24 *373:31 *4854:A1 2.0514e-05
25 *373:31 *4854:B1 8.8266e-05
26 *373:31 *5129:A 0.000220055
27 *373:31 *611:10 4.82863e-05
28 *373:31 *914:21 0.000213622
29 *373:31 *942:8 0.000132856
30 *373:31 *994:172 0.000177882
31 *373:31 *1008:40 7.75324e-05
32 *373:31 *1125:59 1.91521e-05
33 *373:31 *1125:80 0.000400461
34 *373:40 *611:10 3.57349e-05
35 *373:40 *911:67 0.000120655
36 *373:40 *1125:80 4.21973e-05
37 *1339:DIODE *4972:A 8.65905e-05
38 *1:6 *4460:A 0.000230651
*RES
1 *4452:Y *373:12 10.1 
2 *373:12 *4460:A 17.045 
3 *373:12 *373:31 26.445 
4 *373:31 *4690:B 1.96 
5 *373:31 *373:40 1.83 
6 *373:40 *4691:B 7.745 
7 *373:40 *4972:A 16.585 
*END

*D_NET *374 0.00955919
*CONN
*I *4961:A I *D sky130_fd_sc_hd__nand3_2
*I *4981:A1 I *D sky130_fd_sc_hd__o2111ai_2
*I *4694:A2 I *D sky130_fd_sc_hd__o22a_2
*I *4692:B I *D sky130_fd_sc_hd__nand2_2
*I *4462:A I *D sky130_fd_sc_hd__and3_2
*I *4453:Y O *D sky130_fd_sc_hd__xnor2_2
*CAP
1 *4961:A 0
2 *4981:A1 0.000245998
3 *4694:A2 0
4 *4692:B 0
5 *4462:A 3.46629e-05
6 *4453:Y 0.000126388
7 *374:49 0.000363245
8 *374:40 0.000262754
9 *374:27 0.00229147
10 *374:8 0.00230701
11 *4981:A1 *4981:A2 3.70488e-05
12 *4981:A1 *4981:B1 4.66108e-05
13 *4981:A1 *4981:C1 0.000180121
14 *4981:A1 *4987:B 0.000331054
15 *4981:A1 *5066:CLK 1.85674e-05
16 *4981:A1 *909:30 2.70804e-05
17 *374:8 *4462:B 5.3572e-05
18 *374:8 *4977:A1 0
19 *374:8 *1095:25 0
20 *374:27 *1244:DIODE 1.88656e-05
21 *374:27 *4694:B1 1.88656e-05
22 *374:27 *937:14 0.00254856
23 *374:27 *1120:23 0
24 *374:27 *1120:29 0
25 *374:40 *1244:DIODE 4.1574e-05
26 *374:40 *4694:B1 0.000179329
27 *374:40 *4986:B 7.79931e-05
28 *374:40 *1123:165 0.000139238
29 *374:49 *4985:C1 4.77719e-05
30 *374:49 *4986:B 0.00012657
31 *374:49 *4987:C 3.48309e-05
32 *1:10 *374:27 0
*RES
1 *4453:Y *374:8 6 
2 *374:8 *4462:A 4.05 
3 *374:8 *374:27 6.98063 
4 *374:27 *4692:B 3.6 
5 *374:27 *374:40 5.63 
6 *374:40 *4694:A2 1.6 
7 *374:40 *374:49 2.535 
8 *374:49 *4981:A1 11.72 
9 *374:49 *4961:A 1.6 
*END

*D_NET *375 0.01025
*CONN
*I *4462:B I *D sky130_fd_sc_hd__and3_2
*I *4694:B1 I *D sky130_fd_sc_hd__o22a_2
*I *4696:A2 I *D sky130_fd_sc_hd__a22o_2
*I *4976:A1_N I *D sky130_fd_sc_hd__o2bb2a_2
*I *4951:B2 I *D sky130_fd_sc_hd__o22a_2
*I *4454:Y O *D sky130_fd_sc_hd__xnor2_2
*CAP
1 *4462:B 0.000148684
2 *4694:B1 0.000387062
3 *4696:A2 0
4 *4976:A1_N 0.000296285
5 *4951:B2 0
6 *4454:Y 0.0001085
7 *375:54 0.00155108
8 *375:23 0.00148086
9 *375:16 0.000705302
10 *375:10 0.000941932
11 *4462:B *4462:C 0.000141606
12 *4462:B *4977:A1 4.88154e-05
13 *4462:B *622:10 1.17666e-05
14 *4462:B *1095:25 0
15 *4694:B1 *1244:DIODE 1.30972e-05
16 *4694:B1 *4694:B2 0.000398713
17 *4694:B1 *4722:B 2.86623e-05
18 *4694:B1 *4723:A2 4.30176e-06
19 *4694:B1 *4740:B 3.81581e-05
20 *4694:B1 *4740:C 0.00015829
21 *4694:B1 *5127:A 0.000155497
22 *4694:B1 *376:30 2.08175e-06
23 *4694:B1 *1013:38 0.000192125
24 *4694:B1 *1123:165 1.1561e-05
25 *4976:A1_N *4951:A2 0.000133853
26 *4976:A1_N *4951:B1 5.8129e-05
27 *4976:A1_N *4976:A2_N 0.000290494
28 *4976:A1_N *4976:B2 6.12863e-05
29 *4976:A1_N *5070:CLK 0.000199147
30 *4976:A1_N *5070:D 4.82863e-05
31 *4976:A1_N *964:186 1.03572e-05
32 *4976:A1_N *990:189 1.73877e-05
33 *375:10 *4462:C 0.000163019
34 *375:10 *1095:25 0
35 *375:16 *4966:B1 6.6564e-05
36 *375:16 *4966:B2 4.99619e-05
37 *375:16 *4967:B1 4.82863e-05
38 *375:54 *1198:DIODE 0.000413366
39 *375:54 *1199:DIODE 4.81921e-05
40 *375:54 *1200:DIODE 2.49909e-05
41 *375:54 *1364:DIODE 0.000193806
42 *375:54 *4721:A1 7.34073e-05
43 *375:54 *4721:B1 5.64016e-05
44 *375:54 *4723:A2 4.91319e-05
45 *375:54 *4745:B 0.00012657
46 *375:54 *4746:A1 7.24402e-05
47 *375:54 *4746:A2 2.67184e-05
48 *375:54 *4747:B1 8.57024e-05
49 *375:54 *4748:A 5.85534e-05
50 *375:54 *376:30 0.000155984
51 *375:54 *844:12 0.000186099
52 *375:54 *927:23 0.000101266
53 *375:54 *1122:12 8.49205e-05
54 *4951:A1 *375:16 0.00020295
55 *4951:A1 *375:23 2.30292e-05
56 *4951:A1 *375:54 4.35348e-05
57 *374:8 *4462:B 5.3572e-05
58 *374:27 *4694:B1 1.88656e-05
59 *374:40 *4694:B1 0.000179329
*RES
1 *4454:Y *375:10 5.94 
2 *375:10 *375:16 12.815 
3 *375:16 *4951:B2 1.6 
4 *375:16 *375:23 0.45 
5 *375:23 *4976:A1_N 13.7525 
6 *375:23 *375:54 27.1863 
7 *375:54 *4696:A2 1.6 
8 *375:54 *4694:B1 19.5187 
9 *375:10 *4462:B 6.96 
*END

*D_NET *376 0.0080317
*CONN
*I *4460:B I *D sky130_fd_sc_hd__and3_2
*I *4720:B I *D sky130_fd_sc_hd__or2_2
*I *4696:B1 I *D sky130_fd_sc_hd__a22o_2
*I *4953:A I *D sky130_fd_sc_hd__xor2_2
*I *4455:Y O *D sky130_fd_sc_hd__xnor2_2
*CAP
1 *4460:B 9.2057e-05
2 *4720:B 0
3 *4696:B1 0
4 *4953:A 0.000383404
5 *4455:Y 0.00131669
6 *376:30 0.000765651
7 *376:16 0.00160688
8 *4460:B *4460:C 7.06865e-05
9 *4460:B *4509:B 5.53249e-06
10 *4460:B *622:10 4.66443e-05
11 *4953:A *4696:A1 3.52525e-05
12 *4953:A *4981:D1 4.94326e-05
13 *4953:A *987:88 0.000116151
14 *4953:A *1013:38 0.000352156
15 *376:16 *4720:A 1.85674e-05
16 *376:16 *4758:A1 0.000173416
17 *376:16 *4758:A2 0.000181485
18 *376:16 *5189:A 8.49205e-05
19 *376:16 *956:6 2.59926e-05
20 *376:16 *956:12 0.000174731
21 *376:16 *1023:111 0.000865324
22 *376:16 *1023:115 8.23457e-05
23 *376:16 *1122:30 0.000316047
24 *376:30 *4696:A1 2.75229e-05
25 *376:30 *4721:A1 7.06865e-05
26 *376:30 *4721:A2 0.000249795
27 *376:30 *4722:C_N 4.82919e-05
28 *376:30 *4723:A2 7.67415e-06
29 *376:30 *4740:B 9.37731e-05
30 *4694:B1 *376:30 2.08175e-06
31 *1:6 *4460:B 0.000103185
32 *230:12 *4460:B 4.82919e-05
33 *230:12 *376:16 4.66826e-05
34 *230:48 *376:16 4.21973e-05
35 *230:59 *376:16 0.000372166
36 *375:54 *376:30 0.000155984
*RES
1 *4455:Y *376:16 28.87 
2 *376:16 *376:30 11.23 
3 *376:30 *4953:A 11.585 
4 *376:30 *4696:B1 1.6 
5 *376:16 *4720:B 1.6 
6 *4455:Y *4460:B 9.795 
*END

*D_NET *377 0.000410189
*CONN
*I *4457:B I *D sky130_fd_sc_hd__or2_2
*I *4456:X O *D sky130_fd_sc_hd__and3_2
*CAP
1 *4457:B 6.91725e-05
2 *4456:X 6.91725e-05
3 *4441:A1 *4457:B 9.47454e-05
4 *4441:A2 *4457:B 9.30717e-05
5 *4457:A *4457:B 8.40269e-05
*RES
1 *4456:X *4457:B 9.12 
*END

*D_NET *378 0.0135815
*CONN
*I *4950:A I *D sky130_fd_sc_hd__nor2_2
*I *4969:A1 I *D sky130_fd_sc_hd__a2111o_2
*I *4697:B I *D sky130_fd_sc_hd__nand2_2
*I *4718:A2 I *D sky130_fd_sc_hd__a221o_2
*I *4699:B I *D sky130_fd_sc_hd__or2_2
*I *4461:C I *D sky130_fd_sc_hd__and4bb_2
*I *4457:X O *D sky130_fd_sc_hd__or2_2
*CAP
1 *4950:A 4.55746e-05
2 *4969:A1 0.000375031
3 *4697:B 0
4 *4718:A2 0.000250826
5 *4699:B 3.01838e-05
6 *4461:C 0.000867622
7 *4457:X 7.00427e-05
8 *378:63 0.000492041
9 *378:55 0.000237503
10 *378:38 0.000418776
11 *378:23 0.0016737
12 *378:8 0.00248815
13 *4461:C *4460:C 0.000148039
14 *4461:C *4462:C 0.000342713
15 *4461:C *380:8 0.000119762
16 *4461:C *622:10 0.000150299
17 *4699:B *4697:A 3.16057e-06
18 *4699:B *907:24 1.02692e-05
19 *4718:A2 *4697:A 7.96104e-06
20 *4718:A2 *4708:A 0.000156802
21 *4718:A2 *4709:B 0.000159369
22 *4718:A2 *4718:A1 0.000179649
23 *4718:A2 *4719:B1 0.000203539
24 *4718:A2 *907:24 2.33395e-05
25 *4950:A *4721:A1 0
26 *4950:A *4950:B 2.97004e-06
27 *4969:A1 *1205:DIODE 0.000610913
28 *4969:A1 *1315:DIODE 0.000109377
29 *4969:A1 *4969:C1 4.66742e-05
30 *4969:A1 *4980:A 0.000342433
31 *4969:A1 *4980:B 0.000342433
32 *4969:A1 *1012:42 0.00026553
33 *4969:A1 *1023:50 3.18238e-05
34 *4969:A1 *1122:162 0.000382677
35 *378:8 *4460:C 0.000307465
36 *378:8 *622:10 0.000300277
37 *378:23 *927:39 0
38 *378:55 *4697:A 6.48713e-05
39 *378:55 *4709:A 0
40 *378:55 *4721:A1 0
41 *378:63 *1205:DIODE 5.97846e-05
42 *378:63 *4697:A 0.000158023
43 *378:63 *4709:A 2.26106e-05
44 *4461:B_N *4461:C 2.30292e-05
45 *4461:D *4461:C 4.99619e-05
46 *230:140 *378:23 0.00169039
47 *230:140 *378:38 0.000193575
48 *355:8 *4461:C 0.000122331
*RES
1 *4457:X *378:8 7.1475 
2 *378:8 *4461:C 16.1625 
3 *378:8 *378:23 4.61667 
4 *378:23 *4699:B 4.5875 
5 *378:23 *378:38 0.829333 
6 *378:38 *4718:A2 10.6313 
7 *378:38 *378:55 1.5075 
8 *378:55 *378:63 4.55 
9 *378:63 *4697:B 1.6 
10 *378:63 *4969:A1 19.445 
11 *378:55 *4950:A 4.215 
*END

*D_NET *379 0.000559613
*CONN
*I *4459:B I *D sky130_fd_sc_hd__nand2_2
*I *4458:X O *D sky130_fd_sc_hd__a21o_2
*CAP
1 *4459:B 9.68768e-05
2 *4458:X 9.68768e-05
3 *4458:A1 *4459:B 0.000140912
4 *228:16 *4459:B 8.57024e-05
5 *361:10 *4459:B 0.000139245
*RES
1 *4458:X *4459:B 9.63 
*END

*D_NET *380 0.0143435
*CONN
*I *4460:C I *D sky130_fd_sc_hd__and3_2
*I *4702:A2 I *D sky130_fd_sc_hd__o22ai_2
*I *4698:B I *D sky130_fd_sc_hd__and2_2
*I *4980:A I *D sky130_fd_sc_hd__nand2_2
*I *4982:B2 I *D sky130_fd_sc_hd__o22a_2
*I *4459:Y O *D sky130_fd_sc_hd__nand2_2
*CAP
1 *4460:C 0.000412121
2 *4702:A2 0
3 *4698:B 1.34399e-05
4 *4980:A 0.000862575
5 *4982:B2 2.17452e-05
6 *4459:Y 7.35981e-05
7 *380:40 0.00131673
8 *380:32 0.000593752
9 *380:28 0.00222021
10 *380:8 0.00255803
11 *4460:C *4306:A 0.000139245
12 *4460:C *622:10 0.000396334
13 *4698:B *4702:A1 0
14 *4980:A *1221:DIODE 0.00011852
15 *4980:A *4798:B 0.000159269
16 *4980:A *4799:A2 0.000159608
17 *4980:A *4801:A2 5.83518e-05
18 *4980:A *4970:D 6.47516e-05
19 *4980:A *4980:B 0.000592493
20 *4980:A *4982:A2 7.06865e-05
21 *4980:A *906:35 0.000122331
22 *4980:A *906:43 2.37321e-05
23 *4980:A *906:63 8.08153e-06
24 *4980:A *907:69 3.21271e-05
25 *4980:A *908:31 1.83756e-05
26 *4980:A *987:88 5.00612e-05
27 *4980:A *987:92 5.81415e-05
28 *4980:A *992:139 0.000164942
29 *4980:A *1023:29 0
30 *4982:B2 *4968:A2 4.66108e-05
31 *380:8 *4462:C 2.49909e-05
32 *380:28 *4708:B 0.000233918
33 *380:28 *4708:C 2.03321e-05
34 *380:28 *4708:D 0.000191159
35 *380:28 *4713:A1 9.93865e-05
36 *380:28 *4713:C1 3.96737e-05
37 *380:28 *4718:A1 0
38 *380:28 *4759:A 6.26945e-05
39 *380:28 *4759:B 2.3192e-05
40 *380:28 *4760:A 3.31272e-05
41 *380:28 *622:10 5.74016e-05
42 *380:28 *623:8 0.000187064
43 *380:28 *664:18 0.000426195
44 *380:28 *678:10 8.23457e-05
45 *380:28 *929:40 0.000346179
46 *380:32 *4702:A1 0.000125055
47 *380:32 *4702:B2 1.37328e-05
48 *380:32 *627:10 2.50602e-05
49 *380:40 *4702:A1 3.23663e-05
50 *380:40 *4968:A2 1.47256e-05
51 *380:40 *4982:A1 3.05373e-05
52 *380:40 *4982:A2 5.23362e-05
53 *380:40 *906:43 0.000151309
54 *4460:B *4460:C 7.06865e-05
55 *4461:C *4460:C 0.000148039
56 *4461:C *380:8 0.000119762
57 *4713:A2 *380:28 4.66108e-05
58 *4713:B2 *380:28 0.000233792
59 *4715:C1 *380:28 1.96009e-05
60 *4969:A1 *4980:A 0.000342433
61 *1:6 *4460:C 0.000385756
62 *1:6 *380:28 4.06899e-05
63 *378:8 *4460:C 0.000307465
*RES
1 *4459:Y *380:8 5.085 
2 *380:8 *380:28 37.335 
3 *380:28 *380:32 2.88 
4 *380:32 *380:40 8.255 
5 *380:40 *4982:B2 4.05 
6 *380:40 *4980:A 29.155 
7 *380:32 *4698:B 1.96 
8 *380:28 *4702:A2 1.6 
9 *380:8 *4460:C 17.415 
*END

*D_NET *381 0.00202331
*CONN
*I *4509:B I *D sky130_fd_sc_hd__and4_2
*I *4460:X O *D sky130_fd_sc_hd__and3_2
*CAP
1 *4509:B 0.000395246
2 *4460:X 0.000395246
3 *4509:B *1296:DIODE 0
4 *4509:B *4509:C 0.000607418
5 *4509:B *4977:A1 0.000206234
6 *4509:B *622:10 0.000272036
7 *4509:B *1095:25 0
8 *4460:B *4509:B 5.53249e-06
9 *1:6 *4509:B 0
10 *373:12 *4509:B 0.000141599
*RES
1 *4460:X *4509:B 18.27 
*END

*D_NET *382 0.00573902
*CONN
*I *4462:C I *D sky130_fd_sc_hd__and3_2
*I *4461:X O *D sky130_fd_sc_hd__and4bb_2
*CAP
1 *4462:C 0.000770291
2 *4461:X 0.000770291
3 *4462:C *1154:DIODE 0.000587792
4 *4462:C *622:10 0.00156212
5 *4462:C *1095:25 0
6 *4461:B_N *4462:C 0.0001249
7 *4461:C *4462:C 0.000342713
8 *4461:D *4462:C 6.38722e-05
9 *4462:B *4462:C 0.000141606
10 *230:12 *4462:C 0.00111772
11 *355:8 *4462:C 6.97118e-05
12 *375:10 *4462:C 0.000163019
13 *380:8 *4462:C 2.49909e-05
*RES
1 *4461:X *4462:C 36.645 
*END

*D_NET *383 0.00129355
*CONN
*I *4509:C I *D sky130_fd_sc_hd__and4_2
*I *4462:X O *D sky130_fd_sc_hd__and3_2
*CAP
1 *4509:C 0.000268483
2 *4462:X 0.000268483
3 *4509:C *4975:A1_N 1.4399e-05
4 *4509:C *4977:B2 0
5 *4509:B *4509:C 0.000607418
6 *1:6 *4509:C 0.00013477
*RES
1 *4462:X *4509:C 14.64 
*END

*D_NET *384 0.00268818
*CONN
*I *4482:A I *D sky130_fd_sc_hd__xor2_2
*I *4481:A I *D sky130_fd_sc_hd__nand2_2
*I *4480:A I *D sky130_fd_sc_hd__nor2_2
*I *4463:Y O *D sky130_fd_sc_hd__a21oi_2
*CAP
1 *4482:A 0
2 *4481:A 7.81575e-05
3 *4480:A 0
4 *4463:Y 0.000650588
5 *384:23 0.00017418
6 *384:14 0.000746611
7 *4481:A *4506:A2 0.000116165
8 *4481:A *427:12 0
9 *384:14 *400:12 0
10 *384:14 *1020:58 4.70343e-05
11 *384:14 *1095:23 3.06846e-05
12 *384:23 *4480:B 3.15199e-05
13 *384:23 *4482:B 7.35813e-05
14 *384:23 *4506:B1 1.61831e-05
15 *4385:B *384:14 0.000116448
16 *4463:A2 *384:14 8.8266e-05
17 *4483:A1 *384:23 7.49327e-05
18 *307:8 *384:14 0.000115146
19 *307:8 *384:23 0.000238919
20 *307:12 *4481:A 8.97642e-05
*RES
1 *4463:Y *384:14 15.125 
2 *384:14 *4480:A 1.6 
3 *384:14 *384:23 3.225 
4 *384:23 *4481:A 7.745 
5 *384:23 *4482:A 1.6 
*END

*D_NET *385 0.00284459
*CONN
*I *4475:A I *D sky130_fd_sc_hd__and2_2
*I *4476:A I *D sky130_fd_sc_hd__xor2_2
*I *4464:X O *D sky130_fd_sc_hd__a21o_2
*CAP
1 *4475:A 0.00021033
2 *4476:A 0.000167787
3 *4464:X 0.000619923
4 *385:10 0.00099804
5 *4475:A *4475:B 4.89295e-05
6 *4475:A *4476:B 0.000160359
7 *4366:A *385:10 0
8 *4464:A2 *385:10 0
9 *4478:A *4475:A 0
10 *4478:A *385:10 0
11 *223:51 *4475:A 0
12 *223:51 *385:10 0
13 *277:10 *385:10 0.000293733
14 *277:25 *385:10 0.000332049
15 *287:23 *385:10 1.34361e-05
*RES
1 *4464:X *385:10 14.37 
2 *385:10 *4476:A 5.79 
3 *385:10 *4475:A 7.695 
*END

*D_NET *386 0.00175036
*CONN
*I *4485:A1 I *D sky130_fd_sc_hd__a21o_2
*I *4474:A I *D sky130_fd_sc_hd__xnor2_2
*I *4465:Y O *D sky130_fd_sc_hd__o21ai_2
*CAP
1 *4485:A1 8.55229e-05
2 *4474:A 0.000222036
3 *4465:Y 0.000122603
4 *386:8 0.000430162
5 *4474:A *4474:B 0.0001249
6 *4474:A *4485:B1 8.40269e-05
7 *4485:A1 *4485:A2 0.000185405
8 *386:8 *4485:A2 0.000164679
9 *224:96 *386:8 0
10 *225:31 *4485:A1 0
11 *225:31 *386:8 0
12 *282:10 *386:8 0.000166346
13 *282:23 *386:8 0.000164679
*RES
1 *4465:Y *386:8 7.53 
2 *386:8 *4474:A 7.515 
3 *386:8 *4485:A1 5.745 
*END

*D_NET *387 0.00150152
*CONN
*I *4467:B I *D sky130_fd_sc_hd__nand2_2
*I *4468:B I *D sky130_fd_sc_hd__xnor2_2
*I *4466:X O *D sky130_fd_sc_hd__xor2_2
*CAP
1 *4467:B 0.000120597
2 *4468:B 2.22788e-05
3 *4466:X 0.000337608
4 *387:10 0.000480484
5 *4467:B *1144:DIODE 0
6 *4467:B *1039:14 0
7 *4467:B *1041:114 5.53249e-06
8 *4467:B *1041:179 6.55406e-05
9 *4468:B *1158:DIODE 4.82863e-05
10 *387:10 *1144:DIODE 0
11 *387:10 *4466:B 0
12 *387:10 *4470:B 6.74079e-05
13 *387:10 *4472:B 0.000170739
14 *387:10 *391:10 0.000183043
15 *387:10 *1039:14 0
*RES
1 *4466:X *387:10 10.62 
2 *387:10 *4468:B 4.05 
3 *387:10 *4467:B 6 
*END

*D_NET *388 0.00224548
*CONN
*I *4486:B1 I *D sky130_fd_sc_hd__o21ai_2
*I *4467:Y O *D sky130_fd_sc_hd__nand2_2
*CAP
1 *4486:B1 0.00079797
2 *4467:Y 0.00079797
3 *4486:B1 *4298:A 4.77757e-05
4 *4486:B1 *4493:A 4.82919e-05
5 *4486:B1 *390:12 0.00038879
6 *4486:B1 *411:16 0.000164686
7 *223:51 *4486:B1 0
*RES
1 *4467:Y *4486:B1 19.965 
*END

*D_NET *389 0.000425045
*CONN
*I *4469:B I *D sky130_fd_sc_hd__or2_2
*I *4470:B I *D sky130_fd_sc_hd__xnor2_2
*I *4468:Y O *D sky130_fd_sc_hd__xnor2_2
*CAP
1 *4469:B 5.15375e-05
2 *4470:B 7.61382e-05
3 *4468:Y 0
4 *389:4 0.000127676
5 *4469:B *1158:DIODE 1.83756e-05
6 *4470:B *1144:DIODE 6.5525e-05
7 *4470:B *1158:DIODE 1.83847e-05
8 *387:10 *4470:B 6.74079e-05
*RES
1 *4468:Y *389:4 1.6 
2 *389:4 *4470:B 7.43 
3 *389:4 *4469:B 2.41 
*END

*D_NET *390 0.00136958
*CONN
*I *4493:A I *D sky130_fd_sc_hd__xnor2_2
*I *4492:A I *D sky130_fd_sc_hd__nor2_2
*I *4469:X O *D sky130_fd_sc_hd__or2_2
*CAP
1 *4493:A 1.58418e-05
2 *4492:A 5.99583e-05
3 *4469:X 0.000223377
4 *390:12 0.000299177
5 *4492:A *4493:B 7.07879e-05
6 *4492:A *1020:58 3.25831e-05
7 *4486:B1 *4493:A 4.82919e-05
8 *4486:B1 *390:12 0.00038879
9 *224:96 *4492:A 6.4422e-05
10 *224:96 *390:12 0
11 *225:31 *390:12 0.000166346
*RES
1 *4469:X *390:12 11.045 
2 *390:12 *4492:A 7.49 
3 *390:12 *4493:A 2.05 
*END

*D_NET *391 0.00188029
*CONN
*I *4473:B I *D sky130_fd_sc_hd__xnor2_2
*I *4471:B I *D sky130_fd_sc_hd__nor2_2
*I *4472:B I *D sky130_fd_sc_hd__nand2_2
*I *4470:Y O *D sky130_fd_sc_hd__xnor2_2
*CAP
1 *4473:B 9.51666e-05
2 *4471:B 0
3 *4472:B 0.000337629
4 *4470:Y 0.000152795
5 *391:29 9.51666e-05
6 *391:10 0.000490424
7 *4472:B *1039:14 0
8 *4473:B *4485:B1 0.000232999
9 *391:10 *1039:14 0
10 *4471:A *4473:B 0.000122325
11 *387:10 *4472:B 0.000170739
12 *387:10 *391:10 0.000183043
*RES
1 *4470:Y *391:10 6.54 
2 *391:10 *4472:B 9.015 
3 *391:10 *391:29 2 
4 *391:29 *4471:B 1.6 
5 *391:29 *4473:B 4.135 
*END

*D_NET *392 0.00136687
*CONN
*I *4485:B1 I *D sky130_fd_sc_hd__a21o_2
*I *4471:Y O *D sky130_fd_sc_hd__nor2_2
*CAP
1 *4485:B1 0.000339158
2 *4471:Y 0.000339158
3 *4485:B1 *4485:A2 0.000164686
4 *4471:A *4485:B1 6.3889e-05
5 *4473:B *4485:B1 0.000232999
6 *4474:A *4485:B1 8.40269e-05
7 *224:96 *4485:B1 9.24127e-05
8 *282:23 *4485:B1 5.05437e-05
*RES
1 *4471:Y *4485:B1 14.025 
*END

*D_NET *393 0.000932797
*CONN
*I *4485:A2 I *D sky130_fd_sc_hd__a21o_2
*I *4472:Y O *D sky130_fd_sc_hd__nand2_2
*CAP
1 *4485:A2 0.000169168
2 *4472:Y 0.000169168
3 *4485:A1 *4485:A2 0.000185405
4 *4485:B1 *4485:A2 0.000164686
5 *224:96 *4485:A2 7.96909e-05
6 *225:31 *4485:A2 0
7 *386:8 *4485:A2 0.000164679
*RES
1 *4472:Y *4485:A2 12.18 
*END

*D_NET *394 0.000225961
*CONN
*I *4474:B I *D sky130_fd_sc_hd__xnor2_2
*I *4473:Y O *D sky130_fd_sc_hd__xnor2_2
*CAP
1 *4474:B 5.05305e-05
2 *4473:Y 5.05305e-05
3 *4474:A *4474:B 0.0001249
*RES
1 *4473:Y *4474:B 4.34 
*END

*D_NET *395 0.000738641
*CONN
*I *4475:B I *D sky130_fd_sc_hd__and2_2
*I *4476:B I *D sky130_fd_sc_hd__xor2_2
*I *4474:Y O *D sky130_fd_sc_hd__xnor2_2
*CAP
1 *4475:B 0.000107446
2 *4476:B 0.00015723
3 *4474:Y 0
4 *395:4 0.000264676
5 *4475:A *4475:B 4.89295e-05
6 *4475:A *4476:B 0.000160359
*RES
1 *4474:Y *395:4 1.6 
2 *395:4 *4476:B 6.52 
3 *395:4 *4475:B 3.46 
*END

*D_NET *396 0.00139658
*CONN
*I *4499:A I *D sky130_fd_sc_hd__and2_2
*I *4501:A I *D sky130_fd_sc_hd__nor2_2
*I *4475:X O *D sky130_fd_sc_hd__and2_2
*CAP
1 *4499:A 0.000137154
2 *4501:A 0
3 *4475:X 0.000459437
4 *396:10 0.000596591
5 *4499:A *1150:DIODE 6.97202e-05
6 *4499:A *4498:B 0
7 *4499:A *4499:B 4.99619e-05
8 *4499:A *4501:B 7.81876e-05
9 *4499:A *406:10 0
10 *4499:A *982:139 0
11 *396:10 *4501:B 5.53249e-06
12 *396:10 *982:139 0
*RES
1 *4475:X *396:10 9.135 
2 *396:10 *4501:A 3.6 
3 *396:10 *4499:A 6.63 
*END

*D_NET *397 0.000459641
*CONN
*I *4477:C I *D sky130_fd_sc_hd__and3_2
*I *4478:B I *D sky130_fd_sc_hd__xnor2_2
*I *4476:X O *D sky130_fd_sc_hd__xor2_2
*CAP
1 *4477:C 0.000119259
2 *4478:B 0.000172639
3 *4476:X 5.33795e-05
4 *4477:C *4503:B1 0
5 *223:51 *4477:C 0.000114364
*RES
1 *4476:X *4478:B 3.995 
2 *4478:B *4477:C 9.6 
*END

*D_NET *398 0.000707916
*CONN
*I *4503:B1 I *D sky130_fd_sc_hd__a21oi_2
*I *4477:X O *D sky130_fd_sc_hd__and3_2
*CAP
1 *4503:B1 0.000319887
2 *4477:X 0.000319887
3 *4503:B1 *1141:DIODE 2.11084e-05
4 *4503:B1 *982:139 4.70343e-05
5 *4477:C *4503:B1 0
*RES
1 *4477:X *4503:B1 11.445 
*END

*D_NET *399 0.00137632
*CONN
*I *4479:B I *D sky130_fd_sc_hd__xnor2_2
*I *4503:A2 I *D sky130_fd_sc_hd__a21oi_2
*I *4478:Y O *D sky130_fd_sc_hd__xnor2_2
*CAP
1 *4479:B 8.14939e-05
2 *4503:A2 0
3 *4478:Y 0.000220512
4 *399:8 0.000302005
5 *4479:B *4479:A 0.000431333
6 *4479:B *424:10 0.000205925
7 *399:8 *4479:A 5.0128e-05
8 *399:8 *424:10 8.49205e-05
*RES
1 *4478:Y *399:8 5.17 
2 *399:8 *4503:A2 1.6 
3 *399:8 *4479:B 5.5 
*END

*D_NET *400 0.00140352
*CONN
*I *4481:B I *D sky130_fd_sc_hd__nand2_2
*I *4482:B I *D sky130_fd_sc_hd__xor2_2
*I *4480:B I *D sky130_fd_sc_hd__nor2_2
*I *4479:Y O *D sky130_fd_sc_hd__xnor2_2
*CAP
1 *4481:B 0.000168801
2 *4482:B 2.87313e-05
3 *4480:B 2.8891e-05
4 *4479:Y 0.000148195
5 *400:12 0.000197465
6 *400:6 0.000456839
7 *4480:B *4506:B1 4.99619e-05
8 *4481:B *4506:A2 2.75229e-05
9 *4482:B *4506:B1 0.000114912
10 *400:12 *4506:A2 0
11 *307:12 *400:12 7.71016e-05
12 *384:14 *400:12 0
13 *384:23 *4480:B 3.15199e-05
14 *384:23 *4482:B 7.35813e-05
*RES
1 *4479:Y *400:6 3.775 
2 *400:6 *400:12 6.4 
3 *400:12 *4480:B 2.41 
4 *400:12 *4482:B 1.4475 
5 *400:6 *4481:B 4.135 
*END

*D_NET *401 0.0008261
*CONN
*I *4506:B1 I *D sky130_fd_sc_hd__a21o_2
*I *4480:Y O *D sky130_fd_sc_hd__nor2_2
*CAP
1 *4506:B1 0.000242569
2 *4480:Y 0.000242569
3 *4506:B1 *4506:A2 9.14049e-05
4 *4506:B1 *427:12 4.94326e-05
5 *4480:B *4506:B1 4.99619e-05
6 *4482:B *4506:B1 0.000114912
7 *4483:A1 *4506:B1 1.90662e-05
8 *384:23 *4506:B1 1.61831e-05
*RES
1 *4480:Y *4506:B1 11.1 
*END

*D_NET *402 0.000804532
*CONN
*I *4506:A2 I *D sky130_fd_sc_hd__a21o_2
*I *4481:Y O *D sky130_fd_sc_hd__nand2_2
*CAP
1 *4506:A2 0.000188012
2 *4481:Y 0.000188012
3 *4506:A2 *427:12 6.95335e-05
4 *4506:A2 *1095:23 3.72916e-05
5 *4481:A *4506:A2 0.000116165
6 *4481:B *4506:A2 2.75229e-05
7 *4483:B1 *4506:A2 3.66286e-05
8 *4506:B1 *4506:A2 9.14049e-05
9 *306:6 *4506:A2 4.99619e-05
10 *400:12 *4506:A2 0
*RES
1 *4481:Y *4506:A2 11.61 
*END

*D_NET *403 0.0032887
*CONN
*I *4484:A I *D sky130_fd_sc_hd__xnor2_2
*I *4605:B I *D sky130_fd_sc_hd__and4_2
*I *4507:A4 I *D sky130_fd_sc_hd__a41o_2
*I *4482:X O *D sky130_fd_sc_hd__xor2_2
*CAP
1 *4484:A 7.18806e-05
2 *4605:B 0.000326538
3 *4507:A4 0
4 *4482:X 0.000182827
5 *403:10 0.0005395
6 *403:6 0.00046767
7 *4484:A *4484:B 3.83041e-05
8 *4605:B *4606:C 8.8266e-05
9 *4605:B *4679:A2 0
10 *4605:B *426:6 4.99619e-05
11 *4605:B *426:17 8.65905e-05
12 *4605:B *426:21 0.000654355
13 *4605:B *428:10 0
14 *403:6 *4484:B 4.99619e-05
15 *4449:B *403:10 0
16 *4483:A1 *403:6 8.16598e-05
17 *4483:A2 *403:6 1.47256e-05
18 *4483:A3 *403:6 4.66108e-05
19 *4606:A *4605:B 0.000170412
20 *4606:B *4605:B 0.000169001
21 *4606:B *403:10 5.53249e-06
22 *367:38 *4484:A 3.23663e-05
23 *367:38 *403:6 9.80943e-06
24 *368:32 *403:10 0.000202727
*RES
1 *4482:X *403:6 5.155 
2 *403:6 *403:10 6.185 
3 *403:10 *4507:A4 3.6 
4 *403:10 *4605:B 13.005 
5 *403:6 *4484:A 3.1 
*END

*D_NET *404 0.000166078
*CONN
*I *4484:B I *D sky130_fd_sc_hd__xnor2_2
*I *4483:X O *D sky130_fd_sc_hd__a31o_2
*CAP
1 *4484:B 1.23724e-05
2 *4483:X 1.23724e-05
3 *4484:A *4484:B 3.83041e-05
4 *367:38 *4484:B 5.30673e-05
5 *403:6 *4484:B 4.99619e-05
*RES
1 *4483:X *4484:B 3.995 
*END

*D_NET *405 0.00628536
*CONN
*I *5302:A I *D sky130_fd_sc_hd__buf_2
*I *4509:D I *D sky130_fd_sc_hd__and4_2
*I *4484:Y O *D sky130_fd_sc_hd__xnor2_2
*CAP
1 *5302:A 0.00198024
2 *4509:D 0
3 *4484:Y 0.000218725
4 *405:6 0.00219896
5 *5302:A *1346:DIODE 0.000237249
6 *5302:A *4732:A2 0.000236355
7 *5302:A *4851:A1 2.97206e-06
8 *5302:A *4963:A1_N 3.25293e-05
9 *5302:A *4963:A2_N 1.19928e-05
10 *5302:A *4963:B1 5.05437e-05
11 *5302:A *4963:B2 5.75645e-05
12 *5302:A *4964:A2 2.21886e-05
13 *5302:A *4964:B2 3.78034e-06
14 *5302:A *4964:C1 3.72916e-05
15 *5302:A *4965:B 7.96104e-06
16 *5302:A *4965:C 0.000755769
17 *5302:A *430:8 7.748e-05
18 *5302:A *653:52 9.37839e-05
19 *5302:A *1125:59 0.000259967
*RES
1 *4484:Y *405:6 4.81 
2 *405:6 *4509:D 1.6 
3 *405:6 *5302:A 34.355 
*END

*D_NET *406 0.00218828
*CONN
*I *4496:A I *D sky130_fd_sc_hd__and2_2
*I *4498:A I *D sky130_fd_sc_hd__xor2_2
*I *4485:X O *D sky130_fd_sc_hd__a21o_2
*CAP
1 *4496:A 0.000270825
2 *4498:A 0
3 *4485:X 0.000638175
4 *406:10 0.000909
5 *4496:A *4494:B 3.09164e-05
6 *4496:A *4496:B 0.000163204
7 *4496:A *4498:B 0
8 *406:10 *4498:B 0
9 *4499:A *406:10 0
10 *223:51 *4496:A 9.98373e-05
11 *223:51 *406:10 7.63204e-05
*RES
1 *4485:X *406:10 12.585 
2 *406:10 *4498:A 3.6 
3 *406:10 *4496:A 8.955 
*END

*D_NET *407 0.00130768
*CONN
*I *4495:A I *D sky130_fd_sc_hd__xnor2_2
*I *4494:B I *D sky130_fd_sc_hd__and2b_2
*I *4486:Y O *D sky130_fd_sc_hd__o21ai_2
*CAP
1 *4495:A 5.4126e-05
2 *4494:B 0.000102522
3 *4486:Y 0.000170769
4 *407:10 0.000327417
5 *4494:B *4495:B 5.21714e-05
6 *4494:B *4498:B 0
7 *4494:B *415:10 6.28765e-05
8 *4494:B *416:8 0
9 *4495:A *413:18 5.17273e-05
10 *4495:A *1020:58 0.00015896
11 *407:10 *4298:A 9.80943e-06
12 *407:10 *4495:B 9.3062e-06
13 *407:10 *413:18 6.36656e-05
14 *407:10 *415:10 9.05377e-05
15 *4486:A1 *407:10 8.57024e-05
16 *4486:A2 *407:10 2.68464e-05
17 *4496:A *4494:B 3.09164e-05
18 *222:22 *407:10 1.03323e-05
*RES
1 *4486:Y *407:10 7.32 
2 *407:10 *4494:B 6 
3 *407:10 *4495:A 5.085 
*END

*D_NET *408 0.000570236
*CONN
*I *4575:B1 I *D sky130_fd_sc_hd__a21o_2
*I *4487:X O *D sky130_fd_sc_hd__and2_2
*CAP
1 *4575:B1 0.000218725
2 *4487:X 0.000218725
3 *4575:B1 *1144:DIODE 5.72004e-05
4 *4575:B1 *4489:B 1.83847e-05
5 *4575:B1 *4575:A2 5.72004e-05
*RES
1 *4487:X *4575:B1 10.665 
*END

*D_NET *409 0.000765189
*CONN
*I *4575:A2 I *D sky130_fd_sc_hd__a21o_2
*I *4489:B I *D sky130_fd_sc_hd__xnor2_2
*I *4488:X O *D sky130_fd_sc_hd__xor2_2
*CAP
1 *4575:A2 9.29488e-05
2 *4489:B 2.56208e-05
3 *4488:X 0.000118437
4 *409:10 0.000237006
5 *4575:A2 *1144:DIODE 0
6 *4575:A2 *1041:91 3.26084e-05
7 *4575:A2 *1041:93 4.49498e-05
8 *4575:A2 *1041:97 8.08153e-06
9 *409:10 *1144:DIODE 0
10 *409:10 *4298:A 4.4133e-05
11 *409:10 *1041:97 5.92849e-05
12 *409:10 *1041:108 2.65337e-05
13 *4575:B1 *4489:B 1.83847e-05
14 *4575:B1 *4575:A2 5.72004e-05
*RES
1 *4488:X *409:10 6.03 
2 *409:10 *4489:B 4.05 
3 *409:10 *4575:A2 6 
*END

*D_NET *410 0.000471942
*CONN
*I *4491:B I *D sky130_fd_sc_hd__xnor2_2
*I *4490:B I *D sky130_fd_sc_hd__or2_2
*I *4489:Y O *D sky130_fd_sc_hd__xnor2_2
*CAP
1 *4491:B 0
2 *4490:B 9.31644e-05
3 *4489:Y 9.89575e-05
4 *410:8 0.000192122
5 *410:8 *1144:DIODE 0
6 *4491:A *4490:B 7.96171e-05
7 *4491:A *410:8 8.08153e-06
8 *224:96 *4490:B 0
9 *224:96 *410:8 0
*RES
1 *4489:Y *410:8 5.235 
2 *410:8 *4490:B 5.745 
3 *410:8 *4491:B 3.6 
*END

*D_NET *411 0.00245883
*CONN
*I *4576:A I *D sky130_fd_sc_hd__nand2_2
*I *4574:A I *D sky130_fd_sc_hd__nor2_2
*I *4490:X O *D sky130_fd_sc_hd__or2_2
*CAP
1 *4576:A 0
2 *4574:A 0.000394757
3 *4490:X 0.000510325
4 *411:16 0.000905082
5 *4574:A *4574:B 6.06382e-05
6 *4574:A *4576:B 4.91325e-05
7 *4574:A *497:12 9.13949e-06
8 *4574:A *1020:58 1.70935e-05
9 *411:16 *4576:B 8.696e-05
10 *411:16 *4577:B 1.31519e-05
11 *411:16 *413:18 0.000161985
12 *411:16 *497:12 4.55202e-05
13 *411:16 *1020:58 4.03577e-05
14 *1187:DIODE *4574:A 0
15 *4486:B1 *411:16 0.000164686
16 *223:66 *411:16 0
17 *224:96 *4574:A 0
18 *224:105 *4574:A 0
*RES
1 *4490:X *411:16 14.42 
2 *411:16 *4574:A 12.65 
3 *411:16 *4576:A 1.6 
*END

*D_NET *412 0.000814013
*CONN
*I *4492:B I *D sky130_fd_sc_hd__nor2_2
*I *4493:B I *D sky130_fd_sc_hd__xnor2_2
*I *4491:Y O *D sky130_fd_sc_hd__xnor2_2
*CAP
1 *4492:B 0
2 *4493:B 0.000106867
3 *4491:Y 0.000137996
4 *412:10 0.000244863
5 *4493:B *1020:58 3.09233e-05
6 *412:10 *4298:A 4.66742e-05
7 *412:10 *1020:58 0.000175901
8 *4492:A *4493:B 7.07879e-05
9 *224:96 *4493:B 0
*RES
1 *4491:Y *412:10 6.54 
2 *412:10 *4493:B 5.745 
3 *412:10 *4492:B 3.6 
*END

*D_NET *413 0.00218547
*CONN
*I *4597:A I *D sky130_fd_sc_hd__nor3_2
*I *4596:A1 I *D sky130_fd_sc_hd__o21a_2
*I *4492:Y O *D sky130_fd_sc_hd__nor2_2
*CAP
1 *4597:A 0.000162484
2 *4596:A1 0
3 *4492:Y 0.00041823
4 *413:18 0.000580714
5 *4597:A *4596:A2 4.82863e-05
6 *4597:A *4597:B 8.88882e-05
7 *4597:A *499:10 9.80943e-06
8 *4597:A *517:8 8.8266e-05
9 *413:18 *415:10 0
10 *413:18 *499:10 4.80285e-05
11 *413:18 *1020:58 0.000239226
12 *4495:A *413:18 5.17273e-05
13 *222:22 *413:18 6.28765e-05
14 *223:51 *413:18 8.21899e-05
15 *223:66 *413:18 7.90944e-05
16 *407:10 *413:18 6.36656e-05
17 *411:16 *413:18 0.000161985
*RES
1 *4492:Y *413:18 15.125 
2 *413:18 *4596:A1 1.6 
3 *413:18 *4597:A 5.56 
*END

*D_NET *414 0.000668897
*CONN
*I *4494:A_N I *D sky130_fd_sc_hd__and2b_2
*I *4495:B I *D sky130_fd_sc_hd__xnor2_2
*I *4493:Y O *D sky130_fd_sc_hd__xnor2_2
*CAP
1 *4494:A_N 0
2 *4495:B 6.37391e-05
3 *4493:Y 0.000163401
4 *414:6 0.00022714
5 *4494:B *4495:B 5.21714e-05
6 *223:51 *4495:B 0.000153139
7 *407:10 *4495:B 9.3062e-06
*RES
1 *4493:Y *414:6 3.775 
2 *414:6 *4495:B 7.49 
3 *414:6 *4494:A_N 1.6 
*END

*D_NET *415 0.00152132
*CONN
*I *4597:B I *D sky130_fd_sc_hd__nor3_2
*I *4596:A2 I *D sky130_fd_sc_hd__o21a_2
*I *4494:X O *D sky130_fd_sc_hd__and2b_2
*CAP
1 *4597:B 9.30301e-05
2 *4596:A2 1.02919e-05
3 *4494:X 0.000272229
4 *415:10 0.000375551
5 *4596:A2 *499:10 2.16833e-05
6 *4597:B *499:10 0.000316421
7 *4597:B *517:8 3.99879e-05
8 *415:10 *416:8 4.05358e-05
9 *415:10 *982:139 0
10 *4494:B *415:10 6.28765e-05
11 *4597:A *4596:A2 4.82863e-05
12 *4597:A *4597:B 8.88882e-05
13 *222:22 *415:10 6.10014e-05
14 *407:10 *415:10 9.05377e-05
15 *413:18 *415:10 0
*RES
1 *4494:X *415:10 11.06 
2 *415:10 *4596:A2 2.05 
3 *415:10 *4597:B 5.185 
*END

*D_NET *416 0.000863724
*CONN
*I *4496:B I *D sky130_fd_sc_hd__and2_2
*I *4498:B I *D sky130_fd_sc_hd__xor2_2
*I *4495:Y O *D sky130_fd_sc_hd__xnor2_2
*CAP
1 *4496:B 0.000110437
2 *4498:B 0.0001504
3 *4495:Y 6.9155e-05
4 *416:8 0.000329992
5 *4498:B *982:139 0
6 *416:8 *982:139 0
7 *4494:B *4498:B 0
8 *4494:B *416:8 0
9 *4496:A *4496:B 0.000163204
10 *4496:A *4498:B 0
11 *4499:A *4498:B 0
12 *406:10 *4498:B 0
13 *415:10 *416:8 4.05358e-05
*RES
1 *4495:Y *416:8 4.98 
2 *416:8 *4498:B 4.4 
3 *416:8 *4496:B 5.775 
*END

*D_NET *417 0.000927771
*CONN
*I *4601:A I *D sky130_fd_sc_hd__nor2_2
*I *4497:A I *D sky130_fd_sc_hd__inv_2
*I *4496:X O *D sky130_fd_sc_hd__and2_2
*CAP
1 *4601:A 7.41636e-05
2 *4497:A 0.000256554
3 *4496:X 0.000133168
4 *417:6 0.000463886
5 *4497:A *4599:A2 0
6 *4497:A *4614:B 0
7 *4497:A *1034:29 0
*RES
1 *4496:X *417:6 3.43 
2 *417:6 *4497:A 9.785 
3 *417:6 *4601:A 2.74 
*END

*D_NET *418 0.000633871
*CONN
*I *4614:A I *D sky130_fd_sc_hd__or3_2
*I *4599:A1 I *D sky130_fd_sc_hd__o21ba_2
*I *4497:Y O *D sky130_fd_sc_hd__inv_2
*CAP
1 *4614:A 0.000199017
2 *4599:A1 0
3 *4497:Y 5.27404e-05
4 *418:6 0.000251757
5 *4614:A *4599:B1_N 4.99619e-05
6 *4614:A *4600:B 3.23663e-05
7 *4614:A *4614:B 4.80285e-05
*RES
1 *4497:Y *418:6 2.395 
2 *418:6 *4599:A1 1.6 
3 *418:6 *4614:A 5.155 
*END

*D_NET *419 0.000501344
*CONN
*I *4499:B I *D sky130_fd_sc_hd__and2_2
*I *4501:B I *D sky130_fd_sc_hd__nor2_2
*I *4498:X O *D sky130_fd_sc_hd__xor2_2
*CAP
1 *4499:B 8.36907e-05
2 *4501:B 4.83251e-05
3 *4498:X 0.000132016
4 *4499:B *1150:DIODE 2.54431e-05
5 *4501:B *982:139 7.81876e-05
6 *4499:A *4499:B 4.99619e-05
7 *4499:A *4501:B 7.81876e-05
8 *396:10 *4501:B 5.53249e-06
*RES
1 *4498:X *4501:B 8.835 
2 *4498:X *4499:B 4.7 
*END

*D_NET *420 0.0011364
*CONN
*I *4500:A I *D sky130_fd_sc_hd__inv_2
*I *4601:B I *D sky130_fd_sc_hd__nor2_2
*I *4502:A I *D sky130_fd_sc_hd__or2_2
*I *4499:X O *D sky130_fd_sc_hd__and2_2
*CAP
1 *4500:A 4.52131e-05
2 *4601:B 0
3 *4502:A 8.86801e-05
4 *4499:X 0.000450291
5 *420:30 0.000406824
6 *4500:A *4604:B 4.99619e-05
7 *4502:A *1150:DIODE 9.5433e-05
8 *420:30 *4602:A 0
9 *420:30 *519:18 0
10 *420:30 *1034:29 0
*RES
1 *4499:X *4502:A 8.775 
2 *4499:X *420:30 10.1 
3 *420:30 *4601:B 1.6 
4 *420:30 *4500:A 2.395 
*END

*D_NET *421 0.000449172
*CONN
*I *4602:A I *D sky130_fd_sc_hd__nor2_2
*I *4500:Y O *D sky130_fd_sc_hd__inv_2
*CAP
1 *4602:A 0.000128518
2 *4500:Y 0.000128518
3 *4602:A *4604:B 5.05437e-05
4 *4602:A *519:18 0.000141592
5 *420:30 *4602:A 0
*RES
1 *4500:Y *4602:A 9.63 
*END

*D_NET *422 0.000125242
*CONN
*I *4502:B I *D sky130_fd_sc_hd__or2_2
*I *4501:Y O *D sky130_fd_sc_hd__nor2_2
*CAP
1 *4502:B 6.26211e-05
2 *4501:Y 6.26211e-05
*RES
1 *4501:Y *4502:B 3.995 
*END

*D_NET *423 0.000753557
*CONN
*I *4504:A I *D sky130_fd_sc_hd__or2_2
*I *4505:A I *D sky130_fd_sc_hd__xor2_2
*I *4502:X O *D sky130_fd_sc_hd__or2_2
*CAP
1 *4504:A 0.000119694
2 *4505:A 2.08101e-05
3 *4502:X 0.000187306
4 *423:6 0.00032781
5 *4504:A *4505:B 9.24049e-05
6 *4504:A *424:10 5.53249e-06
7 *4504:A *1020:58 0
*RES
1 *4502:X *423:6 4.12 
2 *423:6 *4505:A 1.96 
3 *423:6 *4504:A 7.94 
*END

*D_NET *424 0.00136361
*CONN
*I *4505:B I *D sky130_fd_sc_hd__xor2_2
*I *4504:B I *D sky130_fd_sc_hd__or2_2
*I *4503:Y O *D sky130_fd_sc_hd__a21oi_2
*CAP
1 *4505:B 0.000116547
2 *4504:B 0
3 *4503:Y 0.000370864
4 *424:10 0.000487411
5 *4505:B *1150:DIODE 0
6 *4505:B *1020:58 0
7 *424:10 *1150:DIODE 0
8 *424:10 *1020:58 0
9 *4479:B *424:10 0.000205925
10 *4504:A *4505:B 9.24049e-05
11 *4504:A *424:10 5.53249e-06
12 *399:8 *424:10 8.49205e-05
*RES
1 *4503:Y *424:10 8.88 
2 *424:10 *4504:B 3.6 
3 *424:10 *4505:B 4.4 
*END

*D_NET *425 0.00300541
*CONN
*I *4679:B1_N I *D sky130_fd_sc_hd__a21boi_2
*I *4607:A I *D sky130_fd_sc_hd__nor2_2
*I *4504:X O *D sky130_fd_sc_hd__or2_2
*CAP
1 *4679:B1_N 0.000311166
2 *4607:A 0
3 *4504:X 0.000868721
4 *425:14 0.00117989
5 *4679:B1_N *4680:A 0.000238137
6 *4679:B1_N *525:8 6.47382e-05
7 *425:14 *4603:B 0
8 *425:14 *4605:D 0
9 *425:14 *4608:B1 0
10 *425:14 *426:17 0
11 *425:14 *525:8 0.000277223
12 *425:14 *529:10 0
13 *4605:A *425:14 6.55406e-05
*RES
1 *4504:X *425:14 19.715 
2 *425:14 *4607:A 1.6 
3 *425:14 *4679:B1_N 6.895 
*END

*D_NET *426 0.00429695
*CONN
*I *4608:A1 I *D sky130_fd_sc_hd__a311oi_2
*I *4508:A I *D sky130_fd_sc_hd__xnor2_2
*I *4679:A1 I *D sky130_fd_sc_hd__a21boi_2
*I *4605:C I *D sky130_fd_sc_hd__and4_2
*I *4505:X O *D sky130_fd_sc_hd__xor2_2
*CAP
1 *4608:A1 0.000201468
2 *4508:A 0.000196766
3 *4679:A1 0.000196494
4 *4605:C 0
5 *4505:X 0.000291487
6 *426:21 0.000943992
7 *426:17 0.000820062
8 *426:6 0.000359348
9 *4508:A *4508:B 2.75229e-05
10 *4608:A1 *4605:D 8.5242e-05
11 *4608:A1 *4608:A3 9.66021e-05
12 *4608:A1 *4608:C1 0
13 *4608:A1 *527:8 0
14 *4679:A1 *4679:A2 8.34504e-05
15 *4679:A1 *4680:A 0
16 *4679:A1 *4680:B 0.00016659
17 *426:17 *4605:D 9.50342e-06
18 *4605:A *426:6 2.75145e-05
19 *4605:B *426:6 4.99619e-05
20 *4605:B *426:17 8.65905e-05
21 *4605:B *426:21 0.000654355
22 *425:14 *426:17 0
*RES
1 *4505:X *426:6 6.19 
2 *426:6 *4605:C 1.6 
3 *426:6 *426:17 3.41 
4 *426:17 *426:21 9.35 
5 *426:21 *4679:A1 9.725 
6 *426:21 *4508:A 4.045 
7 *426:17 *4608:A1 7.02 
*END

*D_NET *427 0.00274361
*CONN
*I *4507:B1 I *D sky130_fd_sc_hd__a41o_2
*I *4608:A2 I *D sky130_fd_sc_hd__a311oi_2
*I *4506:X O *D sky130_fd_sc_hd__a21o_2
*CAP
1 *4507:B1 0.00031017
2 *4608:A2 0.00031254
3 *4506:X 0.000467861
4 *427:12 0.00109057
5 *4608:A2 *4680:A 5.53249e-06
6 *4608:A2 *527:8 0
7 *4481:A *427:12 0
8 *4483:B1 *427:12 0
9 *4506:A2 *427:12 6.95335e-05
10 *4506:B1 *427:12 4.94326e-05
11 *4606:A *4608:A2 0
12 *307:12 *427:12 0
13 *307:16 *4507:B1 0.000161529
14 *307:16 *427:12 0.000276441
*RES
1 *4506:X *427:12 13.325 
2 *427:12 *4608:A2 10.295 
3 *427:12 *4507:B1 5.425 
*END

*D_NET *428 0.00107708
*CONN
*I *4679:A2 I *D sky130_fd_sc_hd__a21boi_2
*I *4508:B I *D sky130_fd_sc_hd__xnor2_2
*I *4507:X O *D sky130_fd_sc_hd__a41o_2
*CAP
1 *4679:A2 0.000181903
2 *4508:B 2.32169e-05
3 *4507:X 0.000207136
4 *428:10 0.000412255
5 *4679:A2 *4680:B 0.000141599
6 *4679:A2 *601:16 0
7 *4508:A *4508:B 2.75229e-05
8 *4605:B *4679:A2 0
9 *4605:B *428:10 0
10 *4679:A1 *4679:A2 8.34504e-05
*RES
1 *4507:X *428:10 6.375 
2 *428:10 *4508:B 4.05 
3 *428:10 *4679:A2 7.53 
*END

*D_NET *429 0.00747169
*CONN
*I *4684:B I *D sky130_fd_sc_hd__nand2_2
*I *4683:B I *D sky130_fd_sc_hd__and2_2
*I *4685:B I *D sky130_fd_sc_hd__nor2_2
*I *4976:B2 I *D sky130_fd_sc_hd__o2bb2a_2
*I *4964:A1 I *D sky130_fd_sc_hd__a221o_2
*I *4508:Y O *D sky130_fd_sc_hd__xnor2_2
*CAP
1 *4684:B 6.91529e-05
2 *4683:B 0
3 *4685:B 0.000177008
4 *4976:B2 0.000280584
5 *4964:A1 3.03571e-05
6 *4508:Y 0.000546727
7 *429:38 0.000191734
8 *429:36 0.000916999
9 *429:12 0.000501393
10 *429:8 0.0015703
11 *4684:B *4683:A 4.87465e-06
12 *4684:B *4684:A 4.7072e-05
13 *4684:B *914:64 2.75145e-05
14 *4685:B *4685:A 0
15 *4685:B *4686:B1 3.86529e-05
16 *4685:B *4686:C1 8.54376e-05
17 *4685:B *4732:A2 0.000350953
18 *4685:B *915:58 1.58946e-05
19 *4976:B2 *4964:B1 4.18603e-06
20 *4976:B2 *4966:B2 0
21 *4976:B2 *4971:B1 0.000162412
22 *429:8 *4878:A 9.27326e-05
23 *429:8 *4971:A2 8.23457e-05
24 *429:8 *5073:D 4.81931e-05
25 *429:8 *781:10 8.29769e-05
26 *429:12 *4964:B1 6.53154e-05
27 *429:12 *4971:A2 7.26629e-05
28 *429:12 *4971:A3 0.000312778
29 *429:12 *4971:B1 0.00010013
30 *429:12 *5072:RESET_B 0.000183036
31 *429:36 *1335:DIODE 2.75229e-05
32 *429:36 *4865:A 0.000107415
33 *429:36 *4867:A2 8.40269e-05
34 *429:36 *4971:A2 0.000145515
35 *429:36 *5158:A 4.85494e-05
36 *429:36 *781:10 0.000232111
37 *429:36 *914:64 6.0115e-05
38 *429:36 *988:58 0.00027042
39 *429:36 *994:156 0.00031598
40 *429:36 *994:162 4.82919e-05
41 *429:38 *4683:A 9.03508e-06
42 *4976:A1_N *4976:B2 6.12863e-05
*RES
1 *4508:Y *429:8 10 
2 *429:8 *429:12 7.97 
3 *429:12 *4964:A1 4.05 
4 *429:12 *4976:B2 8.505 
5 *429:8 *429:36 15.3 
6 *429:36 *429:38 0.36 
7 *429:38 *4685:B 9.785 
8 *429:38 *4683:B 1.6 
9 *429:36 *4684:B 3.1 
*END

*D_NET *430 0.00606712
*CONN
*I *5130:A I *D sky130_fd_sc_hd__clkdlybuf4s25_1
*I *5129:A I *D sky130_fd_sc_hd__clkdlybuf4s25_1
*I *4509:X O *D sky130_fd_sc_hd__and4_2
*CAP
1 *5130:A 0.000165299
2 *5129:A 0.000717728
3 *4509:X 0.00137483
4 *430:8 0.00225786
5 *5129:A *1245:DIODE 0
6 *5129:A *1246:DIODE 2.78732e-05
7 *5129:A *1321:DIODE 9.14049e-05
8 *5129:A *4850:A 0
9 *5129:A *4850:B 0
10 *5129:A *4852:A1 0
11 *5129:A *4852:B1 4.82863e-05
12 *5129:A *653:52 0.000183403
13 *5129:A *914:12 7.21296e-06
14 *5129:A *914:32 0
15 *5129:A *964:27 7.33759e-05
16 *5130:A *1245:DIODE 0
17 *5130:A *4849:B 5.04256e-05
18 *5130:A *755:23 2.24975e-05
19 *5130:A *914:32 0
20 *5130:A *988:10 0
21 *430:8 *4963:A1_N 1.82528e-05
22 *430:8 *4963:A2_N 2.49909e-05
23 *430:8 *4963:B1 1.34503e-05
24 *430:8 *4963:B2 0.0001249
25 *430:8 *4964:A2 9.98057e-05
26 *430:8 *4964:B2 7.25921e-06
27 *430:8 *4964:C1 5.30673e-05
28 *430:8 *4965:C 0.000407658
29 *5302:A *430:8 7.748e-05
30 *373:31 *5129:A 0.000220055
*RES
1 *4509:X *430:8 20.955 
2 *430:8 *5129:A 19.36 
3 *430:8 *5130:A 6.51 
*END

*D_NET *431 0.00535864
*CONN
*I *4917:A1 I *D sky130_fd_sc_hd__a21o_2
*I *5128:A I *D sky130_fd_sc_hd__clkdlybuf4s25_1
*I *4510:Y O *D sky130_fd_sc_hd__inv_2
*CAP
1 *4917:A1 0.00113874
2 *5128:A 0
3 *4510:Y 0.00073199
4 *431:16 0.00187073
5 *4917:A1 *1344:DIODE 4.57447e-05
6 *4917:A1 *4889:B1 7.22514e-05
7 *4917:A1 *4895:A 0.000160641
8 *4917:A1 *4895:B 4.60584e-05
9 *4917:A1 *4916:A2 6.48692e-05
10 *4917:A1 *4916:B1 2.30292e-05
11 *4917:A1 *4917:A2 4.94457e-05
12 *4917:A1 *5166:A 4.82863e-05
13 *4917:A1 *656:68 0.000278117
14 *4917:A1 *986:6 3.07883e-05
15 *431:16 *1344:DIODE 3.00381e-05
16 *431:16 *4909:B 0.000276441
17 *431:16 *4910:A1 3.78034e-06
18 *431:16 *4910:A2 1.17409e-05
19 *431:16 *4910:B1 0.000104153
20 *431:16 *4910:C1 0.00014039
21 *431:16 *4913:A2 8.40213e-05
22 *431:16 *656:47 7.00889e-06
23 *431:16 *923:22 0.000116158
24 *431:16 *1011:45 2.42236e-05
*RES
1 *4510:Y *431:16 17.21 
2 *431:16 *5128:A 1.6 
3 *431:16 *4917:A1 19.315 
*END

*D_NET *432 0.00199687
*CONN
*I *4534:A1 I *D sky130_fd_sc_hd__a21o_2
*I *4522:B I *D sky130_fd_sc_hd__nand3_2
*I *4523:B I *D sky130_fd_sc_hd__nor2_2
*I *4533:A1 I *D sky130_fd_sc_hd__a21oi_2
*I *4511:Y O *D sky130_fd_sc_hd__nand2_2
*CAP
1 *4534:A1 9.80467e-05
2 *4522:B 1.88809e-05
3 *4523:B 0.000100427
4 *4533:A1 0.000310553
5 *4511:Y 0.000202689
6 *432:37 0.000218267
7 *432:10 0.00051233
8 *4522:B *4522:A 5.4155e-06
9 *4523:B *982:17 0
10 *4523:B *1034:8 0.000183043
11 *4533:A1 *454:18 4.6368e-06
12 *4534:A1 *4522:C 5.71481e-05
13 *4534:A1 *4535:B 4.77757e-05
14 *4534:A1 *1020:14 4.40812e-05
15 *4534:A1 *1034:14 2.86975e-05
16 *432:10 *982:17 0
17 *432:10 *1034:8 0.000116853
18 *432:37 *4522:A 4.80285e-05
*RES
1 *4511:Y *432:10 5.43 
2 *432:10 *4533:A1 7.86 
3 *432:10 *4523:B 5.745 
4 *4511:Y *432:37 3.085 
5 *432:37 *4522:B 1.96 
6 *432:37 *4534:A1 7.88 
*END

*D_NET *433 0.000674726
*CONN
*I *4553:B1 I *D sky130_fd_sc_hd__a21oi_2
*I *4512:X O *D sky130_fd_sc_hd__and2_2
*CAP
1 *4553:B1 0.000165172
2 *4512:X 0.000165172
3 *4553:B1 *4553:A2 0
4 *4553:B1 *982:34 0.000109995
5 *4553:B1 *982:42 0.000234385
6 *4553:B1 *1020:24 0
*RES
1 *4512:X *4553:B1 11.07 
*END

*D_NET *434 0.00255426
*CONN
*I *4518:B I *D sky130_fd_sc_hd__xor2_2
*I *4515:A I *D sky130_fd_sc_hd__or2_2
*I *4520:A I *D sky130_fd_sc_hd__nand2_2
*I *4513:Y O *D sky130_fd_sc_hd__nand2_2
*CAP
1 *4518:B 0.000109997
2 *4515:A 0.00012722
3 *4520:A 0.000206586
4 *4513:Y 0.000347347
5 *434:24 0.000377978
6 *4515:A *1169:DIODE 0
7 *4515:A *4541:B1 8.53113e-06
8 *4515:A *435:10 0.000174279
9 *4515:A *1117:124 0
10 *4518:B *1170:DIODE 2.75229e-05
11 *4518:B *4516:A3 1.19928e-05
12 *4518:B *1117:107 0
13 *4518:B *1117:116 0.000188957
14 *4520:A *1173:DIODE 2.47705e-05
15 *4520:A *4519:B 8.64421e-05
16 *434:24 *1168:DIODE 0.000112631
17 *434:24 *1170:DIODE 0.000341569
18 *434:24 *1171:DIODE 6.20787e-05
19 *434:24 *4514:B 8.40213e-05
20 *434:24 *435:10 8.65905e-05
21 *434:24 *982:178 0.000164874
22 *434:24 *1117:116 1.08758e-05
*RES
1 *4513:Y *4520:A 10.665 
2 *4513:Y *434:24 7.57 
3 *434:24 *4515:A 7.745 
4 *434:24 *4518:B 2.4825 
*END

*D_NET *435 0.00128993
*CONN
*I *4515:B I *D sky130_fd_sc_hd__or2_2
*I *4537:A I *D sky130_fd_sc_hd__nand2_2
*I *4541:B1 I *D sky130_fd_sc_hd__o21ai_2
*I *4514:Y O *D sky130_fd_sc_hd__nand2_2
*CAP
1 *4515:B 0
2 *4537:A 4.36495e-05
3 *4541:B1 0.00014977
4 *4514:Y 0.0001441
5 *435:23 6.15186e-05
6 *435:10 0.000311739
7 *4537:A *4516:B1 0.00012657
8 *4541:B1 *1169:DIODE 0
9 *4541:B1 *458:8 0
10 *4541:B1 *462:10 1.73877e-05
11 *435:10 *1170:DIODE 8.65905e-05
12 *435:23 *4516:B1 4.82863e-05
13 *4515:A *4541:B1 8.53113e-06
14 *4515:A *435:10 0.000174279
15 *4538:A *4541:B1 3.09164e-05
16 *434:24 *435:10 8.65905e-05
*RES
1 *4514:Y *435:10 6.795 
2 *435:10 *4541:B1 6.255 
3 *435:10 *435:23 2.45 
4 *435:23 *4537:A 2.74 
5 *435:23 *4515:B 1.6 
*END

*D_NET *436 0.00253021
*CONN
*I *4517:A I *D sky130_fd_sc_hd__nand2_2
*I *4527:B I *D sky130_fd_sc_hd__nand2_2
*I *4639:B1 I *D sky130_fd_sc_hd__o21a_2
*I *4515:X O *D sky130_fd_sc_hd__or2_2
*CAP
1 *4517:A 2.08101e-05
2 *4527:B 0
3 *4639:B1 0.000160028
4 *4515:X 0.000170174
5 *436:14 0.00054139
6 *436:6 0.000572346
7 *4517:A *993:36 0
8 *4639:B1 *4297:A 0.000187759
9 *4639:B1 *4639:A2 5.30673e-05
10 *4639:B1 *447:10 0
11 *4639:B1 *447:16 0
12 *436:6 *4516:B1 3.00381e-05
13 *436:6 *4517:B 8.8266e-05
14 *436:6 *993:28 2.7441e-05
15 *436:6 *993:36 0.000167631
16 *436:14 *4527:A 0
17 *436:14 *4619:B 5.30673e-05
18 *436:14 *4620:A 8.65905e-05
19 *436:14 *438:12 0.000279295
20 *436:14 *993:36 4.31075e-05
21 *436:14 *993:51 1.91597e-05
22 *4639:A1 *4639:B1 3.00381e-05
*RES
1 *4515:X *436:6 5.5 
2 *436:6 *436:14 7.74 
3 *436:14 *4639:B1 9.23 
4 *436:14 *4527:B 1.6 
5 *436:6 *4517:A 1.96 
*END

*D_NET *437 0.000166078
*CONN
*I *4517:B I *D sky130_fd_sc_hd__nand2_2
*I *4516:X O *D sky130_fd_sc_hd__a31o_2
*CAP
1 *4517:B 1.23724e-05
2 *4516:X 1.23724e-05
3 *4517:B *993:36 5.30673e-05
4 *436:6 *4517:B 8.8266e-05
*RES
1 *4516:X *4517:B 3.995 
*END

*D_NET *438 0.00175947
*CONN
*I *4529:A I *D sky130_fd_sc_hd__nand2_2
*I *4526:A I *D sky130_fd_sc_hd__or2_2
*I *4517:Y O *D sky130_fd_sc_hd__nand2_2
*CAP
1 *4529:A 0.000115673
2 *4526:A 0
3 *4517:Y 0.000191751
4 *438:12 0.000307424
5 *4529:A *4529:B 0.0001249
6 *4529:A *447:10 4.60584e-05
7 *438:12 *4297:A 2.92496e-05
8 *438:12 *4619:A 0
9 *438:12 *4619:B 8.8266e-05
10 *438:12 *447:10 0
11 *438:12 *993:36 0.000576853
12 *436:14 *438:12 0.000279295
*RES
1 *4517:Y *438:12 12.26 
2 *438:12 *4526:A 1.6 
3 *438:12 *4529:A 3.79 
*END

*D_NET *439 0.000631497
*CONN
*I *4525:A_N I *D sky130_fd_sc_hd__nand2b_2
*I *4618:B I *D sky130_fd_sc_hd__nand2b_2
*I *4518:X O *D sky130_fd_sc_hd__xor2_2
*CAP
1 *4525:A_N 1.77632e-05
2 *4618:B 0.000100058
3 *4518:X 7.93462e-05
4 *439:6 0.000197167
5 *4525:A_N *4525:B 4.82919e-05
6 *4618:B *4525:B 6.14602e-05
7 *4618:B *4619:A 0
8 *4618:B *445:10 4.18603e-06
9 *439:6 *4525:B 0.000123225
*RES
1 *4518:X *439:6 3.085 
2 *439:6 *4618:B 7.49 
3 *439:6 *4525:A_N 2.05 
*END

*D_NET *440 8.56122e-05
*CONN
*I *4520:B I *D sky130_fd_sc_hd__nand2_2
*I *4519:X O *D sky130_fd_sc_hd__or2_2
*CAP
1 *4520:B 1.83413e-05
2 *4519:X 1.83413e-05
3 *4520:B *4519:B 4.89295e-05
*RES
1 *4519:X *4520:B 3.65 
*END

*D_NET *441 0.000931778
*CONN
*I *4532:A I *D sky130_fd_sc_hd__xnor2_2
*I *4524:A1 I *D sky130_fd_sc_hd__o21bai_2
*I *4520:Y O *D sky130_fd_sc_hd__nand2_2
*CAP
1 *4532:A 0
2 *4524:A1 0.000126674
3 *4520:Y 0.000220946
4 *441:8 0.00034762
5 *4524:A1 *4532:B 2.60986e-05
6 *4524:A1 *4533:A2 0.000158297
7 *4524:A1 *445:10 4.66108e-05
8 *4524:A1 *1020:10 0
9 *441:8 *1173:DIODE 0
10 *441:8 *4519:A 0
11 *441:8 *4532:B 5.53249e-06
12 *441:8 *993:14 0
13 *441:8 *993:28 0
14 *441:8 *1020:10 0
*RES
1 *4520:Y *441:8 7.02 
2 *441:8 *4524:A1 6.45 
3 *441:8 *4532:A 3.6 
*END

*D_NET *442 0.000343296
*CONN
*I *4534:A2 I *D sky130_fd_sc_hd__a21o_2
*I *4522:C I *D sky130_fd_sc_hd__nand3_2
*I *4521:X O *D sky130_fd_sc_hd__or2_2
*CAP
1 *4534:A2 0
2 *4522:C 7.46065e-05
3 *4521:X 9.97438e-06
4 *442:6 8.45809e-05
5 *4522:C *4535:B 4.05127e-05
6 *4522:C *1020:14 0
7 *442:6 *4535:B 4.77757e-05
8 *442:6 *1034:14 2.86975e-05
9 *4534:A1 *4522:C 5.71481e-05
*RES
1 *4521:X *442:6 2.05 
2 *442:6 *4522:C 7.235 
3 *442:6 *4534:A2 1.6 
*END

*D_NET *443 0.00182096
*CONN
*I *4535:A I *D sky130_fd_sc_hd__nand2_2
*I *4532:B I *D sky130_fd_sc_hd__xnor2_2
*I *4524:A2 I *D sky130_fd_sc_hd__o21bai_2
*I *4522:Y O *D sky130_fd_sc_hd__nand3_2
*CAP
1 *4535:A 0
2 *4532:B 8.16611e-05
3 *4524:A2 0.000131097
4 *4522:Y 0.000197461
5 *443:12 0.000480573
6 *443:8 0.000465275
7 *4524:A2 *445:10 0.000119242
8 *4532:B *4533:A2 0.000108329
9 *443:12 *4533:A2 0.000202095
10 *443:12 *4535:B 3.60024e-06
11 *4524:A1 *4532:B 2.60986e-05
12 *441:8 *4532:B 5.53249e-06
*RES
1 *4522:Y *443:8 4.48 
2 *443:8 *443:12 6.695 
3 *443:12 *4524:A2 5.7 
4 *443:12 *4532:B 5.49 
5 *443:8 *4535:A 1.6 
*END

*D_NET *444 0.000561209
*CONN
*I *4524:B1_N I *D sky130_fd_sc_hd__o21bai_2
*I *4533:B1 I *D sky130_fd_sc_hd__a21oi_2
*I *4523:Y O *D sky130_fd_sc_hd__nor2_2
*CAP
1 *4524:B1_N 0
2 *4533:B1 9.39508e-05
3 *4523:Y 0.000109059
4 *444:6 0.000203009
5 *4533:B1 *1020:10 1.94805e-05
6 *4533:B1 *1020:14 4.91189e-05
7 *444:6 *4523:A 8.65905e-05
*RES
1 *4523:Y *444:6 3.43 
2 *444:6 *4533:B1 7.49 
3 *444:6 *4524:B1_N 1.6 
*END

*D_NET *445 0.00376599
*CONN
*I *4525:B I *D sky130_fd_sc_hd__nand2b_2
*I *4618:A_N I *D sky130_fd_sc_hd__nand2b_2
*I *4524:Y O *D sky130_fd_sc_hd__o21bai_2
*CAP
1 *4525:B 0.000242979
2 *4618:A_N 0
3 *4524:Y 0.000954161
4 *445:10 0.00119714
5 *4525:B *4516:A3 0
6 *4525:B *446:6 3.00381e-05
7 *445:10 *1169:DIODE 9.91257e-05
8 *445:10 *4541:A2 8.65961e-05
9 *445:10 *4620:A 0
10 *4524:A1 *445:10 4.66108e-05
11 *4524:A2 *445:10 0.000119242
12 *4525:A_N *4525:B 4.82919e-05
13 *4541:A1 *445:10 4.82863e-05
14 *4618:B *4525:B 6.14602e-05
15 *4618:B *445:10 4.18603e-06
16 *221:10 *445:10 0.000704647
17 *439:6 *4525:B 0.000123225
*RES
1 *4524:Y *445:10 21.375 
2 *445:10 *4618:A_N 3.6 
3 *445:10 *4525:B 8.265 
*END

*D_NET *446 0.000891509
*CONN
*I *4529:B I *D sky130_fd_sc_hd__nand2_2
*I *4526:B I *D sky130_fd_sc_hd__or2_2
*I *4619:A I *D sky130_fd_sc_hd__nand2_2
*I *4525:Y O *D sky130_fd_sc_hd__nand2b_2
*CAP
1 *4529:B 0.000100792
2 *4526:B 0
3 *4619:A 0.00010995
4 *4525:Y 7.67003e-05
5 *446:19 0.000156654
6 *446:6 0.000242513
7 *4529:B *447:10 4.99619e-05
8 *4619:A *4297:A 0
9 *4525:B *446:6 3.00381e-05
10 *4529:A *4529:B 0.0001249
11 *4618:B *4619:A 0
12 *438:12 *4619:A 0
*RES
1 *4525:Y *446:6 2.74 
2 *446:6 *4619:A 7.235 
3 *446:6 *446:19 0.795 
4 *446:19 *4526:B 1.6 
5 *446:19 *4529:B 3.895 
*END

*D_NET *447 0.00148174
*CONN
*I *4528:S I *D sky130_fd_sc_hd__mux2_1
*I *4530:A I *D sky130_fd_sc_hd__and2_2
*I *4639:A2 I *D sky130_fd_sc_hd__o21a_2
*I *4526:X O *D sky130_fd_sc_hd__or2_2
*CAP
1 *4528:S 0
2 *4530:A 0.000102302
3 *4639:A2 9.9763e-05
4 *4526:X 0.000266992
5 *447:16 0.000318789
6 *447:10 0.000383716
7 *4530:A *560:12 0.00012657
8 *447:10 *4297:A 0
9 *447:10 *4530:B 2.75145e-05
10 *447:16 *4530:B 0
11 *447:16 *560:12 7.00889e-06
12 *4529:A *447:10 4.60584e-05
13 *4529:B *447:10 4.99619e-05
14 *4639:A1 *4530:A 0
15 *4639:B1 *4639:A2 5.30673e-05
16 *4639:B1 *447:10 0
17 *4639:B1 *447:16 0
18 *438:12 *447:10 0
*RES
1 *4526:X *447:10 8.175 
2 *447:10 *447:16 3.83 
3 *447:16 *4639:A2 3.1 
4 *447:16 *4530:A 3.955 
5 *447:10 *4528:S 3.6 
*END

*D_NET *448 0.000288212
*CONN
*I *4528:A1 I *D sky130_fd_sc_hd__mux2_1
*I *4527:Y O *D sky130_fd_sc_hd__nand2_2
*CAP
1 *4528:A1 6.29509e-05
2 *4527:Y 6.29509e-05
3 *4528:A1 *4528:A0 0.000162311
*RES
1 *4527:Y *4528:A1 4.685 
*END

*D_NET *449 0.00311852
*CONN
*I *4634:A I *D sky130_fd_sc_hd__nand3_2
*I *4633:B1 I *D sky130_fd_sc_hd__a21o_2
*I *4528:X O *D sky130_fd_sc_hd__mux2_1
*CAP
1 *4634:A 0
2 *4633:B1 0.000208937
3 *4528:X 0.00120838
4 *449:10 0.00141731
5 *4633:B1 *4629:A 0.000120655
6 *4633:B1 *4634:B 0.000163239
7 *449:10 *552:10 0
*RES
1 *4528:X *449:10 20.835 
2 *449:10 *4633:B1 7.935 
3 *449:10 *4634:A 3.6 
*END

*D_NET *450 0.00084585
*CONN
*I *4530:B I *D sky130_fd_sc_hd__and2_2
*I *4529:Y O *D sky130_fd_sc_hd__nand2_2
*CAP
1 *4530:B 0.000409168
2 *4529:Y 0.000409168
3 *447:10 *4530:B 2.75145e-05
4 *447:16 *4530:B 0
*RES
1 *4529:Y *4530:B 13.305 
*END

*D_NET *451 0.00125939
*CONN
*I *4531:A I *D sky130_fd_sc_hd__inv_2
*I *4626:A I *D sky130_fd_sc_hd__and3_2
*I *4625:B1 I *D sky130_fd_sc_hd__a21o_2
*I *4530:X O *D sky130_fd_sc_hd__and2_2
*CAP
1 *4531:A 0
2 *4626:A 5.9124e-05
3 *4625:B1 0
4 *4530:X 0.000135337
5 *451:12 0.00015432
6 *451:6 0.000230533
7 *4626:A *4625:A1 0
8 *4626:A *4626:B 2.8185e-05
9 *4626:A *4626:C 9.2741e-05
10 *4626:A *546:10 8.8266e-05
11 *451:6 *560:12 0.000354719
12 *451:12 *4624:D1 0.000116165
*RES
1 *4530:X *451:6 4.81 
2 *451:6 *451:12 5.89 
3 *451:12 *4625:B1 1.6 
4 *451:12 *4626:A 3.445 
5 *451:6 *4531:A 1.6 
*END

*D_NET *452 0.000543767
*CONN
*I *4624:D1 I *D sky130_fd_sc_hd__a2111o_2
*I *4531:Y O *D sky130_fd_sc_hd__inv_2
*CAP
1 *4624:D1 0.000208105
2 *4531:Y 0.000208105
3 *4624:D1 *543:19 1.1392e-05
4 *451:12 *4624:D1 0.000116165
*RES
1 *4531:Y *4624:D1 10.56 
*END

*D_NET *453 0.00136218
*CONN
*I *4533:A2 I *D sky130_fd_sc_hd__a21oi_2
*I *4532:Y O *D sky130_fd_sc_hd__xnor2_2
*CAP
1 *4533:A2 0.000370516
2 *4532:Y 0.000370516
3 *4533:A2 *454:18 2.75145e-05
4 *4533:A2 *1117:34 0.000124915
5 *4524:A1 *4533:A2 0.000158297
6 *4532:B *4533:A2 0.000108329
7 *443:12 *4533:A2 0.000202095
*RES
1 *4532:Y *4533:A2 14.895 
*END

*D_NET *454 0.00356395
*CONN
*I *4544:B1 I *D sky130_fd_sc_hd__o21a_2
*I *4545:A I *D sky130_fd_sc_hd__nor3_2
*I *4533:Y O *D sky130_fd_sc_hd__a21oi_2
*CAP
1 *4544:B1 0.000111206
2 *4545:A 0
3 *4533:Y 0.00104264
4 *454:18 0.00115384
5 *4544:B1 *4544:A1 0.000164679
6 *4544:B1 *4545:C 8.65905e-05
7 *4544:B1 *464:10 0
8 *454:18 *4543:B 0.000197563
9 *454:18 *4545:C 0.000164874
10 *454:18 *456:6 8.40213e-05
11 *454:18 *459:10 0.000157242
12 *454:18 *463:6 0.000162311
13 *454:18 *982:93 0.000206824
14 *4533:A1 *454:18 4.6368e-06
15 *4533:A2 *454:18 2.75145e-05
*RES
1 *4533:Y *454:18 22.04 
2 *454:18 *4545:A 1.6 
3 *454:18 *4544:B1 8.285 
*END

*D_NET *455 0.000879052
*CONN
*I *4535:B I *D sky130_fd_sc_hd__nand2_2
*I *4534:X O *D sky130_fd_sc_hd__a21o_2
*CAP
1 *4535:B 0.000316101
2 *4534:X 0.000316101
3 *4535:B *4534:B1 5.05521e-05
4 *4535:B *1034:14 5.1997e-05
5 *4535:B *1034:29 4.6368e-06
6 *4522:C *4535:B 4.05127e-05
7 *4534:A1 *4535:B 4.77757e-05
8 *442:6 *4535:B 4.77757e-05
9 *443:12 *4535:B 3.60024e-06
*RES
1 *4534:X *4535:B 11.805 
*END

*D_NET *456 0.000944315
*CONN
*I *4542:A I *D sky130_fd_sc_hd__xor2_2
*I *4540:A I *D sky130_fd_sc_hd__nor2_2
*I *4535:Y O *D sky130_fd_sc_hd__nand2_2
*CAP
1 *4542:A 0
2 *4540:A 5.81068e-05
3 *4535:Y 0.000230243
4 *456:6 0.00028835
5 *4540:A *4540:B 0.000100544
6 *4540:A *982:93 0.00018305
7 *454:18 *456:6 8.40213e-05
*RES
1 *4535:Y *456:6 5.155 
2 *456:6 *4540:A 7.745 
3 *456:6 *4542:A 1.6 
*END

*D_NET *457 0.000149146
*CONN
*I *4537:B I *D sky130_fd_sc_hd__nand2_2
*I *4536:X O *D sky130_fd_sc_hd__or2_2
*CAP
1 *4537:B 3.04398e-05
2 *4536:X 3.04398e-05
3 *4537:B *4516:B1 8.8266e-05
*RES
1 *4536:X *4537:B 3.995 
*END

*D_NET *458 0.000806189
*CONN
*I *4541:A2 I *D sky130_fd_sc_hd__o21ai_2
*I *4538:B I *D sky130_fd_sc_hd__xnor2_2
*I *4537:Y O *D sky130_fd_sc_hd__nand2_2
*CAP
1 *4541:A2 3.63983e-05
2 *4538:B 0.000166724
3 *4537:Y 9.39962e-05
4 *458:8 0.000297118
5 *4538:B *461:10 5.07419e-05
6 *4538:B *462:10 5.51245e-05
7 *4538:B *982:93 0
8 *458:8 *462:10 1.94892e-05
9 *458:8 *982:93 0
10 *4541:B1 *458:8 0
11 *445:10 *4541:A2 8.65961e-05
*RES
1 *4537:Y *458:8 5.235 
2 *458:8 *4538:B 6.735 
3 *458:8 *4541:A2 4.395 
*END

*D_NET *459 0.00161376
*CONN
*I *4539:B I *D sky130_fd_sc_hd__or2_2
*I *4549:B I *D sky130_fd_sc_hd__xnor2_2
*I *4538:Y O *D sky130_fd_sc_hd__xnor2_2
*CAP
1 *4539:B 1.17533e-05
2 *4549:B 0.000105731
3 *4538:Y 0.000373942
4 *459:10 0.000491426
5 *4539:B *982:87 4.82863e-05
6 *4539:B *1034:29 2.75145e-05
7 *4549:B *982:78 0
8 *459:10 *461:10 0.00012657
9 *459:10 *982:93 8.42239e-05
10 *4539:A *4549:B 0.000187071
11 *454:18 *459:10 0.000157242
*RES
1 *4538:Y *459:10 10.485 
2 *459:10 *4549:B 6 
3 *459:10 *4539:B 4.05 
*END

*D_NET *460 0.000724465
*CONN
*I *4540:B I *D sky130_fd_sc_hd__nor2_2
*I *4542:B I *D sky130_fd_sc_hd__xor2_2
*I *4539:X O *D sky130_fd_sc_hd__or2_2
*CAP
1 *4540:B 0.000111212
2 *4542:B 0
3 *4539:X 0.000104847
4 *460:10 0.000216059
5 *4540:B *462:10 0
6 *4540:B *982:93 5.11148e-06
7 *460:10 *462:10 0
8 *460:10 *982:93 4.70343e-05
9 *460:10 *982:139 8.65905e-05
10 *460:10 *1034:29 5.30673e-05
11 *4540:A *4540:B 0.000100544
*RES
1 *4539:X *460:10 6.03 
2 *460:10 *4542:B 2 
3 *460:10 *4540:B 6 
*END

*D_NET *461 0.0021167
*CONN
*I *4545:B I *D sky130_fd_sc_hd__nor3_2
*I *4544:A1 I *D sky130_fd_sc_hd__o21a_2
*I *4540:Y O *D sky130_fd_sc_hd__nor2_2
*CAP
1 *4545:B 0
2 *4544:A1 0.000201336
3 *4540:Y 0.000651216
4 *461:10 0.000852551
5 *4544:A1 *4544:A2 3.95724e-05
6 *4544:A1 *4546:B 0
7 *4544:A1 *4621:A1 0
8 *4538:A *461:10 3.00381e-05
9 *4538:B *461:10 5.07419e-05
10 *4544:B1 *4544:A1 0.000164679
11 *459:10 *461:10 0.00012657
*RES
1 *4540:Y *461:10 13.53 
2 *461:10 *4544:A1 7.59 
3 *461:10 *4545:B 3.6 
*END

*D_NET *462 0.00109966
*CONN
*I *4547:A I *D sky130_fd_sc_hd__nor2_2
*I *4543:A I *D sky130_fd_sc_hd__and2_2
*I *4541:Y O *D sky130_fd_sc_hd__o21ai_2
*CAP
1 *4547:A 0
2 *4543:A 9.4447e-05
3 *4541:Y 0.000250939
4 *462:10 0.000345386
5 *4543:A *4543:B 5.14739e-05
6 *4543:A *4547:B 9.42091e-06
7 *4543:A *4548:B 8.8266e-05
8 *4543:A *463:6 7.60965e-05
9 *4538:A *462:10 9.16315e-05
10 *4538:B *462:10 5.51245e-05
11 *4540:B *462:10 0
12 *4541:B1 *462:10 1.73877e-05
13 *458:8 *462:10 1.94892e-05
14 *460:10 *462:10 0
*RES
1 *4541:Y *462:10 10.295 
2 *462:10 *4543:A 4.15 
3 *462:10 *4547:A 1.6 
*END

*D_NET *463 0.000689893
*CONN
*I *4543:B I *D sky130_fd_sc_hd__and2_2
*I *4547:B I *D sky130_fd_sc_hd__nor2_2
*I *4542:X O *D sky130_fd_sc_hd__xor2_2
*CAP
1 *4543:B 3.05769e-05
2 *4547:B 1.71692e-05
3 *4542:X 3.39512e-05
4 *463:6 8.16973e-05
5 *4543:B *4548:B 2.96334e-05
6 *4543:A *4543:B 5.14739e-05
7 *4543:A *4547:B 9.42091e-06
8 *4543:A *463:6 7.60965e-05
9 *454:18 *4543:B 0.000197563
10 *454:18 *463:6 0.000162311
*RES
1 *4542:X *463:6 3.085 
2 *463:6 *4547:B 1.96 
3 *463:6 *4543:B 3.445 
*END

*D_NET *464 0.00103145
*CONN
*I *4545:C I *D sky130_fd_sc_hd__nor3_2
*I *4544:A2 I *D sky130_fd_sc_hd__o21a_2
*I *4548:A I *D sky130_fd_sc_hd__or2_2
*I *4543:X O *D sky130_fd_sc_hd__and2_2
*CAP
1 *4545:C 0.000167448
2 *4544:A2 0.000121311
3 *4548:A 0
4 *4543:X 0.00022285
5 *464:10 0.000176713
6 *464:10 *4548:B 5.2089e-05
7 *4544:A1 *4544:A2 3.95724e-05
8 *4544:B1 *4545:C 8.65905e-05
9 *4544:B1 *464:10 0
10 *454:18 *4545:C 0.000164874
*RES
1 *4543:X *464:10 6.725 
2 *464:10 *4548:A 1.6 
3 *464:10 *4544:A2 3.445 
4 *4543:X *4545:C 6.41 
*END

*D_NET *465 0.00420671
*CONN
*I *4626:B I *D sky130_fd_sc_hd__and3_2
*I *4625:A1 I *D sky130_fd_sc_hd__a21o_2
*I *4621:B1 I *D sky130_fd_sc_hd__a21o_2
*I *4546:A I *D sky130_fd_sc_hd__nor2_2
*I *4544:X O *D sky130_fd_sc_hd__o21a_2
*CAP
1 *4626:B 0.000214204
2 *4625:A1 4.80504e-05
3 *4621:B1 8.73148e-05
4 *4546:A 1.85694e-05
5 *4544:X 0.000106965
6 *465:42 0.00092824
7 *465:25 0.00121623
8 *465:6 0.000588465
9 *4546:A *4628:A 0
10 *4621:B1 *4621:A2 4.60584e-05
11 *4621:B1 *4622:B 8.65905e-05
12 *4625:A1 *4626:C 9.53428e-06
13 *4626:B *4626:C 1.0124e-05
14 *4626:B *546:10 9.91257e-05
15 *465:25 *4621:A2 5.20968e-05
16 *465:25 *4628:A 0.000278117
17 *465:25 *4628:C 7.21296e-06
18 *465:25 *467:6 3.09088e-05
19 *465:25 *541:12 7.21296e-06
20 *465:42 *4626:C 5.062e-06
21 *465:42 *541:12 4.49498e-05
22 *465:42 *541:34 0.000293498
23 *4626:A *4625:A1 0
24 *4626:A *4626:B 2.8185e-05
*RES
1 *4544:X *465:6 3.085 
2 *465:6 *4546:A 1.96 
3 *465:6 *465:25 8.795 
4 *465:25 *4621:B1 5.445 
5 *465:25 *465:42 11.075 
6 *465:42 *4625:A1 2.47 
7 *465:42 *4626:B 4.465 
*END

*D_NET *466 0.000447878
*CONN
*I *4546:B I *D sky130_fd_sc_hd__nor2_2
*I *4545:Y O *D sky130_fd_sc_hd__nor3_2
*CAP
1 *4546:B 0.000223939
2 *4545:Y 0.000223939
3 *4546:B *4621:A1 0
4 *4544:A1 *4546:B 0
*RES
1 *4545:Y *4546:B 9.72 
*END

*D_NET *467 0.00255176
*CONN
*I *4628:A I *D sky130_fd_sc_hd__and3_2
*I *4621:A1 I *D sky130_fd_sc_hd__a21o_2
*I *4558:A I *D sky130_fd_sc_hd__xnor2_2
*I *4587:A I *D sky130_fd_sc_hd__and3_2
*I *4546:Y O *D sky130_fd_sc_hd__nor2_2
*CAP
1 *4628:A 0.000152307
2 *4621:A1 0.000190368
3 *4558:A 0.000163545
4 *4587:A 0.000201656
5 *4546:Y 3.98074e-05
6 *467:10 0.000515822
7 *467:8 0.000340988
8 *467:6 0.000192114
9 *4558:A *4558:B 0.000201508
10 *4587:A *4557:B 0
11 *4587:A *4582:C 5.53249e-06
12 *4587:A *4583:A 0.000140912
13 *4587:A *502:14 4.82117e-05
14 *4621:A1 *4621:A2 4.99619e-05
15 *467:10 *4557:B 0
16 *467:10 *4621:A2 0
17 *467:10 *478:20 0
18 *4544:A1 *4621:A1 0
19 *4546:A *4628:A 0
20 *4546:B *4621:A1 0
21 *465:25 *4628:A 0.000278117
22 *465:25 *467:6 3.09088e-05
*RES
1 *4546:Y *467:6 2.395 
2 *467:6 *467:8 2 
3 *467:8 *467:10 2.4 
4 *467:10 *4587:A 7.785 
5 *467:10 *4558:A 6.48 
6 *467:8 *4621:A1 6.03 
7 *467:6 *4628:A 5.08 
*END

*D_NET *468 0.000502363
*CONN
*I *4548:B I *D sky130_fd_sc_hd__or2_2
*I *4547:Y O *D sky130_fd_sc_hd__nor2_2
*CAP
1 *4548:B 0.000166187
2 *4547:Y 0.000166187
3 *4548:B *982:139 0
4 *4543:A *4548:B 8.8266e-05
5 *4543:B *4548:B 2.96334e-05
6 *464:10 *4548:B 5.2089e-05
*RES
1 *4547:Y *4548:B 9.81 
*END

*D_NET *469 0.000699493
*CONN
*I *4557:A I *D sky130_fd_sc_hd__nor2_2
*I *4581:A I *D sky130_fd_sc_hd__xor2_2
*I *4548:X O *D sky130_fd_sc_hd__or2_2
*CAP
1 *4557:A 7.95201e-05
2 *4581:A 0.000143847
3 *4548:X 0.000112617
4 *469:8 0.000335985
5 *4581:A *4555:B 0
6 *4581:A *4557:B 0
7 *4581:A *4581:B 2.75229e-05
8 *469:8 *1034:29 0
*RES
1 *4548:X *469:8 5.49 
2 *469:8 *4581:A 5.94 
3 *469:8 *4557:A 4.74 
*END

*D_NET *470 0.000458135
*CONN
*I *4554:A I *D sky130_fd_sc_hd__xor2_2
*I *4556:A1 I *D sky130_fd_sc_hd__o21a_2
*I *4549:Y O *D sky130_fd_sc_hd__xnor2_2
*CAP
1 *4554:A 1.92246e-05
2 *4556:A1 9.79255e-06
3 *4549:Y 6.83893e-05
4 *470:10 9.74064e-05
5 *4554:A *4554:B 7.49327e-05
6 *4554:A *4581:B 4.80285e-05
7 *4556:A1 *4554:B 4.99619e-05
8 *4556:A1 *4581:B 2.75145e-05
9 *470:10 *4555:A_N 6.28843e-05
10 *470:10 *4556:B1 0
*RES
1 *4549:Y *470:10 6.98 
2 *470:10 *4556:A1 2.05 
3 *470:10 *4554:A 2.395 
*END

*D_NET *471 0.000406407
*CONN
*I *4551:B I *D sky130_fd_sc_hd__xnor2_2
*I *4553:A2 I *D sky130_fd_sc_hd__a21oi_2
*I *4550:X O *D sky130_fd_sc_hd__xor2_2
*CAP
1 *4551:B 2.946e-05
2 *4553:A2 9.97339e-05
3 *4550:X 3.37585e-05
4 *471:6 0.000162952
5 *4553:A2 *1020:24 2.97004e-06
6 *4553:A2 *1020:26 7.75325e-05
7 *4553:B1 *4553:A2 0
*RES
1 *4550:X *471:6 2.05 
2 *471:6 *4553:A2 7.745 
3 *471:6 *4551:B 2.05 
*END

*D_NET *472 0.000832963
*CONN
*I *4564:B I *D sky130_fd_sc_hd__xnor2_2
*I *4552:B I *D sky130_fd_sc_hd__or2_2
*I *4551:Y O *D sky130_fd_sc_hd__xnor2_2
*CAP
1 *4564:B 0
2 *4552:B 7.14409e-05
3 *4551:Y 0.000295037
4 *472:12 0.000366478
5 *4552:B *485:10 2.92538e-05
6 *4564:A *4552:B 7.07537e-05
*RES
1 *4551:Y *472:12 8.025 
2 *472:12 *4552:B 5.235 
3 *472:12 *4564:B 3.6 
*END

*D_NET *473 0.00158814
*CONN
*I *4554:B I *D sky130_fd_sc_hd__xor2_2
*I *4556:A2 I *D sky130_fd_sc_hd__o21a_2
*I *4552:X O *D sky130_fd_sc_hd__or2_2
*CAP
1 *4554:B 0.000122131
2 *4556:A2 0
3 *4552:X 0.000514761
4 *473:12 0.000636892
5 *4554:B *4581:B 3.09179e-05
6 *473:12 *4555:A_N 0
7 *473:12 *982:139 0
8 *4554:A *4554:B 7.49327e-05
9 *4556:A1 *4554:B 4.99619e-05
10 *222:22 *473:12 0
11 *223:66 *473:12 0.000158539
*RES
1 *4552:X *473:12 13.865 
2 *473:12 *4556:A2 1.6 
3 *473:12 *4554:B 2.4975 
*END

*D_NET *474 0.00285991
*CONN
*I *4559:A I *D sky130_fd_sc_hd__xnor2_2
*I *4555:A_N I *D sky130_fd_sc_hd__nand2b_2
*I *4553:Y O *D sky130_fd_sc_hd__a21oi_2
*CAP
1 *4559:A 0.000162007
2 *4555:A_N 0.000195281
3 *4553:Y 0.000908113
4 *474:10 0.0012654
5 *4555:A_N *4556:B1 0
6 *4555:A_N *982:139 0.000151343
7 *474:10 *485:10 8.4841e-05
8 *474:10 *982:42 3.00381e-05
9 *4539:A *4555:A_N 0
10 *222:22 *4555:A_N 0
11 *470:10 *4555:A_N 6.28843e-05
12 *473:12 *4555:A_N 0
*RES
1 *4553:Y *474:10 13.21 
2 *474:10 *4555:A_N 10.04 
3 *474:10 *4559:A 3.79 
*END

*D_NET *475 0.000853415
*CONN
*I *4555:B I *D sky130_fd_sc_hd__nand2b_2
*I *4559:B I *D sky130_fd_sc_hd__xnor2_2
*I *4554:X O *D sky130_fd_sc_hd__xor2_2
*CAP
1 *4555:B 0.000262999
2 *4559:B 0.000128896
3 *4554:X 2.56208e-05
4 *475:8 0.000417515
5 *4555:B *1034:29 0
6 *4559:B *1034:29 0
7 *475:8 *4581:B 1.83847e-05
8 *4581:A *4555:B 0
*RES
1 *4554:X *475:8 4.05 
2 *475:8 *4559:B 5.745 
3 *475:8 *4555:B 7.575 
*END

*D_NET *476 0.000651083
*CONN
*I *4556:B1 I *D sky130_fd_sc_hd__o21a_2
*I *4555:Y O *D sky130_fd_sc_hd__nand2b_2
*CAP
1 *4556:B1 0.000295899
2 *4555:Y 0.000295899
3 *4555:A_N *4556:B1 0
4 *222:22 *4556:B1 5.92849e-05
5 *470:10 *4556:B1 0
*RES
1 *4555:Y *4556:B1 11.7 
*END

*D_NET *477 0.00196029
*CONN
*I *4557:B I *D sky130_fd_sc_hd__nor2_2
*I *4581:B I *D sky130_fd_sc_hd__xor2_2
*I *4556:X O *D sky130_fd_sc_hd__o21a_2
*CAP
1 *4557:B 0.000122577
2 *4581:B 0.00090396
3 *4556:X 0.000781383
4 *4554:A *4581:B 4.80285e-05
5 *4554:B *4581:B 3.09179e-05
6 *4556:A1 *4581:B 2.75145e-05
7 *4581:A *4557:B 0
8 *4581:A *4581:B 2.75229e-05
9 *4587:A *4557:B 0
10 *467:10 *4557:B 0
11 *475:8 *4581:B 1.83847e-05
*RES
1 *4556:X *4581:B 10.5475 
2 *4581:B *4557:B 7.49 
*END

*D_NET *478 0.0018443
*CONN
*I *4621:A2 I *D sky130_fd_sc_hd__a21o_2
*I *4628:B I *D sky130_fd_sc_hd__and3_2
*I *4558:B I *D sky130_fd_sc_hd__xnor2_2
*I *4557:Y O *D sky130_fd_sc_hd__nor2_2
*CAP
1 *4621:A2 0.000294082
2 *4628:B 0
3 *4558:B 0.000344363
4 *4557:Y 0.000259219
5 *478:20 0.000379227
6 *4621:A2 *4622:B 0.000124007
7 *4621:A2 *4628:C 9.37731e-05
8 *4558:A *4558:B 0.000201508
9 *4621:A1 *4621:A2 4.99619e-05
10 *4621:B1 *4621:A2 4.60584e-05
11 *465:25 *4621:A2 5.20968e-05
12 *467:10 *4621:A2 0
13 *467:10 *478:20 0
*RES
1 *4557:Y *4558:B 7.79 
2 *4558:B *478:20 4.98 
3 *478:20 *4628:B 3.6 
4 *478:20 *4621:A2 9.21 
*END

*D_NET *479 0.00135416
*CONN
*I *4589:A1 I *D sky130_fd_sc_hd__o21a_2
*I *4588:A1_N I *D sky130_fd_sc_hd__o2bb2ai_2
*I *4654:A1 I *D sky130_fd_sc_hd__a21o_2
*I *4558:Y O *D sky130_fd_sc_hd__xnor2_2
*CAP
1 *4589:A1 5.66328e-05
2 *4588:A1_N 1.86282e-05
3 *4654:A1 0.000156929
4 *4558:Y 8.54742e-05
5 *479:10 0.000272496
6 *479:8 0.000239046
7 *4588:A1_N *505:27 0.0001249
8 *4588:A1_N *507:10 0.0001249
9 *4654:A1 *4586:A 0
10 *4654:A1 *4654:A2 9.14049e-05
11 *4654:A1 *505:12 3.09233e-05
12 *479:8 *504:12 0
13 *479:8 *510:12 0
14 *479:10 *4589:A2 0
15 *479:10 *4616:B 0
16 *479:10 *504:12 0
17 *479:10 *505:12 0.000152821
*RES
1 *4558:Y *479:8 4.98 
2 *479:8 *479:10 2.145 
3 *479:10 *4654:A1 6.03 
4 *479:10 *4588:A1_N 4.74 
5 *479:8 *4589:A1 4.395 
*END

*D_NET *480 0.0007478
*CONN
*I *4570:B I *D sky130_fd_sc_hd__and2b_2
*I *4571:A I *D sky130_fd_sc_hd__xnor2_2
*I *4559:Y O *D sky130_fd_sc_hd__xnor2_2
*CAP
1 *4570:B 0
2 *4571:A 0.000122867
3 *4559:Y 0.000216307
4 *480:10 0.000339174
5 *4571:A *4570:A_N 5.92849e-05
6 *480:10 *4570:A_N 1.01661e-05
*RES
1 *4559:Y *480:10 6.63 
2 *480:10 *4571:A 5.94 
3 *480:10 *4570:B 3.6 
*END

*D_NET *481 0.000677994
*CONN
*I *4566:B1 I *D sky130_fd_sc_hd__a21o_2
*I *4560:X O *D sky130_fd_sc_hd__and2_2
*CAP
1 *4566:B1 0.000200974
2 *4560:X 0.000200974
3 *4566:B1 *1185:DIODE 0
4 *4566:B1 *4562:B 0.000107315
5 *4566:B1 *4566:A2 7.45881e-05
6 *4566:B1 *1117:169 9.41425e-05
*RES
1 *4560:X *4566:B1 11.67 
*END

*D_NET *482 0.00115216
*CONN
*I *4566:A2 I *D sky130_fd_sc_hd__a21o_2
*I *4562:B I *D sky130_fd_sc_hd__xnor2_2
*I *4561:X O *D sky130_fd_sc_hd__xor2_2
*CAP
1 *4566:A2 5.62639e-05
2 *4562:B 0.000159614
3 *4561:X 8.1794e-05
4 *482:8 0.000297672
5 *4562:B *4560:A 0.000121829
6 *4562:B *1106:10 8.53113e-06
7 *4562:B *1117:169 0
8 *4566:A2 *1106:10 0.000176873
9 *482:8 *1041:83 4.92935e-05
10 *482:8 *1041:89 1.83847e-05
11 *4566:B1 *4562:B 0.000107315
12 *4566:B1 *4566:A2 7.45881e-05
*RES
1 *4561:X *482:8 5.085 
2 *482:8 *4562:B 7.23 
3 *482:8 *4566:A2 5.745 
*END

*D_NET *483 0.000753101
*CONN
*I *4563:B I *D sky130_fd_sc_hd__or2_2
*I *4573:B I *D sky130_fd_sc_hd__xnor2_2
*I *4562:Y O *D sky130_fd_sc_hd__xnor2_2
*CAP
1 *4563:B 8.89838e-05
2 *4573:B 0.0001967
3 *4562:Y 0.000285684
4 *4573:B *1020:26 0
5 *1187:DIODE *4573:B 7.5431e-05
6 *4563:A *4563:B 4.99619e-05
7 *224:96 *4573:B 1.43521e-05
8 *224:105 *4573:B 4.19884e-05
*RES
1 *4562:Y *4573:B 11.385 
2 *4562:Y *4563:B 4.685 
*END

*D_NET *484 0.000603585
*CONN
*I *4565:A I *D sky130_fd_sc_hd__nor2_2
*I *4567:A I *D sky130_fd_sc_hd__nand2_2
*I *4563:X O *D sky130_fd_sc_hd__or2_2
*CAP
1 *4565:A 7.43586e-05
2 *4567:A 9.69833e-05
3 *4563:X 0.000103032
4 *484:6 0.000274374
5 *4567:A *4565:B 5.48378e-05
*RES
1 *4563:X *484:6 3.085 
2 *484:6 *4567:A 7.49 
3 *484:6 *4565:A 2.74 
*END

*D_NET *485 0.00114779
*CONN
*I *4567:B I *D sky130_fd_sc_hd__nand2_2
*I *4565:B I *D sky130_fd_sc_hd__nor2_2
*I *4564:Y O *D sky130_fd_sc_hd__xnor2_2
*CAP
1 *4567:B 0
2 *4565:B 0.000161703
3 *4564:Y 0.000281997
4 *485:10 0.0004437
5 *4565:B *487:14 3.60024e-06
6 *485:10 *487:14 8.78618e-05
7 *4552:B *485:10 2.92538e-05
8 *4567:A *4565:B 5.48378e-05
9 *474:10 *485:10 8.4841e-05
*RES
1 *4564:Y *485:10 8.07 
2 *485:10 *4565:B 6.495 
3 *485:10 *4567:B 3.6 
*END

*D_NET *486 0.000658336
*CONN
*I *4568:A_N I *D sky130_fd_sc_hd__and2b_2
*I *4569:B1 I *D sky130_fd_sc_hd__a21oi_2
*I *4565:Y O *D sky130_fd_sc_hd__nor2_2
*CAP
1 *4568:A_N 1.17375e-05
2 *4569:B1 0
3 *4565:Y 0.000191777
4 *486:12 0.000203514
5 *4568:A_N *4568:B 4.82919e-05
6 *4568:A_N *4571:B 2.75229e-05
7 *486:12 *4572:A 0.000114492
8 *222:22 *486:12 6.10014e-05
*RES
1 *4565:Y *486:12 8.465 
2 *486:12 *4569:B1 1.6 
3 *486:12 *4568:A_N 2.05 
*END

*D_NET *487 0.00379533
*CONN
*I *4572:A I *D sky130_fd_sc_hd__xor2_2
*I *4569:A1 I *D sky130_fd_sc_hd__a21oi_2
*I *4566:X O *D sky130_fd_sc_hd__a21o_2
*CAP
1 *4572:A 0.000320406
2 *4569:A1 0
3 *4566:X 0.000999508
4 *487:14 0.00131991
5 *4572:A *4568:B 0.000119866
6 *4572:A *4571:B 5.83121e-06
7 *487:14 *1117:169 5.35969e-06
8 *4564:A *487:14 8.75483e-05
9 *4565:B *487:14 3.60024e-06
10 *222:22 *4572:A 0.000102985
11 *222:22 *487:14 0
12 *223:66 *4572:A 0.000351364
13 *223:66 *487:14 0.000276601
14 *485:10 *487:14 8.78618e-05
15 *486:12 *4572:A 0.000114492
*RES
1 *4566:X *487:14 18.635 
2 *487:14 *4569:A1 1.6 
3 *487:14 *4572:A 13.1 
*END

*D_NET *488 0.000821768
*CONN
*I *4568:B I *D sky130_fd_sc_hd__and2b_2
*I *4569:A2 I *D sky130_fd_sc_hd__a21oi_2
*I *4567:Y O *D sky130_fd_sc_hd__nand2_2
*CAP
1 *4568:B 0.000218742
2 *4569:A2 0
3 *4567:Y 8.17075e-05
4 *488:8 0.00030045
5 *4568:B *4571:B 5.2711e-05
6 *4568:A_N *4568:B 4.82919e-05
7 *4572:A *4568:B 0.000119866
*RES
1 *4567:Y *488:8 2.755 
2 *488:8 *4569:A2 1.6 
3 *488:8 *4568:B 5.515 
*END

*D_NET *489 0.000455225
*CONN
*I *4572:B I *D sky130_fd_sc_hd__xor2_2
*I *4568:X O *D sky130_fd_sc_hd__and2b_2
*CAP
1 *4572:B 0.000227612
2 *4568:X 0.000227612
3 *4572:B *982:139 0
4 *222:22 *4572:B 0
*RES
1 *4568:X *4572:B 9.275 
*END

*D_NET *490 0.001619
*CONN
*I *4570:A_N I *D sky130_fd_sc_hd__and2b_2
*I *4571:B I *D sky130_fd_sc_hd__xnor2_2
*I *4569:Y O *D sky130_fd_sc_hd__a21oi_2
*CAP
1 *4570:A_N 8.34489e-05
2 *4571:B 0.00073174
3 *4569:Y 0.000648291
4 *4570:A_N *1034:29 0
5 *4568:A_N *4571:B 2.75229e-05
6 *4568:B *4571:B 5.2711e-05
7 *4571:A *4570:A_N 5.92849e-05
8 *4572:A *4571:B 5.83121e-06
9 *480:10 *4570:A_N 1.01661e-05
*RES
1 *4569:Y *4571:B 12.17 
2 *4571:B *4570:A_N 9.09 
*END

*D_NET *491 0.00179203
*CONN
*I *4587:B I *D sky130_fd_sc_hd__and3_2
*I *4583:A I *D sky130_fd_sc_hd__nand2_2
*I *4582:A I *D sky130_fd_sc_hd__or3_2
*I *4570:X O *D sky130_fd_sc_hd__and2b_2
*CAP
1 *4587:B 0
2 *4583:A 8.74557e-05
3 *4582:A 0
4 *4570:X 0.000342623
5 *491:23 0.000247092
6 *491:8 0.000502259
7 *4583:A *4584:A 0
8 *4583:A *502:14 0.000116853
9 *491:8 *4582:C 1.61831e-05
10 *491:23 *4582:B 7.00889e-06
11 *491:23 *4582:C 0.000125536
12 *491:23 *4584:A 0.000105955
13 *491:23 *502:14 0.000100156
14 *4587:A *4583:A 0.000140912
*RES
1 *4570:X *491:8 6.55 
2 *491:8 *4582:A 1.6 
3 *491:8 *491:23 7.81 
4 *491:23 *4583:A 7.685 
5 *491:23 *4587:B 1.6 
*END

*D_NET *492 0.000284782
*CONN
*I *4580:A I *D sky130_fd_sc_hd__and2_2
*I *4590:A I *D sky130_fd_sc_hd__nor2_2
*I *4571:Y O *D sky130_fd_sc_hd__xnor2_2
*CAP
1 *4580:A 9.78325e-06
2 *4590:A 0
3 *4571:Y 9.10989e-05
4 *492:10 0.000100882
5 *4580:A *4580:B 4.99619e-05
6 *4580:A *511:6 2.75229e-05
7 *492:10 *500:27 5.53249e-06
*RES
1 *4571:Y *492:10 6.98 
2 *492:10 *4590:A 1.6 
3 *492:10 *4580:A 2.05 
*END

*D_NET *493 0.000530257
*CONN
*I *4579:B I *D sky130_fd_sc_hd__and2b_2
*I *4593:A_N I *D sky130_fd_sc_hd__and2b_2
*I *4572:X O *D sky130_fd_sc_hd__xor2_2
*CAP
1 *4579:B 0.000163715
2 *4593:A_N 0
3 *4572:X 3.472e-05
4 *493:6 0.000198435
5 *4579:B *4593:B 9.50525e-05
6 *4579:B *4598:B 0
7 *4579:B *499:10 3.46842e-05
8 *4579:B *500:12 0
9 *4579:B *515:10 0
10 *493:6 *4593:B 3.64998e-06
*RES
1 *4572:X *493:6 2.05 
2 *493:6 *4593:A_N 1.6 
3 *493:6 *4579:B 8.885 
*END

*D_NET *494 0.00134984
*CONN
*I *4576:B I *D sky130_fd_sc_hd__nand2_2
*I *4574:B I *D sky130_fd_sc_hd__nor2_2
*I *4573:Y O *D sky130_fd_sc_hd__xnor2_2
*CAP
1 *4576:B 0.000279808
2 *4574:B 7.03197e-05
3 *4573:Y 3.25007e-05
4 *494:6 0.000382628
5 *4576:B *4578:B1 0.000163019
6 *4576:B *495:10 6.45236e-05
7 *4576:B *496:8 0.00011138
8 *494:6 *496:8 4.89295e-05
9 *4574:A *4574:B 6.06382e-05
10 *4574:A *4576:B 4.91325e-05
11 *411:16 *4576:B 8.696e-05
*RES
1 *4573:Y *494:6 2.05 
2 *494:6 *4574:B 6.98 
3 *494:6 *4576:B 11.24 
*END

*D_NET *495 0.00101007
*CONN
*I *4577:A_N I *D sky130_fd_sc_hd__and2b_2
*I *4578:B1 I *D sky130_fd_sc_hd__a21oi_2
*I *4574:Y O *D sky130_fd_sc_hd__nor2_2
*CAP
1 *4577:A_N 6.3278e-05
2 *4578:B1 4.40939e-05
3 *4574:Y 0.000153529
4 *495:10 0.000260901
5 *4577:A_N *496:8 6.80075e-05
6 *4578:B1 *4577:B 0.000143266
7 *4578:B1 *4578:A1 0
8 *495:10 *4578:A1 0
9 *1189:DIODE *495:10 4.94474e-05
10 *4576:B *4578:B1 0.000163019
11 *4576:B *495:10 6.45236e-05
12 *223:66 *495:10 0
*RES
1 *4574:Y *495:10 6.285 
2 *495:10 *4578:B1 5.49 
3 *495:10 *4577:A_N 4.74 
*END

*D_NET *496 0.00209059
*CONN
*I *4595:A I *D sky130_fd_sc_hd__xor2_2
*I *4578:A1 I *D sky130_fd_sc_hd__a21oi_2
*I *4575:X O *D sky130_fd_sc_hd__a21o_2
*CAP
1 *4595:A 0
2 *4578:A1 0.00010394
3 *4575:X 0.000669518
4 *496:8 0.000773458
5 *4578:A1 *4577:B 5.97443e-05
6 *4578:A1 *4595:B 2.68526e-05
7 *496:8 *4575:A1 8.57024e-05
8 *496:8 *4595:B 3.39144e-05
9 *4576:B *496:8 0.00011138
10 *4577:A_N *496:8 6.80075e-05
11 *4578:B1 *4578:A1 0
12 *223:66 *4578:A1 0.00010914
13 *494:6 *496:8 4.89295e-05
14 *495:10 *4578:A1 0
*RES
1 *4575:X *496:8 12.07 
2 *496:8 *4578:A1 8.45 
3 *496:8 *4595:A 1.6 
*END

*D_NET *497 0.000979395
*CONN
*I *4578:A2 I *D sky130_fd_sc_hd__a21oi_2
*I *4577:B I *D sky130_fd_sc_hd__and2b_2
*I *4576:Y O *D sky130_fd_sc_hd__nand2_2
*CAP
1 *4578:A2 0.000126452
2 *4577:B 6.73079e-05
3 *4576:Y 0.000118072
4 *497:12 0.000311832
5 *4578:A2 *499:10 8.49101e-05
6 *4574:A *497:12 9.13949e-06
7 *4578:A1 *4577:B 5.97443e-05
8 *4578:B1 *4577:B 0.000143266
9 *411:16 *4577:B 1.31519e-05
10 *411:16 *497:12 4.55202e-05
*RES
1 *4576:Y *497:12 3.565 
2 *497:12 *4577:B 7.85 
3 *497:12 *4578:A2 3.79 
*END

*D_NET *498 0.000318878
*CONN
*I *4595:B I *D sky130_fd_sc_hd__xor2_2
*I *4577:X O *D sky130_fd_sc_hd__and2b_2
*CAP
1 *4595:B 0.000129055
2 *4577:X 0.000129055
3 *4578:A1 *4595:B 2.68526e-05
4 *496:8 *4595:B 3.39144e-05
*RES
1 *4577:X *4595:B 3.6475 
*END

*D_NET *499 0.00263316
*CONN
*I *4593:B I *D sky130_fd_sc_hd__and2b_2
*I *4579:A_N I *D sky130_fd_sc_hd__and2b_2
*I *4578:Y O *D sky130_fd_sc_hd__a21oi_2
*CAP
1 *4593:B 0.000143246
2 *4579:A_N 0
3 *4578:Y 0.000698553
4 *499:10 0.0008418
5 *4593:B *1034:29 0.000102184
6 *499:10 *4597:C 1.83756e-05
7 *499:10 *4598:B 0
8 *499:10 *517:8 9.54023e-06
9 *499:10 *518:8 4.82863e-05
10 *499:10 *1034:29 0.000156937
11 *4578:A2 *499:10 8.49101e-05
12 *4579:B *4593:B 9.50525e-05
13 *4579:B *499:10 3.46842e-05
14 *4596:A2 *499:10 2.16833e-05
15 *4597:A *499:10 9.80943e-06
16 *4597:B *499:10 0.000316421
17 *413:18 *499:10 4.80285e-05
18 *493:6 *4593:B 3.64998e-06
*RES
1 *4578:Y *499:10 14.115 
2 *499:10 *4579:A_N 3.6 
3 *499:10 *4593:B 6.885 
*END

*D_NET *500 0.00146525
*CONN
*I *4590:B I *D sky130_fd_sc_hd__nor2_2
*I *4580:B I *D sky130_fd_sc_hd__and2_2
*I *4594:A I *D sky130_fd_sc_hd__or2_2
*I *4579:X O *D sky130_fd_sc_hd__and2b_2
*CAP
1 *4590:B 0
2 *4580:B 0.000123583
3 *4594:A 0
4 *4579:X 0.000201225
5 *500:27 0.00042033
6 *500:12 0.000497972
7 *4580:B *511:6 4.85494e-05
8 *500:12 *4598:B 2.75229e-05
9 *500:12 *515:10 3.68682e-05
10 *500:27 *4594:B 5.4155e-06
11 *500:27 *515:10 4.82863e-05
12 *4579:B *500:12 0
13 *4580:A *4580:B 4.99619e-05
14 *492:10 *500:27 5.53249e-06
*RES
1 *4579:X *500:12 8.21 
2 *500:12 *4594:A 1.6 
3 *500:12 *500:27 8.59 
4 *500:27 *4580:B 4.15 
5 *500:27 *4590:B 1.6 
*END

*D_NET *501 0.00209495
*CONN
*I *4584:A I *D sky130_fd_sc_hd__nand2_2
*I *4582:B I *D sky130_fd_sc_hd__or3_2
*I *4591:A I *D sky130_fd_sc_hd__nor2_2
*I *4592:A I *D sky130_fd_sc_hd__or2_2
*I *4580:X O *D sky130_fd_sc_hd__and2_2
*CAP
1 *4584:A 0.000261685
2 *4582:B 9.44983e-05
3 *4591:A 8.05544e-05
4 *4592:A 0
5 *4580:X 0.000145135
6 *501:34 0.000447527
7 *501:21 0.000317556
8 *501:8 0.000290792
9 *4582:B *4586:A 4.82863e-05
10 *4584:A *4586:A 0
11 *4584:A *502:14 0
12 *4584:A *504:12 0
13 *501:8 *4591:B 2.30292e-05
14 *501:8 *4592:B 5.4155e-06
15 *501:8 *511:6 0.000145184
16 *501:21 *4591:B 2.68721e-05
17 *501:21 *512:8 9.54469e-05
18 *4583:A *4584:A 0
19 *491:23 *4582:B 7.00889e-06
20 *491:23 *4584:A 0.000105955
*RES
1 *4580:X *501:8 4.825 
2 *501:8 *4592:A 1.6 
3 *501:8 *501:21 4.79 
4 *501:21 *4591:A 4.755 
5 *501:21 *501:34 1.38 
6 *501:34 *4582:B 4.74 
7 *501:34 *4584:A 8.55 
*END

*D_NET *502 0.00118686
*CONN
*I *4583:B I *D sky130_fd_sc_hd__nand2_2
*I *4584:B I *D sky130_fd_sc_hd__nand2_2
*I *4587:C I *D sky130_fd_sc_hd__and3_2
*I *4582:C I *D sky130_fd_sc_hd__or3_2
*I *4581:X O *D sky130_fd_sc_hd__xor2_2
*CAP
1 *4583:B 0
2 *4584:B 3.01869e-05
3 *4587:C 0
4 *4582:C 0.000107332
5 *4581:X 2.65106e-05
6 *502:14 0.000183304
7 *502:10 0.000236674
8 *502:6 0.000157026
9 *4584:B *504:12 2.75229e-05
10 *502:10 *504:12 5.83121e-06
11 *4583:A *502:14 0.000116853
12 *4584:A *502:14 0
13 *4587:A *4582:C 5.53249e-06
14 *4587:A *502:14 4.82117e-05
15 *491:8 *4582:C 1.61831e-05
16 *491:23 *4582:C 0.000125536
17 *491:23 *502:14 0.000100156
*RES
1 *4581:X *502:6 2.05 
2 *502:6 *502:10 1.845 
3 *502:10 *502:14 4.4 
4 *502:14 *4582:C 5.79 
5 *502:14 *4587:C 3.6 
6 *502:10 *4584:B 2.41 
7 *502:6 *4583:B 1.6 
*END

*D_NET *503 0.000609766
*CONN
*I *4586:A I *D sky130_fd_sc_hd__nand3_2
*I *4582:X O *D sky130_fd_sc_hd__or3_2
*CAP
1 *4586:A 0.000277973
2 *4582:X 0.000277973
3 *4586:A *4654:A2 0
4 *4586:A *4654:B1 0
5 *4586:A *504:12 5.53249e-06
6 *4582:B *4586:A 4.82863e-05
7 *4584:A *4586:A 0
8 *4654:A1 *4586:A 0
*RES
1 *4582:X *4586:A 11.43 
*END

*D_NET *504 0.00203996
*CONN
*I *4586:B I *D sky130_fd_sc_hd__nand3_2
*I *4588:A2_N I *D sky130_fd_sc_hd__o2bb2ai_2
*I *4654:A2 I *D sky130_fd_sc_hd__a21o_2
*I *4583:Y O *D sky130_fd_sc_hd__nand2_2
*CAP
1 *4586:B 0
2 *4588:A2_N 5.03232e-05
3 *4654:A2 5.82671e-05
4 *4583:Y 0.000352295
5 *504:16 0.000180483
6 *504:12 0.000424187
7 *4588:A2_N *4588:B2 4.66108e-05
8 *4588:A2_N *505:27 0.00015494
9 *4588:A2_N *508:6 0.000112349
10 *4654:A2 *4654:B1 3.39064e-05
11 *504:12 *505:12 0.000197164
12 *504:16 *505:27 8.40213e-05
13 *504:16 *507:10 1.61831e-05
14 *504:16 *508:6 0.000198934
15 *4584:A *504:12 0
16 *4584:B *504:12 2.75229e-05
17 *4586:A *4654:A2 0
18 *4586:A *504:12 5.53249e-06
19 *4654:A1 *4654:A2 9.14049e-05
20 *479:8 *504:12 0
21 *479:10 *504:12 0
22 *502:10 *504:12 5.83121e-06
*RES
1 *4583:Y *504:12 11.81 
2 *504:12 *504:16 2.19 
3 *504:16 *4654:A2 6.98 
4 *504:16 *4588:A2_N 3.445 
5 *504:12 *4586:B 1.6 
*END

*D_NET *505 0.0035401
*CONN
*I *4658:A I *D sky130_fd_sc_hd__nand3_2
*I *4659:A1 I *D sky130_fd_sc_hd__a21o_2
*I *4656:A1 I *D sky130_fd_sc_hd__a21bo_2
*I *4585:A I *D sky130_fd_sc_hd__inv_2
*I *4586:C I *D sky130_fd_sc_hd__nand3_2
*I *4584:Y O *D sky130_fd_sc_hd__nand2_2
*CAP
1 *4658:A 0
2 *4659:A1 0.000191979
3 *4656:A1 0
4 *4585:A 0
5 *4586:C 0
6 *4584:Y 0.000227808
7 *505:47 0.000329
8 *505:38 0.000238266
9 *505:27 0.000370846
10 *505:12 0.000497408
11 *4659:A1 *4658:C 0
12 *4659:A1 *4659:B1 5.83121e-06
13 *4659:A1 *576:21 7.35729e-05
14 *4659:A1 *577:8 9.47454e-05
15 *505:27 *4588:B1 4.82863e-05
16 *505:27 *4588:B2 0.000117187
17 *505:27 *507:10 8.34664e-05
18 *505:38 *4588:B1 4.82919e-05
19 *505:38 *4656:A2 4.99619e-05
20 *505:38 *4657:A 7.49327e-05
21 *505:38 *575:14 0.000161386
22 *505:47 *4656:A2 3.66286e-05
23 *505:47 *4656:B1_N 5.57938e-05
24 *505:47 *4658:B 4.00541e-06
25 *505:47 *575:14 6.04909e-05
26 *505:47 *575:20 2.54431e-05
27 *4588:A1_N *505:27 0.0001249
28 *4588:A2_N *505:27 0.00015494
29 *4654:A1 *505:12 3.09233e-05
30 *479:10 *505:12 0.000152821
31 *504:12 *505:12 0.000197164
32 *504:16 *505:27 8.40213e-05
*RES
1 *4584:Y *505:12 10.61 
2 *505:12 *4586:C 1.6 
3 *505:12 *505:27 6.555 
4 *505:27 *4585:A 1.6 
5 *505:27 *505:38 2.985 
6 *505:38 *4656:A1 1.6 
7 *505:38 *505:47 2.88 
8 *505:47 *4659:A1 8.465 
9 *505:47 *4658:A 1.6 
*END

*D_NET *506 0.000625103
*CONN
*I *4657:A I *D sky130_fd_sc_hd__or3b_2
*I *4588:B1 I *D sky130_fd_sc_hd__o2bb2ai_2
*I *4585:Y O *D sky130_fd_sc_hd__inv_2
*CAP
1 *4657:A 0.000139622
2 *4588:B1 4.0042e-05
3 *4585:Y 0
4 *506:4 0.000179664
5 *4657:A *4656:A2 0
6 *4657:A *531:40 1.52945e-05
7 *4657:A *575:14 7.89689e-05
8 *4657:A *576:10 0
9 *505:27 *4588:B1 4.82863e-05
10 *505:38 *4588:B1 4.82919e-05
11 *505:38 *4657:A 7.49327e-05
*RES
1 *4585:Y *506:4 1.6 
2 *506:4 *4588:B1 2.395 
3 *506:4 *4657:A 8.54 
*END

*D_NET *507 0.00229071
*CONN
*I *4589:A2 I *D sky130_fd_sc_hd__o21a_2
*I *4655:B1 I *D sky130_fd_sc_hd__a21o_2
*I *4663:A I *D sky130_fd_sc_hd__nand3_2
*I *4586:Y O *D sky130_fd_sc_hd__nand3_2
*CAP
1 *4589:A2 0.00015158
2 *4655:B1 1.96054e-05
3 *4663:A 6.63462e-05
4 *4586:Y 0.00016167
5 *507:16 0.000428212
6 *507:10 0.00065551
7 *4589:A2 *4589:B1 5.83121e-06
8 *4589:A2 *4616:B 3.47837e-05
9 *4655:B1 *4655:A1 3.74161e-05
10 *4663:A *4616:B 1.70935e-05
11 *4663:A *531:10 5.53249e-06
12 *4663:A *531:21 7.07879e-05
13 *4663:A *536:10 1.70935e-05
14 *4663:A *536:23 6.55406e-05
15 *507:16 *4616:B 0.000162361
16 *507:16 *4654:B1 0.000118513
17 *507:16 *4655:A1 4.82863e-05
18 *4588:A1_N *507:10 0.0001249
19 *479:10 *4589:A2 0
20 *504:16 *507:10 1.61831e-05
21 *505:27 *507:10 8.34664e-05
*RES
1 *4586:Y *507:10 6.48 
2 *507:10 *507:16 8.525 
3 *507:16 *4663:A 7.49 
4 *507:16 *4655:B1 2.05 
5 *507:10 *4589:A2 5.88 
*END

*D_NET *508 0.00215831
*CONN
*I *4588:B2 I *D sky130_fd_sc_hd__o2bb2ai_2
*I *4654:B1 I *D sky130_fd_sc_hd__a21o_2
*I *4587:X O *D sky130_fd_sc_hd__and3_2
*CAP
1 *4588:B2 0.000248598
2 *4654:B1 4.68535e-05
3 *4587:X 0.000469954
4 *508:6 0.000765405
5 *4586:A *4654:B1 0
6 *4588:A2_N *4588:B2 4.66108e-05
7 *4588:A2_N *508:6 0.000112349
8 *4654:A2 *4654:B1 3.39064e-05
9 *504:16 *508:6 0.000198934
10 *505:27 *4588:B2 0.000117187
11 *507:16 *4654:B1 0.000118513
*RES
1 *4587:X *508:6 7.225 
2 *508:6 *4654:B1 6.98 
3 *508:6 *4588:B2 5.08 
*END

*D_NET *509 0.00074019
*CONN
*I *4616:A I *D sky130_fd_sc_hd__and2_2
*I *4589:B1 I *D sky130_fd_sc_hd__o21a_2
*I *4588:Y O *D sky130_fd_sc_hd__o2bb2ai_2
*CAP
1 *4616:A 4.60278e-05
2 *4589:B1 9.65026e-05
3 *4588:Y 6.80937e-05
4 *509:10 0.000210624
5 *4589:B1 *4616:B 4.66108e-05
6 *4616:A *4616:B 0.0001249
7 *509:10 *4616:B 0.000141599
8 *509:10 *531:40 0
9 *4589:A2 *4589:B1 5.83121e-06
*RES
1 *4588:Y *509:10 7.235 
2 *509:10 *4589:B1 3.085 
3 *509:10 *4616:A 2.74 
*END

*D_NET *510 0.00163958
*CONN
*I *4617:B1 I *D sky130_fd_sc_hd__a21o_2
*I *4624:C1 I *D sky130_fd_sc_hd__a2111o_2
*I *4623:C1 I *D sky130_fd_sc_hd__a211o_2
*I *4589:X O *D sky130_fd_sc_hd__o21a_2
*CAP
1 *4617:B1 7.08675e-06
2 *4624:C1 9.99968e-05
3 *4623:C1 0
4 *4589:X 0.000287009
5 *510:16 0.000203282
6 *510:12 0.000397381
7 *4617:B1 *4617:A1 3.83041e-05
8 *4617:B1 *531:40 4.82919e-05
9 *4624:C1 *4624:A2 0
10 *4624:C1 *4649:B 9.50342e-06
11 *4624:C1 *543:19 0.000127366
12 *510:12 *4617:A1 4.99619e-05
13 *510:12 *4617:A2 8.49205e-05
14 *510:12 *531:40 8.49205e-05
15 *510:12 *537:10 0
16 *510:12 *537:21 0
17 *510:16 *4617:A1 1.52184e-05
18 *510:16 *4624:A2 0
19 *510:16 *4649:B 0.000163992
20 *510:16 *531:40 1.52184e-05
21 *510:16 *531:53 7.1301e-06
22 *510:16 *537:21 0
23 *479:8 *510:12 0
*RES
1 *4589:X *510:12 10.535 
2 *510:12 *510:16 4.4 
3 *510:16 *4623:C1 3.6 
4 *510:16 *4624:C1 5.49 
5 *510:12 *4617:B1 2.05 
*END

*D_NET *511 0.00122651
*CONN
*I *4591:B I *D sky130_fd_sc_hd__nor2_2
*I *4592:B I *D sky130_fd_sc_hd__or2_2
*I *4590:Y O *D sky130_fd_sc_hd__nor2_2
*CAP
1 *4591:B 0.000100097
2 *4592:B 1.88809e-05
3 *4590:Y 0.000319811
4 *511:6 0.000438789
5 *4591:B *512:8 7.23602e-05
6 *4580:A *511:6 2.75229e-05
7 *4580:B *511:6 4.85494e-05
8 *501:8 *4591:B 2.30292e-05
9 *501:8 *4592:B 5.4155e-06
10 *501:8 *511:6 0.000145184
11 *501:21 *4591:B 2.68721e-05
*RES
1 *4590:Y *511:6 5.845 
2 *511:6 *4592:B 1.96 
3 *511:6 *4591:B 7.43 
*END

*D_NET *512 0.00138363
*CONN
*I *4612:A I *D sky130_fd_sc_hd__nor2_2
*I *4613:A I *D sky130_fd_sc_hd__nand2_2
*I *4591:Y O *D sky130_fd_sc_hd__nor2_2
*CAP
1 *4612:A 3.76639e-05
2 *4613:A 0.000184557
3 *4591:Y 0.000177922
4 *512:8 0.000400143
5 *4613:A *4610:B1 0.00013994
6 *4613:A *4612:B 4.82863e-05
7 *4613:A *532:8 8.57024e-05
8 *512:8 *4610:B1 0.000141606
9 *4591:B *512:8 7.23602e-05
10 *501:21 *512:8 9.54469e-05
*RES
1 *4591:Y *512:8 7.275 
2 *512:8 *4613:A 7.08 
3 *512:8 *4612:A 4.05 
*END

*D_NET *513 0.00109126
*CONN
*I *4610:B1 I *D sky130_fd_sc_hd__a211o_2
*I *4592:X O *D sky130_fd_sc_hd__or2_2
*CAP
1 *4610:B1 0.000305506
2 *4592:X 0.000305506
3 *4610:B1 *4610:A1 1.85674e-05
4 *4610:B1 *4612:B 8.78813e-05
5 *4610:B1 *521:12 5.96893e-05
6 *4610:B1 *521:20 3.25635e-05
7 *4610:B1 *534:12 0
8 *4613:A *4610:B1 0.00013994
9 *512:8 *4610:B1 0.000141606
*RES
1 *4592:X *4610:B1 13.815 
*END

*D_NET *514 0.000187664
*CONN
*I *4594:B I *D sky130_fd_sc_hd__or2_2
*I *4593:X O *D sky130_fd_sc_hd__and2b_2
*CAP
1 *4594:B 9.11243e-05
2 *4593:X 9.11243e-05
3 *500:27 *4594:B 5.4155e-06
*RES
1 *4593:X *4594:B 4.355 
*END

*D_NET *515 0.00132866
*CONN
*I *4611:A_N I *D sky130_fd_sc_hd__and2b_2
*I *4600:A I *D sky130_fd_sc_hd__xnor2_2
*I *4614:B I *D sky130_fd_sc_hd__or3_2
*I *4594:X O *D sky130_fd_sc_hd__or2_2
*CAP
1 *4611:A_N 2.11983e-05
2 *4600:A 0
3 *4614:B 0.000147306
4 *4594:X 0.00011997
5 *515:12 0.000223435
6 *515:10 0.000217297
7 *4611:A_N *4611:B 4.82919e-05
8 *4614:B *4599:B1_N 8.97564e-05
9 *4614:B *519:10 8.87475e-05
10 *4614:B *519:12 4.13249e-05
11 *515:10 *4598:A 1.34361e-05
12 *515:12 *4598:A 1.71013e-05
13 *515:12 *4599:B1_N 3.84331e-05
14 *515:12 *517:21 5.02217e-05
15 *515:12 *519:10 7.89611e-05
16 *4497:A *4614:B 0
17 *4579:B *515:10 0
18 *4614:A *4614:B 4.80285e-05
19 *500:12 *515:10 3.68682e-05
20 *500:27 *515:10 4.82863e-05
*RES
1 *4594:X *515:10 5.94 
2 *515:10 *515:12 2.145 
3 *515:12 *4614:B 7.05 
4 *515:12 *4600:A 3.6 
5 *515:10 *4611:A_N 4.05 
*END

*D_NET *516 0.000859697
*CONN
*I *4597:C I *D sky130_fd_sc_hd__nor3_2
*I *4596:B1 I *D sky130_fd_sc_hd__o21a_2
*I *4595:X O *D sky130_fd_sc_hd__xor2_2
*CAP
1 *4597:C 0.000179517
2 *4596:B1 0.000104465
3 *4595:X 0.000283983
4 *4596:B1 *982:139 0
5 *4597:C *517:8 2.49909e-05
6 *4597:C *982:139 0.000160658
7 *222:22 *4596:B1 8.77073e-05
8 *499:10 *4597:C 1.83756e-05
*RES
1 *4595:X *4596:B1 9.6 
2 *4595:X *4597:C 11.37 
*END

*D_NET *517 0.00255088
*CONN
*I *4598:A I *D sky130_fd_sc_hd__or2_2
*I *4611:B I *D sky130_fd_sc_hd__and2b_2
*I *4599:B1_N I *D sky130_fd_sc_hd__o21ba_2
*I *4596:X O *D sky130_fd_sc_hd__o21a_2
*CAP
1 *4598:A 1.54454e-05
2 *4611:B 0.000117904
3 *4599:B1_N 9.15615e-05
4 *4596:X 0.000577666
5 *517:21 0.000172373
6 *517:8 0.000708251
7 *4598:A *4598:B 1.82476e-05
8 *4599:B1_N *4598:B 2.84137e-05
9 *4599:B1_N *4599:A2 2.03321e-05
10 *4599:B1_N *4600:B 7.1364e-05
11 *4611:B *519:10 0.000122331
12 *517:8 *518:8 0.000103109
13 *517:21 *4598:B 3.38982e-05
14 *4597:A *517:8 8.8266e-05
15 *4597:B *517:8 3.99879e-05
16 *4597:C *517:8 2.49909e-05
17 *4611:A_N *4611:B 4.82919e-05
18 *4614:A *4599:B1_N 4.99619e-05
19 *4614:B *4599:B1_N 8.97564e-05
20 *499:10 *517:8 9.54023e-06
21 *515:10 *4598:A 1.34361e-05
22 *515:12 *4598:A 1.71013e-05
23 *515:12 *4599:B1_N 3.84331e-05
24 *515:12 *517:21 5.02217e-05
*RES
1 *4596:X *517:8 10.605 
2 *517:8 *4599:B1_N 6.705 
3 *517:8 *517:21 1.125 
4 *517:21 *4611:B 5.775 
5 *517:21 *4598:A 4.215 
*END

*D_NET *518 0.00114224
*CONN
*I *4598:B I *D sky130_fd_sc_hd__or2_2
*I *4599:A2 I *D sky130_fd_sc_hd__o21ba_2
*I *4597:Y O *D sky130_fd_sc_hd__nor3_2
*CAP
1 *4598:B 0.0001419
2 *4599:A2 7.23831e-05
3 *4597:Y 0.000153748
4 *518:8 0.000368032
5 *4598:B *4600:B 3.09233e-05
6 *4599:A2 *4600:B 9.54399e-05
7 *4599:A2 *1034:29 0
8 *4497:A *4599:A2 0
9 *4579:B *4598:B 0
10 *4598:A *4598:B 1.82476e-05
11 *4599:B1_N *4598:B 2.84137e-05
12 *4599:B1_N *4599:A2 2.03321e-05
13 *499:10 *4598:B 0
14 *499:10 *518:8 4.82863e-05
15 *500:12 *4598:B 2.75229e-05
16 *517:8 *518:8 0.000103109
17 *517:21 *4598:B 3.38982e-05
*RES
1 *4597:Y *518:8 6.465 
2 *518:8 *4599:A2 5.235 
3 *518:8 *4598:B 6.705 
*END

*D_NET *519 0.00270015
*CONN
*I *4614:C I *D sky130_fd_sc_hd__or3_2
*I *4604:A I *D sky130_fd_sc_hd__xnor2_2
*I *4603:A I *D sky130_fd_sc_hd__xor2_2
*I *4602:B I *D sky130_fd_sc_hd__nor2_2
*I *4598:X O *D sky130_fd_sc_hd__or2_2
*CAP
1 *4614:C 0
2 *4604:A 0.000107579
3 *4603:A 0.000111321
4 *4602:B 0
5 *4598:X 0.000235579
6 *519:18 0.000212434
7 *519:12 0.000421256
8 *519:10 0.000448143
9 *4603:A *4608:C1 0.000145184
10 *4604:A *4604:B 0.000198939
11 *519:12 *1020:58 0.00013994
12 *519:18 *1020:58 0.000206817
13 *4602:A *519:18 0.000141592
14 *4611:B *519:10 0.000122331
15 *4614:B *519:10 8.87475e-05
16 *4614:B *519:12 4.13249e-05
17 *420:30 *519:18 0
18 *515:12 *519:10 7.89611e-05
*RES
1 *4598:X *519:10 8.16 
2 *519:10 *519:12 4.185 
3 *519:12 *519:18 4.85 
4 *519:18 *4602:B 1.6 
5 *519:18 *4603:A 4.12 
6 *519:12 *4604:A 5.775 
7 *519:10 *4614:C 3.6 
*END

*D_NET *520 0.000428825
*CONN
*I *4600:B I *D sky130_fd_sc_hd__xnor2_2
*I *4599:X O *D sky130_fd_sc_hd__o21ba_2
*CAP
1 *4600:B 9.93658e-05
2 *4599:X 9.93658e-05
3 *4598:B *4600:B 3.09233e-05
4 *4599:A2 *4600:B 9.54399e-05
5 *4599:B1_N *4600:B 7.1364e-05
6 *4614:A *4600:B 3.23663e-05
*RES
1 *4599:X *4600:B 9.375 
*END

*D_NET *521 0.00239313
*CONN
*I *4610:C1 I *D sky130_fd_sc_hd__a211o_2
*I *4673:A I *D sky130_fd_sc_hd__nand3_2
*I *4609:B1 I *D sky130_fd_sc_hd__a21o_2
*I *4600:Y O *D sky130_fd_sc_hd__xnor2_2
*CAP
1 *4610:C1 0
2 *4673:A 0
3 *4609:B1 0.000194082
4 *4600:Y 0.00033855
5 *521:20 0.00049703
6 *521:12 0.000641497
7 *4609:B1 *4609:A1 5.05437e-05
8 *4609:B1 *4610:A1 4.18603e-06
9 *4609:B1 *527:19 8.47542e-05
10 *4609:B1 *530:10 0.000102274
11 *521:20 *4610:A1 0.000183715
12 *521:20 *4670:A 4.49328e-05
13 *521:20 *530:10 4.18603e-06
14 *521:20 *531:10 6.1357e-05
15 *521:20 *535:10 9.37731e-05
16 *4610:B1 *521:12 5.96893e-05
17 *4610:B1 *521:20 3.25635e-05
*RES
1 *4600:Y *521:12 6.925 
2 *521:12 *521:20 7.895 
3 *521:20 *4609:B1 7.83 
4 *521:20 *4673:A 3.6 
5 *521:12 *4610:C1 1.6 
*END

*D_NET *522 0.000907236
*CONN
*I *4603:B I *D sky130_fd_sc_hd__xor2_2
*I *4604:B I *D sky130_fd_sc_hd__xnor2_2
*I *4601:Y O *D sky130_fd_sc_hd__nor2_2
*CAP
1 *4603:B 0.000130503
2 *4604:B 0.000303896
3 *4601:Y 0.000173392
4 *4603:B *1020:58 0
5 *4500:A *4604:B 4.99619e-05
6 *4602:A *4604:B 5.05437e-05
7 *4604:A *4604:B 0.000198939
8 *425:14 *4603:B 0
*RES
1 *4601:Y *4604:B 6.755 
2 *4604:B *4603:B 7.745 
*END

*D_NET *523 0.00131791
*CONN
*I *4608:C1 I *D sky130_fd_sc_hd__a311oi_2
*I *4602:Y O *D sky130_fd_sc_hd__nor2_2
*CAP
1 *4608:C1 0.000578542
2 *4602:Y 0.000578542
3 *4608:C1 *4608:A3 1.56428e-05
4 *4603:A *4608:C1 0.000145184
5 *4608:A1 *4608:C1 0
*RES
1 *4602:Y *4608:C1 10.13 
*END

*D_NET *524 0.00084915
*CONN
*I *4608:A3 I *D sky130_fd_sc_hd__a311oi_2
*I *4605:D I *D sky130_fd_sc_hd__and4_2
*I *4603:X O *D sky130_fd_sc_hd__xor2_2
*CAP
1 *4608:A3 0.000244113
2 *4605:D 5.19863e-05
3 *4603:X 0.000296099
4 *4608:A3 *529:10 4.99619e-05
5 *4608:A1 *4605:D 8.5242e-05
6 *4608:A1 *4608:A3 9.66021e-05
7 *4608:C1 *4608:A3 1.56428e-05
8 *425:14 *4605:D 0
9 *426:17 *4605:D 9.50342e-06
*RES
1 *4603:X *4605:D 8.325 
2 *4603:X *4608:A3 7.46 
*END

*D_NET *525 0.00205247
*CONN
*I *4680:A I *D sky130_fd_sc_hd__xnor2_2
*I *4607:B I *D sky130_fd_sc_hd__nor2_2
*I *4604:Y O *D sky130_fd_sc_hd__xnor2_2
*CAP
1 *4680:A 0.000543135
2 *4607:B 0
3 *4604:Y 0.000166981
4 *525:8 0.000710116
5 *4680:A *527:8 0
6 *525:8 *4608:B1 4.66108e-05
7 *4608:A2 *4680:A 5.53249e-06
8 *4679:A1 *4680:A 0
9 *4679:B1_N *4680:A 0.000238137
10 *4679:B1_N *525:8 6.47382e-05
11 *425:14 *525:8 0.000277223
*RES
1 *4604:Y *525:8 5.515 
2 *525:8 *4607:B 1.6 
3 *525:8 *4680:A 14.42 
*END

*D_NET *526 0.000149146
*CONN
*I *4606:C I *D sky130_fd_sc_hd__nand3_2
*I *4605:X O *D sky130_fd_sc_hd__and4_2
*CAP
1 *4606:C 3.04398e-05
2 *4605:X 3.04398e-05
3 *4605:B *4606:C 8.8266e-05
*RES
1 *4605:X *4606:C 3.995 
*END

*D_NET *527 0.00226138
*CONN
*I *4610:A1 I *D sky130_fd_sc_hd__a211o_2
*I *4673:B I *D sky130_fd_sc_hd__nand3_2
*I *4609:A1 I *D sky130_fd_sc_hd__a21o_2
*I *4606:Y O *D sky130_fd_sc_hd__nand3_2
*CAP
1 *4610:A1 0.000172953
2 *4673:B 0
3 *4609:A1 0.00012312
4 *4606:Y 0.000364217
5 *527:19 0.000317513
6 *527:8 0.000631896
7 *4610:A1 *4610:A2 0
8 *4610:A1 *531:10 8.65905e-05
9 *4610:A1 *535:10 6.10014e-05
10 *527:8 *4608:B1 0.000162325
11 *527:8 *529:10 0
12 *527:19 *529:10 0
13 *527:19 *529:19 0
14 *4608:A1 *527:8 0
15 *4608:A2 *527:8 0
16 *4609:B1 *4609:A1 5.05437e-05
17 *4609:B1 *4610:A1 4.18603e-06
18 *4609:B1 *527:19 8.47542e-05
19 *4610:B1 *4610:A1 1.85674e-05
20 *4680:A *527:8 0
21 *521:20 *4610:A1 0.000183715
*RES
1 *4606:Y *527:8 9.315 
2 *527:8 *4609:A1 5.085 
3 *527:8 *527:19 2.91 
4 *527:19 *4673:B 3.6 
5 *527:19 *4610:A1 8.145 
*END

*D_NET *528 0.000424983
*CONN
*I *4608:B1 I *D sky130_fd_sc_hd__a311oi_2
*I *4607:Y O *D sky130_fd_sc_hd__nor2_2
*CAP
1 *4608:B1 0.000108024
2 *4607:Y 0.000108024
3 *4608:B1 *529:10 0
4 *425:14 *4608:B1 0
5 *525:8 *4608:B1 4.66108e-05
6 *527:8 *4608:B1 0.000162325
*RES
1 *4607:Y *4608:B1 9.54 
*END

*D_NET *529 0.00125406
*CONN
*I *4610:A2 I *D sky130_fd_sc_hd__a211o_2
*I *4673:C I *D sky130_fd_sc_hd__nand3_2
*I *4609:A2 I *D sky130_fd_sc_hd__a21o_2
*I *4608:Y O *D sky130_fd_sc_hd__a311oi_2
*CAP
1 *4610:A2 0.000167828
2 *4673:C 2.32169e-05
3 *4609:A2 0
4 *4608:Y 0.000238641
5 *529:19 0.000349646
6 *529:10 0.000397242
7 *4673:C *535:10 2.75229e-05
8 *4608:A3 *529:10 4.99619e-05
9 *4608:B1 *529:10 0
10 *4610:A1 *4610:A2 0
11 *425:14 *529:10 0
12 *527:8 *529:10 0
13 *527:19 *529:10 0
14 *527:19 *529:19 0
*RES
1 *4608:Y *529:10 7.47 
2 *529:10 *4609:A2 3.6 
3 *529:10 *529:19 2.655 
4 *529:19 *4673:C 4.05 
5 *529:19 *4610:A2 5.94 
*END

*D_NET *530 0.000998668
*CONN
*I *4670:A I *D sky130_fd_sc_hd__nand2_2
*I *4674:A I *D sky130_fd_sc_hd__nand2_2
*I *4609:X O *D sky130_fd_sc_hd__a21o_2
*CAP
1 *4670:A 0.000128116
2 *4674:A 0
3 *4609:X 0.000278178
4 *530:10 0.000406294
5 *4670:A *4671:B 1.16578e-05
6 *4670:A *531:10 2.30292e-05
7 *4609:B1 *530:10 0.000102274
8 *521:20 *4670:A 4.49328e-05
9 *521:20 *530:10 4.18603e-06
*RES
1 *4609:X *530:10 7.41 
2 *530:10 *4674:A 3.6 
3 *530:10 *4670:A 6.15 
*END

*D_NET *531 0.00525614
*CONN
*I *4624:A1 I *D sky130_fd_sc_hd__a2111o_2
*I *4623:A1 I *D sky130_fd_sc_hd__a211o_2
*I *4617:A1 I *D sky130_fd_sc_hd__a21o_2
*I *4655:A1 I *D sky130_fd_sc_hd__a21o_2
*I *4663:B I *D sky130_fd_sc_hd__nand3_2
*I *4610:X O *D sky130_fd_sc_hd__a211o_2
*CAP
1 *4624:A1 0.000210888
2 *4623:A1 1.17375e-05
3 *4617:A1 8.93744e-05
4 *4655:A1 7.28779e-05
5 *4663:B 0
6 *4610:X 0.000577977
7 *531:53 0.000317773
8 *531:40 0.000782832
9 *531:21 0.000752125
10 *531:10 0.000658915
11 *4623:A1 *4623:A2 4.82919e-05
12 *4623:A1 *549:10 2.75229e-05
13 *4624:A1 *543:6 8.8266e-05
14 *4624:A1 *543:19 0.000179012
15 *531:10 *4668:A3 0
16 *531:10 *4671:A 0.000206157
17 *531:10 *4671:B 8.8266e-05
18 *531:10 *536:10 0
19 *531:21 *4668:A3 0
20 *531:40 *4616:B 0
21 *531:40 *4649:B 4.82863e-05
22 *531:40 *4668:A3 0
23 *531:40 *537:10 5.02217e-05
24 *531:40 *537:21 2.7881e-05
25 *531:40 *575:14 0.000210846
26 *531:40 *576:10 2.77183e-05
27 *531:40 *578:10 0
28 *531:53 *4649:B 0.000162332
29 *531:53 *543:19 9.50342e-06
30 *4610:A1 *531:10 8.65905e-05
31 *4617:B1 *4617:A1 3.83041e-05
32 *4617:B1 *531:40 4.82919e-05
33 *4655:B1 *4655:A1 3.74161e-05
34 *4657:A *531:40 1.52945e-05
35 *4663:A *531:10 5.53249e-06
36 *4663:A *531:21 7.07879e-05
37 *4670:A *531:10 2.30292e-05
38 *507:16 *4655:A1 4.82863e-05
39 *509:10 *531:40 0
40 *510:12 *4617:A1 4.99619e-05
41 *510:12 *531:40 8.49205e-05
42 *510:16 *4617:A1 1.52184e-05
43 *510:16 *531:40 1.52184e-05
44 *510:16 *531:53 7.1301e-06
45 *521:20 *531:10 6.1357e-05
*RES
1 *4610:X *531:10 14.76 
2 *531:10 *4663:B 3.6 
3 *531:10 *531:21 3.635 
4 *531:21 *4655:A1 2.74 
5 *531:21 *531:40 17.4 
6 *531:40 *4617:A1 5.355 
7 *531:40 *531:53 2.145 
8 *531:53 *4623:A1 4.05 
9 *531:53 *4624:A1 6.81 
*END

*D_NET *532 0.00110808
*CONN
*I *4612:B I *D sky130_fd_sc_hd__nor2_2
*I *4613:B I *D sky130_fd_sc_hd__nand2_2
*I *4611:X O *D sky130_fd_sc_hd__and2b_2
*CAP
1 *4612:B 0.00011926
2 *4613:B 0
3 *4611:X 0.000323843
4 *532:8 0.000443103
5 *4612:B *534:12 0
6 *4610:B1 *4612:B 8.78813e-05
7 *4613:A *4612:B 4.82863e-05
8 *4613:A *532:8 8.57024e-05
*RES
1 *4611:X *532:8 6.805 
2 *532:8 *4613:B 1.6 
3 *532:8 *4612:B 7.94 
*END

*D_NET *533 0.000705041
*CONN
*I *4669:A_N I *D sky130_fd_sc_hd__nand2b_2
*I *4615:A1 I *D sky130_fd_sc_hd__o21a_2
*I *4612:Y O *D sky130_fd_sc_hd__nor2_2
*CAP
1 *4669:A_N 0.000177467
2 *4615:A1 2.08101e-05
3 *4612:Y 3.24135e-05
4 *533:6 0.00023069
5 *4669:A_N *4615:A2 0.000198939
6 *4669:A_N *4669:B 4.47209e-05
*RES
1 *4612:Y *533:6 2.05 
2 *533:6 *4615:A1 1.96 
3 *533:6 *4669:A_N 4.825 
*END

*D_NET *534 0.000928802
*CONN
*I *4669:B I *D sky130_fd_sc_hd__nand2b_2
*I *4615:B1 I *D sky130_fd_sc_hd__o21a_2
*I *4613:Y O *D sky130_fd_sc_hd__nand2_2
*CAP
1 *4669:B 9.74795e-05
2 *4615:B1 0
3 *4613:Y 0.000184271
4 *534:12 0.00028175
5 *4669:B *4615:A2 0.000123225
6 *4669:B *536:10 0.000145184
7 *534:12 *4615:A2 5.21714e-05
8 *4610:B1 *534:12 0
9 *4612:B *534:12 0
10 *4669:A_N *4669:B 4.47209e-05
*RES
1 *4613:Y *534:12 8.63 
2 *534:12 *4615:B1 1.6 
3 *534:12 *4669:B 4.465 
*END

*D_NET *535 0.0027035
*CONN
*I *4615:A2 I *D sky130_fd_sc_hd__o21a_2
*I *4670:B I *D sky130_fd_sc_hd__nand2_2
*I *4614:X O *D sky130_fd_sc_hd__or3_2
*CAP
1 *4615:A2 0.000290561
2 *4670:B 0
3 *4614:X 0.000780411
4 *535:10 0.00107097
5 *4615:A2 *4671:A 0
6 *535:10 *4671:A 0
7 *535:10 *4674:B 4.9253e-06
8 *4610:A1 *535:10 6.10014e-05
9 *4669:A_N *4615:A2 0.000198939
10 *4669:B *4615:A2 0.000123225
11 *4673:C *535:10 2.75229e-05
12 *521:20 *535:10 9.37731e-05
13 *534:12 *4615:A2 5.21714e-05
*RES
1 *4614:X *535:10 13.02 
2 *535:10 *4670:B 3.6 
3 *535:10 *4615:A2 9.615 
*END

*D_NET *536 0.00278199
*CONN
*I *4616:B I *D sky130_fd_sc_hd__and2_2
*I *4655:A2 I *D sky130_fd_sc_hd__a21o_2
*I *4663:C I *D sky130_fd_sc_hd__nand3_2
*I *4615:X O *D sky130_fd_sc_hd__o21a_2
*CAP
1 *4616:B 0.000411648
2 *4655:A2 0
3 *4663:C 0.000205026
4 *4615:X 0.000298505
5 *536:23 0.000476339
6 *536:10 0.000568222
7 *4616:B *537:10 3.00381e-05
8 *4663:C *584:6 3.00381e-05
9 *536:10 *4671:A 7.00889e-06
10 *4589:A2 *4616:B 3.47837e-05
11 *4589:B1 *4616:B 4.66108e-05
12 *4616:A *4616:B 0.0001249
13 *4663:A *4616:B 1.70935e-05
14 *4663:A *536:10 1.70935e-05
15 *4663:A *536:23 6.55406e-05
16 *4669:B *536:10 0.000145184
17 *479:10 *4616:B 0
18 *507:16 *4616:B 0.000162361
19 *509:10 *4616:B 0.000141599
20 *531:10 *536:10 0
21 *531:40 *4616:B 0
*RES
1 *4615:X *536:10 8.01 
2 *536:10 *4663:C 6.48 
3 *536:10 *536:23 1.38 
4 *536:23 *4655:A2 3.6 
5 *536:23 *4616:B 12.51 
*END

*D_NET *537 0.00165583
*CONN
*I *4624:A2 I *D sky130_fd_sc_hd__a2111o_2
*I *4623:A2 I *D sky130_fd_sc_hd__a211o_2
*I *4617:A2 I *D sky130_fd_sc_hd__a21o_2
*I *4616:X O *D sky130_fd_sc_hd__and2_2
*CAP
1 *4624:A2 0.000139629
2 *4623:A2 0.000176712
3 *4617:A2 4.58709e-05
4 *4616:X 0.000157011
5 *537:21 0.000453996
6 *537:10 0.000340538
7 *4623:A2 *549:10 0.00010072
8 *4616:B *537:10 3.00381e-05
9 *4623:A1 *4623:A2 4.82919e-05
10 *4624:C1 *4624:A2 0
11 *510:12 *4617:A2 8.49205e-05
12 *510:12 *537:10 0
13 *510:12 *537:21 0
14 *510:16 *4624:A2 0
15 *510:16 *537:21 0
16 *531:40 *537:10 5.02217e-05
17 *531:40 *537:21 2.7881e-05
*RES
1 *4616:X *537:10 5.865 
2 *537:10 *4617:A2 4.395 
3 *537:10 *537:21 2.4 
4 *537:21 *4623:A2 6.825 
5 *537:21 *4624:A2 5.745 
*END

*D_NET *538 0.000274434
*CONN
*I *4649:A I *D sky130_fd_sc_hd__xnor2_2
*I *4617:X O *D sky130_fd_sc_hd__a21o_2
*CAP
1 *4649:A 8.76539e-05
2 *4617:X 8.76539e-05
3 *4649:A *4649:B 9.91257e-05
*RES
1 *4617:X *4649:A 5.03 
*END

*D_NET *539 0.000207698
*CONN
*I *4619:B I *D sky130_fd_sc_hd__nand2_2
*I *4618:Y O *D sky130_fd_sc_hd__nand2b_2
*CAP
1 *4619:B 3.31825e-05
2 *4618:Y 3.31825e-05
3 *436:14 *4619:B 5.30673e-05
4 *438:12 *4619:B 8.8266e-05
*RES
1 *4618:Y *4619:B 4.355 
*END

*D_NET *540 0.000406391
*CONN
*I *4620:A I *D sky130_fd_sc_hd__inv_2
*I *4619:Y O *D sky130_fd_sc_hd__nand2_2
*CAP
1 *4620:A 0.0001599
2 *4619:Y 0.0001599
3 *4620:A *4297:A 0
4 *436:14 *4620:A 8.65905e-05
5 *445:10 *4620:A 0
*RES
1 *4619:Y *4620:A 9.63 
*END

*D_NET *541 0.00295977
*CONN
*I *4626:C I *D sky130_fd_sc_hd__and3_2
*I *4625:A2 I *D sky130_fd_sc_hd__a21o_2
*I *4622:A I *D sky130_fd_sc_hd__xnor2_2
*I *4628:C I *D sky130_fd_sc_hd__and3_2
*I *4620:Y O *D sky130_fd_sc_hd__inv_2
*CAP
1 *4626:C 0.000286867
2 *4625:A2 0
3 *4622:A 0
4 *4628:C 0.000110853
5 *4620:Y 0.000243509
6 *541:34 0.000577032
7 *541:12 0.000241204
8 *541:10 0.000664026
9 *4626:C *546:10 3.23663e-05
10 *4621:A2 *4628:C 9.37731e-05
11 *4625:A1 *4626:C 9.53428e-06
12 *4626:A *4626:C 9.2741e-05
13 *4626:B *4626:C 1.0124e-05
14 *4639:A1 *541:10 0.000113237
15 *221:10 *541:10 0.00012657
16 *465:25 *4628:C 7.21296e-06
17 *465:25 *541:12 7.21296e-06
18 *465:42 *4626:C 5.062e-06
19 *465:42 *541:12 4.49498e-05
20 *465:42 *541:34 0.000293498
*RES
1 *4620:Y *541:10 7.155 
2 *541:10 *541:12 2.4 
3 *541:12 *4628:C 5.43 
4 *541:12 *4622:A 3.6 
5 *541:10 *541:34 8.315 
6 *541:34 *4625:A2 1.6 
7 *541:34 *4626:C 5.425 
*END

*D_NET *542 0.00026961
*CONN
*I *4622:B I *D sky130_fd_sc_hd__xnor2_2
*I *4621:X O *D sky130_fd_sc_hd__a21o_2
*CAP
1 *4622:B 2.95065e-05
2 *4621:X 2.95065e-05
3 *4621:A2 *4622:B 0.000124007
4 *4621:B1 *4622:B 8.65905e-05
*RES
1 *4621:X *4622:B 4.34 
*END

*D_NET *543 0.00203452
*CONN
*I *4623:B1 I *D sky130_fd_sc_hd__a211o_2
*I *4649:B I *D sky130_fd_sc_hd__xnor2_2
*I *4624:B1 I *D sky130_fd_sc_hd__a2111o_2
*I *4622:Y O *D sky130_fd_sc_hd__xnor2_2
*CAP
1 *4623:B1 0
2 *4649:B 0.000183273
3 *4624:B1 2.08101e-05
4 *4622:Y 0.000282916
5 *543:19 0.000264143
6 *543:6 0.000384596
7 *4624:A1 *543:6 8.8266e-05
8 *4624:A1 *543:19 0.000179012
9 *4624:C1 *4649:B 9.50342e-06
10 *4624:C1 *543:19 0.000127366
11 *4624:D1 *543:19 1.1392e-05
12 *4649:A *4649:B 9.91257e-05
13 *510:16 *4649:B 0.000163992
14 *531:40 *4649:B 4.82863e-05
15 *531:53 *4649:B 0.000162332
16 *531:53 *543:19 9.50342e-06
*RES
1 *4622:Y *543:6 5.845 
2 *543:6 *4624:B1 1.96 
3 *543:6 *543:19 4.43 
4 *543:19 *4649:B 8.025 
5 *543:19 *4623:B1 3.6 
*END

*D_NET *544 0.00137334
*CONN
*I *4632:A1 I *D sky130_fd_sc_hd__a21o_2
*I *4645:A I *D sky130_fd_sc_hd__nand3_2
*I *4623:X O *D sky130_fd_sc_hd__a211o_2
*CAP
1 *4632:A1 0
2 *4645:A 3.55667e-05
3 *4623:X 0.000328568
4 *544:6 0.000364135
5 *4645:A *4632:A2 4.99619e-05
6 *4645:A *4645:C 9.78003e-05
7 *544:6 *4632:B1 4.82863e-05
8 *544:6 *4645:C 1.60203e-05
9 *544:6 *549:10 0.000433003
*RES
1 *4623:X *544:6 8.26 
2 *544:6 *4645:A 2.755 
3 *544:6 *4632:A1 1.6 
*END

*D_NET *545 0.00168388
*CONN
*I *4634:B I *D sky130_fd_sc_hd__nand3_2
*I *4633:A1 I *D sky130_fd_sc_hd__a21o_2
*I *4624:X O *D sky130_fd_sc_hd__a2111o_2
*CAP
1 *4634:B 0.00013099
2 *4633:A1 0
3 *4624:X 0.000422591
4 *545:6 0.000553581
5 *4634:B *4629:A 4.47125e-05
6 *4634:B *552:10 0.000229203
7 *545:6 *4629:A 8.96017e-05
8 *545:6 *4633:A2 4.99619e-05
9 *4633:B1 *4634:B 0.000163239
*RES
1 *4624:X *545:6 7.915 
2 *545:6 *4633:A1 1.6 
3 *545:6 *4634:B 9.395 
*END

*D_NET *546 0.00180058
*CONN
*I *4630:B1 I *D sky130_fd_sc_hd__o21ai_2
*I *4631:A I *D sky130_fd_sc_hd__nand2_2
*I *4625:X O *D sky130_fd_sc_hd__a21o_2
*CAP
1 *4630:B1 0
2 *4631:A 0.000184642
3 *4625:X 0.000349771
4 *546:10 0.000534413
5 *4631:A *4630:A2 0
6 *4631:A *4631:B 8.65961e-05
7 *4631:A *552:10 5.51245e-05
8 *4631:A *560:12 4.21973e-05
9 *546:10 *4630:A1 0.000114912
10 *546:10 *4634:C 4.82919e-05
11 *546:10 *547:6 0.000164874
12 *4626:A *546:10 8.8266e-05
13 *4626:B *546:10 9.91257e-05
14 *4626:C *546:10 3.23663e-05
*RES
1 *4625:X *546:10 9.07 
2 *546:10 *4631:A 9.08 
3 *546:10 *4630:B1 1.6 
*END

*D_NET *547 0.000493487
*CONN
*I *4630:A1 I *D sky130_fd_sc_hd__o21ai_2
*I *4627:A I *D sky130_fd_sc_hd__inv_2
*I *4626:X O *D sky130_fd_sc_hd__and3_2
*CAP
1 *4630:A1 4.60201e-05
2 *4627:A 0
3 *4626:X 6.08302e-05
4 *547:6 0.00010685
5 *546:10 *4630:A1 0.000114912
6 *546:10 *547:6 0.000164874
*RES
1 *4626:X *547:6 3.085 
2 *547:6 *4627:A 1.6 
3 *547:6 *4630:A1 2.74 
*END

*D_NET *548 0.000916601
*CONN
*I *4631:B I *D sky130_fd_sc_hd__nand2_2
*I *4627:Y O *D sky130_fd_sc_hd__inv_2
*CAP
1 *4631:B 0.000218488
2 *4627:Y 0.000218488
3 *4631:B *560:12 0.000393029
4 *4631:A *4631:B 8.65961e-05
*RES
1 *4627:Y *4631:B 12.135 
*END

*D_NET *549 0.00402769
*CONN
*I *4630:A2 I *D sky130_fd_sc_hd__o21ai_2
*I *4629:A I *D sky130_fd_sc_hd__inv_2
*I *4628:X O *D sky130_fd_sc_hd__and3_2
*CAP
1 *4630:A2 0.000106896
2 *4629:A 0.000199864
3 *4628:X 0.0011932
4 *549:10 0.00149996
5 *4629:A *4633:A2 4.82919e-05
6 *4629:A *554:6 8.57024e-05
7 *4630:A2 *4633:A2 6.52906e-05
8 *4630:A2 *552:10 0
9 *549:10 *4633:A2 1.22676e-05
10 *549:10 *552:10 0
11 *4623:A1 *549:10 2.75229e-05
12 *4623:A2 *549:10 0.00010072
13 *4631:A *4630:A2 0
14 *4633:B1 *4629:A 0.000120655
15 *4634:B *4629:A 4.47125e-05
16 *544:6 *549:10 0.000433003
17 *545:6 *4629:A 8.96017e-05
*RES
1 *4628:X *549:10 18.45 
2 *549:10 *4629:A 7.86 
3 *549:10 *4630:A2 5.745 
*END

*D_NET *550 0.000454229
*CONN
*I *4632:A2 I *D sky130_fd_sc_hd__a21o_2
*I *4645:B I *D sky130_fd_sc_hd__nand3_2
*I *4629:Y O *D sky130_fd_sc_hd__inv_2
*CAP
1 *4632:A2 7.82448e-05
2 *4645:B 0
3 *4629:Y 9.88568e-05
4 *550:10 0.000177102
5 *4632:A2 *4645:C 5.00638e-05
6 *550:10 *552:10 0
7 *4645:A *4632:A2 4.99619e-05
*RES
1 *4629:Y *550:10 6.98 
2 *550:10 *4645:B 1.6 
3 *550:10 *4632:A2 3.1 
*END

*D_NET *551 0.000585679
*CONN
*I *4634:C I *D sky130_fd_sc_hd__nand3_2
*I *4633:A2 I *D sky130_fd_sc_hd__a21o_2
*I *4630:Y O *D sky130_fd_sc_hd__o21ai_2
*CAP
1 *4634:C 6.59634e-05
2 *4633:A2 0.000114824
3 *4630:Y 0
4 *551:4 0.000180787
5 *4633:A2 *552:10 0
6 *4629:A *4633:A2 4.82919e-05
7 *4630:A2 *4633:A2 6.52906e-05
8 *545:6 *4633:A2 4.99619e-05
9 *546:10 *4634:C 4.82919e-05
10 *549:10 *4633:A2 1.22676e-05
*RES
1 *4630:Y *551:4 1.6 
2 *551:4 *4633:A2 8.195 
3 *551:4 *4634:C 2.755 
*END

*D_NET *552 0.00166641
*CONN
*I *4645:C I *D sky130_fd_sc_hd__nand3_2
*I *4632:B1 I *D sky130_fd_sc_hd__a21o_2
*I *4631:Y O *D sky130_fd_sc_hd__nand2_2
*CAP
1 *4645:C 0.000142102
2 *4632:B1 1.58483e-05
3 *4631:Y 0.00034457
4 *552:10 0.00050252
5 *4645:C *566:10 0.000164874
6 *4630:A2 *552:10 0
7 *4631:A *552:10 5.51245e-05
8 *4632:A2 *4645:C 5.00638e-05
9 *4633:A2 *552:10 0
10 *4634:B *552:10 0.000229203
11 *4645:A *4645:C 9.78003e-05
12 *449:10 *552:10 0
13 *544:6 *4632:B1 4.82863e-05
14 *544:6 *4645:C 1.60203e-05
15 *549:10 *552:10 0
16 *550:10 *552:10 0
*RES
1 *4631:Y *552:10 12.08 
2 *552:10 *4632:B1 2.05 
3 *552:10 *4645:C 5.185 
*END

*D_NET *553 0.00579464
*CONN
*I *4647:B I *D sky130_fd_sc_hd__and3_2
*I *4646:A I *D sky130_fd_sc_hd__nand2_2
*I *4648:A1 I *D sky130_fd_sc_hd__a21oi_2
*I *4632:X O *D sky130_fd_sc_hd__a21o_2
*CAP
1 *4647:B 0.000174956
2 *4646:A 0.000221509
3 *4648:A1 3.71096e-05
4 *4632:X 0.00170557
5 *553:25 0.000396465
6 *553:16 0.00174268
7 *4646:A *4646:B 0.000142572
8 *4646:A *566:14 1.39456e-05
9 *4647:B *566:14 4.70695e-05
10 *4647:B *966:216 0.000198945
11 *4648:A1 *4734:B1_N 0
12 *553:16 *1334:DIODE 4.82919e-05
13 *553:16 *5075:CLK 0.00041082
14 *553:16 *570:16 0.000322656
15 *553:16 *920:10 0.000163204
16 *553:16 *1029:39 0.000133491
17 *4647:A *4646:A 2.0851e-06
18 *4647:A *4647:B 3.3273e-05
*RES
1 *4632:X *553:16 28.43 
2 *553:16 *4648:A1 2.215 
3 *553:16 *553:25 2 
4 *553:25 *4646:A 7.245 
5 *553:25 *4647:B 6.555 
*END

*D_NET *554 0.00763577
*CONN
*I *4641:B I *D sky130_fd_sc_hd__and3_2
*I *4636:A1 I *D sky130_fd_sc_hd__a21oi_2
*I *4637:B I *D sky130_fd_sc_hd__and3_2
*I *4635:A I *D sky130_fd_sc_hd__nand2_2
*I *4642:A1 I *D sky130_fd_sc_hd__a21o_2
*I *4640:A I *D sky130_fd_sc_hd__nand2_2
*I *4633:X O *D sky130_fd_sc_hd__a21o_2
*CAP
1 *4641:B 0
2 *4636:A1 3.86041e-05
3 *4637:B 0.000202284
4 *4635:A 0.000142245
5 *4642:A1 0.000188218
6 *4640:A 0
7 *4633:X 0.000970105
8 *554:49 0.000304415
9 *554:34 0.000846677
10 *554:30 0.00111322
11 *554:12 0.000307751
12 *554:6 0.00156196
13 *4635:A *4635:B 0.000164874
14 *4636:A1 *555:35 3.68784e-05
15 *4637:B *558:16 0.000239813
16 *4642:A1 *4641:C 3.00381e-05
17 *4642:A1 *560:16 0.000194143
18 *554:12 *4952:A 9.54469e-05
19 *554:12 *560:12 5.53249e-06
20 *554:34 *4635:B 4.35432e-05
21 *554:34 *4644:B 0.000162311
22 *554:34 *4644:C 0.00042453
23 *554:34 *562:8 0.000390454
24 *554:49 *4635:B 5.02217e-05
25 *554:49 *555:35 4.43871e-06
26 *4629:A *554:6 8.57024e-05
27 *4636:B1 *4637:B 3.23663e-05
*RES
1 *4633:X *554:6 15.16 
2 *554:6 *554:12 5.89 
3 *554:12 *4640:A 1.6 
4 *554:12 *4642:A1 5.17 
5 *554:6 *554:30 5.295 
6 *554:30 *554:34 11.85 
7 *554:34 *4635:A 4.495 
8 *554:34 *554:49 3.125 
9 *554:49 *4637:B 6.465 
10 *554:49 *4636:A1 4.47 
11 *554:30 *4641:B 1.6 
*END

*D_NET *555 0.00677075
*CONN
*I *4637:C I *D sky130_fd_sc_hd__and3_2
*I *4636:A2 I *D sky130_fd_sc_hd__a21oi_2
*I *4635:B I *D sky130_fd_sc_hd__nand2_2
*I *4634:Y O *D sky130_fd_sc_hd__nand3_2
*CAP
1 *4637:C 0.000176194
2 *4636:A2 0
3 *4635:B 0.00018883
4 *4634:Y 0.0018979
5 *555:35 0.000218252
6 *555:20 0.00212879
7 *4635:B *4644:B 0
8 *4635:B *656:24 0
9 *4637:C *4638:A 3.26889e-05
10 *4637:C *557:6 8.8266e-05
11 *4637:C *558:16 9.01939e-05
12 *555:20 *4641:C 0.000225586
13 *555:20 *4643:B 9.53428e-06
14 *555:20 *4735:A1 0.000292732
15 *555:20 *4735:A2 0.000159741
16 *555:20 *557:10 7.67415e-06
17 *555:20 *558:16 0.000115985
18 *555:20 *560:16 0.000392136
19 *555:20 *563:6 0.00017605
20 *555:20 *563:17 5.70744e-05
21 *555:20 *656:24 4.82863e-05
22 *555:35 *4644:B 0
23 *4635:A *4635:B 0.000164874
24 *4636:A1 *555:35 3.68784e-05
25 *4636:B1 *4637:C 0.000164874
26 *554:34 *4635:B 4.35432e-05
27 *554:49 *4635:B 5.02217e-05
28 *554:49 *555:35 4.43871e-06
*RES
1 *4634:Y *555:20 33.39 
2 *555:20 *4635:B 7.41 
3 *555:20 *555:35 2.87 
4 *555:35 *4636:A2 1.6 
5 *555:35 *4637:C 5.515 
*END

*D_NET *556 0.00114897
*CONN
*I *4958:A I *D sky130_fd_sc_hd__xnor2_2
*I *4635:Y O *D sky130_fd_sc_hd__nand2_2
*CAP
1 *4958:A 0.000434593
2 *4635:Y 0.000434593
3 *4958:A *847:12 0.000279787
*RES
1 *4635:Y *4958:A 10.565 
*END

*D_NET *557 0.00195016
*CONN
*I *4638:A I *D sky130_fd_sc_hd__nor2_2
*I *4733:A1 I *D sky130_fd_sc_hd__a21o_2
*I *4644:A I *D sky130_fd_sc_hd__or4b_2
*I *4636:Y O *D sky130_fd_sc_hd__a21oi_2
*CAP
1 *4638:A 2.07589e-05
2 *4733:A1 0.000202187
3 *4644:A 0.000164325
4 *4636:Y 8.06581e-05
5 *557:10 0.000576092
6 *557:6 0.000310997
7 *4638:A *558:16 2.3845e-05
8 *4644:A *4644:B 0
9 *4644:A *4644:D_N 0
10 *4644:A *4735:B1 5.33085e-05
11 *4644:A *656:24 7.55391e-05
12 *4733:A1 *4733:B1 5.30673e-05
13 *4733:A1 *4735:B1 6.28498e-05
14 *557:6 *558:16 7.67415e-06
15 *557:10 *1196:DIODE 4.82919e-05
16 *557:10 *4735:A1 4.85494e-05
17 *557:10 *558:16 9.33887e-05
18 *4637:C *4638:A 3.26889e-05
19 *4637:C *557:6 8.8266e-05
20 *555:20 *557:10 7.67415e-06
*RES
1 *4636:Y *557:6 2.74 
2 *557:6 *557:10 4.865 
3 *557:10 *4644:A 6.51 
4 *557:10 *4733:A1 6.3 
5 *557:6 *4638:A 2.215 
*END

*D_NET *558 0.00158116
*CONN
*I *4638:B I *D sky130_fd_sc_hd__nor2_2
*I *4644:B I *D sky130_fd_sc_hd__or4b_2
*I *4637:X O *D sky130_fd_sc_hd__and3_2
*CAP
1 *4638:B 0
2 *4644:B 0.000224448
3 *4637:X 0.000160687
4 *558:16 0.000385135
5 *4644:B *656:24 2.46089e-05
6 *4635:B *4644:B 0
7 *4636:B1 *558:16 5.30673e-05
8 *4637:B *558:16 0.000239813
9 *4637:C *558:16 9.01939e-05
10 *4638:A *558:16 2.3845e-05
11 *4644:A *4644:B 0
12 *554:34 *4644:B 0.000162311
13 *555:20 *558:16 0.000115985
14 *555:35 *4644:B 0
15 *557:6 *558:16 7.67415e-06
16 *557:10 *558:16 9.33887e-05
*RES
1 *4637:X *558:16 7.39 
2 *558:16 *4644:B 8.72 
3 *558:16 *4638:B 1.6 
*END

*D_NET *559 0.000593701
*CONN
*I *4735:A1 I *D sky130_fd_sc_hd__a31oi_2
*I *4638:Y O *D sky130_fd_sc_hd__nor2_2
*CAP
1 *4735:A1 7.85779e-05
2 *4638:Y 7.85779e-05
3 *4735:A1 *1196:DIODE 9.52646e-05
4 *555:20 *4735:A1 0.000292732
5 *557:10 *4735:A1 4.85494e-05
*RES
1 *4638:Y *4735:A1 6.41 
*END

*D_NET *560 0.00616488
*CONN
*I *4640:B I *D sky130_fd_sc_hd__nand2_2
*I *4641:C I *D sky130_fd_sc_hd__and3_2
*I *4642:A2 I *D sky130_fd_sc_hd__a21o_2
*I *4639:X O *D sky130_fd_sc_hd__o21a_2
*CAP
1 *4640:B 0
2 *4641:C 0.000190337
3 *4642:A2 2.08101e-05
4 *4639:X 0.00178103
5 *560:16 0.000307892
6 *560:12 0.00187778
7 *4641:C *4642:B1 0.000162251
8 *4641:C *563:6 4.82863e-05
9 *4641:C *924:47 5.53249e-06
10 *4530:A *560:12 0.00012657
11 *4631:A *560:12 4.21973e-05
12 *4631:B *560:12 0.000393029
13 *4642:A1 *4641:C 3.00381e-05
14 *4642:A1 *560:16 0.000194143
15 *447:16 *560:12 7.00889e-06
16 *451:6 *560:12 0.000354719
17 *554:12 *560:12 5.53249e-06
18 *555:20 *4641:C 0.000225586
19 *555:20 *560:16 0.000392136
*RES
1 *4639:X *560:12 35.45 
2 *560:12 *560:16 3.915 
3 *560:16 *4642:A2 1.96 
4 *560:16 *4641:C 10.175 
5 *560:12 *4640:B 1.6 
*END

*D_NET *561 0.000884742
*CONN
*I *4952:A I *D sky130_fd_sc_hd__xor2_2
*I *4640:Y O *D sky130_fd_sc_hd__nand2_2
*CAP
1 *4952:A 0.000291454
2 *4640:Y 0.000291454
3 *4952:A *1329:DIODE 2.66935e-05
4 *4952:A *1334:DIODE 0
5 *4952:A *5079:D 0.000170191
6 *4952:A *5079:RESET_B 0
7 *4952:A *952:8 9.50342e-06
8 *554:12 *4952:A 9.54469e-05
*RES
1 *4640:Y *4952:A 12.915 
*END

*D_NET *562 0.00312755
*CONN
*I *4644:C I *D sky130_fd_sc_hd__or4b_2
*I *4733:B1 I *D sky130_fd_sc_hd__a21o_2
*I *4643:A_N I *D sky130_fd_sc_hd__and2b_2
*I *4641:X O *D sky130_fd_sc_hd__and3_2
*CAP
1 *4644:C 0.000163602
2 *4733:B1 0.000216191
3 *4643:A_N 0.000144375
4 *4641:X 0.000164987
5 *562:12 0.000454597
6 *562:8 0.00042262
7 *4643:A_N *563:6 0.00012657
8 *4643:A_N *563:17 0.000201503
9 *4644:C *4644:D_N 8.65961e-05
10 *4733:B1 *4733:A2 4.7043e-05
11 *562:12 *4644:D_N 6.65973e-05
12 *562:12 *4733:A2 7.21296e-06
13 *562:12 *4735:A3 0.000157602
14 *4733:A1 *4733:B1 5.30673e-05
15 *554:34 *4644:C 0.00042453
16 *554:34 *562:8 0.000390454
*RES
1 *4641:X *562:8 5.515 
2 *562:8 *562:12 4.4 
3 *562:12 *4643:A_N 6.465 
4 *562:12 *4733:B1 7.41 
5 *562:8 *4644:C 5.86 
*END

*D_NET *563 0.00188765
*CONN
*I *4733:A2 I *D sky130_fd_sc_hd__a21o_2
*I *4644:D_N I *D sky130_fd_sc_hd__or4b_2
*I *4643:B I *D sky130_fd_sc_hd__and2b_2
*I *4642:X O *D sky130_fd_sc_hd__a21o_2
*CAP
1 *4733:A2 8.12018e-05
2 *4644:D_N 0.000167658
3 *4643:B 3.33099e-05
4 *4642:X 0.00011094
5 *563:17 0.000340645
6 *563:6 0.000236036
7 *4643:B *4735:A2 0
8 *4644:D_N *4735:A3 0
9 *4733:A2 *4735:B1 0
10 *563:17 *4735:A2 9.13951e-05
11 *4641:C *563:6 4.82863e-05
12 *4643:A_N *563:6 0.00012657
13 *4643:A_N *563:17 0.000201503
14 *4644:A *4644:D_N 0
15 *4644:C *4644:D_N 8.65961e-05
16 *4733:B1 *4733:A2 4.7043e-05
17 *555:20 *4643:B 9.53428e-06
18 *555:20 *563:6 0.00017605
19 *555:20 *563:17 5.70744e-05
20 *562:12 *4644:D_N 6.65973e-05
21 *562:12 *4733:A2 7.21296e-06
*RES
1 *4642:X *563:6 4.81 
2 *563:6 *4643:B 2.215 
3 *563:6 *563:17 4.865 
4 *563:17 *4644:D_N 6.795 
5 *563:17 *4733:A2 5.235 
*END

*D_NET *564 0.00036808
*CONN
*I *4735:A2 I *D sky130_fd_sc_hd__a31oi_2
*I *4643:X O *D sky130_fd_sc_hd__and2b_2
*CAP
1 *4735:A2 5.84718e-05
2 *4643:X 5.84718e-05
3 *4643:B *4735:A2 0
4 *555:20 *4735:A2 0.000159741
5 *563:17 *4735:A2 9.13951e-05
*RES
1 *4643:X *4735:A2 5.045 
*END

*D_NET *565 0.00296157
*CONN
*I *4653:A I *D sky130_fd_sc_hd__or2_2
*I *4741:A I *D sky130_fd_sc_hd__or4_2
*I *4644:X O *D sky130_fd_sc_hd__or4b_2
*CAP
1 *4653:A 1.4017e-05
2 *4741:A 0.000145649
3 *4644:X 0.00054449
4 *565:8 0.000704156
5 *4653:A *1120:100 1.4389e-05
6 *4653:A *1123:139 4.82863e-05
7 *4741:A *4741:B 8.97486e-05
8 *4741:A *5126:A 7.70758e-05
9 *4741:A *5127:A 4.71168e-05
10 *4741:A *573:8 4.43871e-06
11 *4741:A *653:84 0.00018371
12 *4741:A *1013:251 0.000171659
13 *565:8 *4650:A 9.42302e-05
14 *565:8 *4652:A 0
15 *565:8 *4652:B 7.67465e-05
16 *565:8 *4735:A3 0
17 *565:8 *5126:A 0.00013521
18 *565:8 *568:10 0
19 *565:8 *570:16 7.65502e-05
20 *565:8 *573:8 0.000330333
21 *565:8 *656:24 0
22 *565:8 *921:37 9.42302e-05
23 *565:8 *921:39 0.000109533
*RES
1 *4644:X *565:8 16.965 
2 *565:8 *4741:A 8.19 
3 *565:8 *4653:A 4.05 
*END

*D_NET *566 0.00474514
*CONN
*I *4647:C I *D sky130_fd_sc_hd__and3_2
*I *4648:A2 I *D sky130_fd_sc_hd__a21oi_2
*I *4646:B I *D sky130_fd_sc_hd__nand2_2
*I *4645:Y O *D sky130_fd_sc_hd__nand3_2
*CAP
1 *4647:C 0.000194756
2 *4648:A2 0
3 *4646:B 0.000162915
4 *4645:Y 0.00144017
5 *566:14 0.000312905
6 *566:10 0.00178491
7 *4646:B *924:10 0
8 *4647:C *966:216 8.71312e-05
9 *566:10 *5079:CLK 4.7212e-05
10 *566:10 *5079:D 6.27347e-05
11 *566:10 *570:16 0.000132115
12 *566:10 *966:216 1.4389e-05
13 *566:10 *966:222 0.000137439
14 *566:14 *4735:A3 0
15 *566:14 *924:10 0
16 *566:14 *924:47 0
17 *4645:C *566:10 0.000164874
18 *4646:A *4646:B 0.000142572
19 *4646:A *566:14 1.39456e-05
20 *4647:A *566:14 0
21 *4647:B *566:14 4.70695e-05
*RES
1 *4645:Y *566:10 21.22 
2 *566:10 *566:14 4.655 
3 *566:14 *4646:B 6.885 
4 *566:14 *4648:A2 3.6 
5 *566:10 *4647:C 4.12 
*END

*D_NET *567 0.00553497
*CONN
*I *4959:B1 I *D sky130_fd_sc_hd__a21o_2
*I *4979:A1 I *D sky130_fd_sc_hd__a32oi_2
*I *4646:Y O *D sky130_fd_sc_hd__nand2_2
*CAP
1 *4959:B1 0
2 *4979:A1 0.00011494
3 *4646:Y 0.00145166
4 *567:12 0.0015666
5 *4979:A1 *4860:A2 0
6 *4979:A1 *4979:A3 5.4256e-05
7 *4979:A1 *4979:B1 5.30673e-05
8 *4979:A1 *4981:C1 6.05595e-05
9 *4979:A1 *4985:B1 0
10 *4979:A1 *804:12 1.01661e-05
11 *567:12 *1342:DIODE 7.23602e-05
12 *567:12 *4652:B 4.82863e-05
13 *567:12 *4652:C_N 0.000162311
14 *567:12 *4860:A1 0
15 *567:12 *4860:A2 0
16 *567:12 *4899:A2 0.000440844
17 *567:12 *4914:B 9.61344e-05
18 *567:12 *4954:A 0.000161829
19 *567:12 *4970:A 0.000257284
20 *567:12 *5071:RESET_B 0
21 *567:12 *571:6 0.000187281
22 *567:12 *804:12 6.14433e-05
23 *567:12 *949:8 4.97815e-05
24 *567:12 *966:70 0.000106648
25 *567:12 *966:84 0.00016163
26 *567:12 *966:191 0
27 *567:12 *986:10 4.21178e-05
28 *567:12 *986:14 0.000333771
29 *567:12 *991:12 0
30 *567:12 *1013:251 4.19967e-05
31 *4904:A1 *567:12 0
*RES
1 *4646:Y *567:12 32.625 
2 *567:12 *4979:A1 6.285 
3 *567:12 *4959:B1 3.6 
*END

*D_NET *568 0.0010787
*CONN
*I *4734:A1 I *D sky130_fd_sc_hd__o21bai_2
*I *4652:A I *D sky130_fd_sc_hd__or4bb_2
*I *4647:X O *D sky130_fd_sc_hd__and3_2
*CAP
1 *4734:A1 0
2 *4652:A 4.38006e-05
3 *4647:X 0.000243284
4 *568:10 0.000287085
5 *4652:A *4652:B 0.000141599
6 *4652:A *4734:A2 0.000163992
7 *568:10 *4735:A3 0
8 *568:10 *966:216 0.000198939
9 *565:8 *4652:A 0
10 *565:8 *568:10 0
*RES
1 *4647:X *568:10 7.065 
2 *568:10 *4652:A 5.49 
3 *568:10 *4734:A1 3.6 
*END

*D_NET *569 0.0011411
*CONN
*I *4652:B I *D sky130_fd_sc_hd__or4bb_2
*I *4734:B1_N I *D sky130_fd_sc_hd__o21bai_2
*I *4648:Y O *D sky130_fd_sc_hd__a21oi_2
*CAP
1 *4652:B 0.000275271
2 *4734:B1_N 2.08101e-05
3 *4648:Y 4.25609e-05
4 *569:6 0.000338642
5 *4652:B *4652:D_N 1.65105e-05
6 *4652:B *4734:A2 1.15688e-05
7 *4652:B *573:8 8.53113e-06
8 *4647:A *569:6 2.11084e-05
9 *4648:A1 *4734:B1_N 0
10 *4652:A *4652:B 0.000141599
11 *232:39 *4652:B 0.000123277
12 *232:39 *569:6 1.61831e-05
13 *565:8 *4652:B 7.67465e-05
14 *567:12 *4652:B 4.82863e-05
*RES
1 *4648:Y *569:6 2.395 
2 *569:6 *4734:B1_N 1.96 
3 *569:6 *4652:B 11.315 
*END

*D_NET *570 0.00729398
*CONN
*I *4954:A I *D sky130_fd_sc_hd__xnor2_2
*I *4650:B I *D sky130_fd_sc_hd__nand2_2
*I *4651:B I *D sky130_fd_sc_hd__or2_2
*I *4649:Y O *D sky130_fd_sc_hd__xnor2_2
*CAP
1 *4954:A 0.000121732
2 *4650:B 0
3 *4651:B 0.000192672
4 *4649:Y 0.00245005
5 *570:29 0.000121732
6 *570:16 0.00264273
7 *4651:B *4650:A 0.00018305
8 *4651:B *4651:A 0.000196376
9 *4651:B *656:24 0.000225189
10 *4651:B *921:24 1.91597e-05
11 *4651:B *921:37 4.9968e-05
12 *570:16 *4965:B 7.78114e-05
13 *570:16 *5075:CLK 0.000123797
14 *570:16 *656:24 0.00019656
15 *553:16 *570:16 0.000322656
16 *565:8 *570:16 7.65502e-05
17 *566:10 *570:16 0.000132115
18 *567:12 *4954:A 0.000161829
*RES
1 *4649:Y *570:16 12.0957 
2 *570:16 *4651:B 8.43 
3 *570:16 *570:29 2 
4 *570:29 *4650:B 1.6 
5 *570:29 *4954:A 4.12 
*END

*D_NET *571 0.00106379
*CONN
*I *4734:A2 I *D sky130_fd_sc_hd__o21bai_2
*I *4652:C_N I *D sky130_fd_sc_hd__or4bb_2
*I *4650:Y O *D sky130_fd_sc_hd__nand2_2
*CAP
1 *4734:A2 8.51759e-05
2 *4652:C_N 4.47437e-05
3 *4650:Y 8.14782e-05
4 *571:6 0.000211398
5 *4652:C_N *4652:D_N 8.65905e-05
6 *4734:A2 *4652:D_N 2.92496e-05
7 *4652:A *4734:A2 0.000163992
8 *4652:B *4734:A2 1.15688e-05
9 *567:12 *4652:C_N 0.000162311
10 *567:12 *571:6 0.000187281
*RES
1 *4650:Y *571:6 3.43 
2 *571:6 *4652:C_N 3.085 
3 *571:6 *4734:A2 7.745 
*END

*D_NET *572 0.000398758
*CONN
*I *4652:D_N I *D sky130_fd_sc_hd__or4bb_2
*I *4651:X O *D sky130_fd_sc_hd__or2_2
*CAP
1 *4652:D_N 0.000133204
2 *4651:X 0.000133204
3 *4652:D_N *573:8 0
4 *4652:B *4652:D_N 1.65105e-05
5 *4652:C_N *4652:D_N 8.65905e-05
6 *4734:A2 *4652:D_N 2.92496e-05
*RES
1 *4651:X *4652:D_N 9.63 
*END

*D_NET *573 0.0014049
*CONN
*I *4653:B I *D sky130_fd_sc_hd__or2_2
*I *4741:B I *D sky130_fd_sc_hd__or4_2
*I *4652:X O *D sky130_fd_sc_hd__or4bb_2
*CAP
1 *4653:B 1.4017e-05
2 *4741:B 8.73185e-05
3 *4652:X 0.000351768
4 *573:8 0.000453103
5 *4653:B *1120:100 1.4389e-05
6 *4653:B *1123:139 4.82863e-05
7 *4741:B *991:30 2.97004e-06
8 *4741:B *1123:99 0
9 *573:8 *1363:DIODE 0
10 *573:8 *4916:B1 0
11 *573:8 *984:12 0
12 *573:8 *1123:99 0
13 *4652:B *573:8 8.53113e-06
14 *4652:D_N *573:8 0
15 *4741:A *4741:B 8.97486e-05
16 *4741:A *573:8 4.43871e-06
17 *565:8 *573:8 0.000330333
*RES
1 *4652:X *573:8 10.845 
2 *573:8 *4741:B 5.49 
3 *573:8 *4653:B 4.05 
*END

*D_NET *574 0.0113757
*CONN
*I *4910:A1 I *D sky130_fd_sc_hd__o211a_2
*I *5127:A I *D sky130_fd_sc_hd__clkdlybuf4s25_1
*I *5126:A I *D sky130_fd_sc_hd__clkdlybuf4s25_1
*I *4653:X O *D sky130_fd_sc_hd__or2_2
*CAP
1 *4910:A1 0.000549224
2 *5127:A 0.00160504
3 *5126:A 0.000106045
4 *4653:X 0
5 *574:19 0.00217553
6 *574:4 0.000127308
7 *4910:A1 *4893:A 0.000122155
8 *4910:A1 *4893:C 3.23663e-05
9 *4910:A1 *4896:A 7.35729e-05
10 *4910:A1 *4897:A1 8.40269e-05
11 *4910:A1 *4900:A 8.40213e-05
12 *4910:A1 *4900:B 4.82919e-05
13 *4910:A1 *4911:A1 0.000137571
14 *4910:A1 *4912:A2 0.000521639
15 *4910:A1 *966:191 1.47256e-05
16 *4910:A1 *988:85 7.3664e-05
17 *4910:A1 *991:12 0.000159947
18 *4910:A1 *1120:100 0.000159867
19 *5126:A *4893:A 0.000136877
20 *5126:A *4914:B 6.71882e-05
21 *5126:A *788:29 0.000120655
22 *5127:A *1244:DIODE 3.11635e-05
23 *5127:A *4689:C 0.000163992
24 *5127:A *4722:A 0.000352848
25 *5127:A *4723:A1 0.000134099
26 *5127:A *4727:A 0.000123979
27 *5127:A *4727:B 1.37292e-05
28 *5127:A *4740:A 0
29 *5127:A *4740:B 0
30 *5127:A *4740:C 6.59826e-05
31 *5127:A *4741:C 0
32 *5127:A *4741:D 0
33 *5127:A *4745:A 0.00012083
34 *5127:A *4747:A2 4.99619e-05
35 *5127:A *4861:B 7.23602e-05
36 *5127:A *4983:B 0.000200699
37 *5127:A *5071:D 5.39718e-05
38 *5127:A *602:25 0.000224902
39 *5127:A *607:10 4.51866e-05
40 *5127:A *765:32 4.44927e-05
41 *5127:A *966:12 0
42 *5127:A *991:30 0
43 *5127:A *1013:38 0.000232482
44 *5127:A *1123:165 1.32017e-05
45 *5127:A *1124:42 0.000136406
46 *5127:A *1124:44 0.00106657
47 *5127:A *1124:56 0.000183036
48 *574:19 *4893:A 1.47256e-05
49 *574:19 *1120:100 8.65905e-05
50 *574:19 *1123:139 1.03423e-05
51 *4691:B *5127:A 0.000101118
52 *4694:B1 *5127:A 0.000155497
53 *4741:A *5126:A 7.70758e-05
54 *4741:A *5127:A 4.71168e-05
55 *4904:A1 *4910:A1 0.000174458
56 *5132:A *4910:A1 0.000840141
57 *431:16 *4910:A1 3.78034e-06
58 *565:8 *5126:A 0.00013521
*RES
1 *4653:X *574:4 1.6 
2 *574:4 *5126:A 9.14 
3 *574:4 *574:19 0.795 
4 *574:19 *5127:A 44.735 
5 *574:19 *4910:A1 24.0537 
*END

*D_NET *575 0.002833
*CONN
*I *4657:B I *D sky130_fd_sc_hd__or3b_2
*I *4656:B1_N I *D sky130_fd_sc_hd__a21bo_2
*I *4659:B1 I *D sky130_fd_sc_hd__a21o_2
*I *4658:B I *D sky130_fd_sc_hd__nand3_2
*I *4654:X O *D sky130_fd_sc_hd__a21o_2
*CAP
1 *4657:B 0
2 *4656:B1_N 2.18103e-05
3 *4659:B1 0.000160512
4 *4658:B 1.17282e-05
5 *4654:X 0.000335971
6 *575:20 0.000365635
7 *575:14 0.000487641
8 *575:6 0.000608408
9 *4659:B1 *4658:C 0.000137578
10 *4659:B1 *576:25 8.53113e-06
11 *4659:B1 *577:8 0
12 *4659:B1 *579:6 5.83121e-06
13 *575:14 *4656:A2 8.65905e-05
14 *575:14 *576:10 0
15 *575:14 *578:10 0
16 *4657:A *575:14 7.89689e-05
17 *4659:A1 *4659:B1 5.83121e-06
18 *505:38 *575:14 0.000161386
19 *505:47 *4656:B1_N 5.57938e-05
20 *505:47 *4658:B 4.00541e-06
21 *505:47 *575:14 6.04909e-05
22 *505:47 *575:20 2.54431e-05
23 *531:40 *575:14 0.000210846
*RES
1 *4654:X *575:6 5.155 
2 *575:6 *575:14 10.3 
3 *575:14 *575:20 2.55 
4 *575:20 *4658:B 1.96 
5 *575:20 *4659:B1 8.48 
6 *575:14 *4656:B1_N 2.41375 
7 *575:6 *4657:B 1.6 
*END

*D_NET *576 0.00487589
*CONN
*I *4656:A2 I *D sky130_fd_sc_hd__a21bo_2
*I *4659:A2 I *D sky130_fd_sc_hd__a21o_2
*I *4658:C I *D sky130_fd_sc_hd__nand3_2
*I *4664:A I *D sky130_fd_sc_hd__nand2_2
*I *4665:A1 I *D sky130_fd_sc_hd__a21oi_2
*I *4667:B I *D sky130_fd_sc_hd__and3_2
*I *4657:C_N I *D sky130_fd_sc_hd__or3b_2
*I *4655:X O *D sky130_fd_sc_hd__a21o_2
*CAP
1 *4656:A2 0.000133939
2 *4659:A2 0
3 *4658:C 0.000144226
4 *4664:A 0
5 *4665:A1 0.000273277
6 *4667:B 0
7 *4657:C_N 3.37585e-05
8 *4655:X 0.000385709
9 *576:44 0.00040786
10 *576:31 0.000486983
11 *576:25 0.000513924
12 *576:21 0.000211685
13 *576:12 0.000228146
14 *576:10 0.000519648
15 *4656:A2 *577:8 0
16 *4658:C *4662:A2 0
17 *4665:A1 *4664:B 0.000120562
18 *576:10 *4661:A2 7.35813e-05
19 *576:10 *577:8 0
20 *576:10 *578:10 4.49498e-05
21 *576:25 *577:8 0
22 *576:31 *4666:B 0
23 *576:31 *4667:C 4.21973e-05
24 *576:31 *4668:A1 7.89689e-05
25 *576:31 *4668:B1 7.63883e-05
26 *576:31 *4729:A1 0.000123225
27 *576:31 *577:8 0
28 *576:31 *582:10 8.42161e-05
29 *576:31 *582:14 1.71013e-05
30 *576:44 *4666:B 5.99925e-05
31 *576:44 *4729:A1 0.000123225
32 *576:44 *585:12 1.89685e-05
33 *4657:A *4656:A2 0
34 *4657:A *576:10 0
35 *4659:A1 *4658:C 0
36 *4659:A1 *576:21 7.35729e-05
37 *4659:B1 *4658:C 0.000137578
38 *4659:B1 *576:25 8.53113e-06
39 *4665:B1 *4665:A1 0.000200615
40 *4665:B1 *576:44 5.21627e-05
41 *505:38 *4656:A2 4.99619e-05
42 *505:47 *4656:A2 3.66286e-05
43 *531:40 *576:10 2.77183e-05
44 *575:14 *4656:A2 8.65905e-05
45 *575:14 *576:10 0
*RES
1 *4655:X *576:10 8.79 
2 *576:10 *576:12 2 
3 *576:12 *4657:C_N 2.05 
4 *576:12 *576:21 3.21 
5 *576:21 *576:25 2.4875 
6 *576:25 *576:31 8.3975 
7 *576:31 *4667:B 1.6 
8 *576:31 *576:44 6.775 
9 *576:44 *4665:A1 6.565 
10 *576:44 *4664:A 1.6 
11 *576:25 *4658:C 6.6675 
12 *576:21 *4659:A2 1.6 
13 *576:10 *4656:A2 6.285 
*END

*D_NET *577 0.000878078
*CONN
*I *4661:A1 I *D sky130_fd_sc_hd__a21oi_2
*I *4668:A2 I *D sky130_fd_sc_hd__a311o_2
*I *4656:X O *D sky130_fd_sc_hd__a21bo_2
*CAP
1 *4661:A1 0
2 *4668:A2 0.000109106
3 *4656:X 0.000228746
4 *577:8 0.000337852
5 *4668:A2 *4667:C 2.30292e-05
6 *4668:A2 *4668:A1 6.74079e-05
7 *4668:A2 *4668:A3 1.16578e-05
8 *577:8 *4668:A1 5.53249e-06
9 *577:8 *4668:A3 0
10 *577:8 *578:10 0
11 *4656:A2 *577:8 0
12 *4659:A1 *577:8 9.47454e-05
13 *4659:B1 *577:8 0
14 *576:10 *577:8 0
15 *576:25 *577:8 0
16 *576:31 *577:8 0
*RES
1 *4656:X *577:8 7.53 
2 *577:8 *4668:A2 5.79 
3 *577:8 *4661:A1 3.6 
*END

*D_NET *578 0.00145028
*CONN
*I *4661:A2 I *D sky130_fd_sc_hd__a21oi_2
*I *4668:A3 I *D sky130_fd_sc_hd__a311o_2
*I *4657:X O *D sky130_fd_sc_hd__or3b_2
*CAP
1 *4661:A2 0.000120127
2 *4668:A3 0.00025884
3 *4657:X 0.000117878
4 *578:10 0.000496845
5 *4668:A3 *4667:C 8.65961e-05
6 *4668:A3 *4668:A1 0
7 *4668:A3 *584:6 0.000239807
8 *4668:A2 *4668:A3 1.16578e-05
9 *531:10 *4668:A3 0
10 *531:21 *4668:A3 0
11 *531:40 *4668:A3 0
12 *531:40 *578:10 0
13 *575:14 *578:10 0
14 *576:10 *4661:A2 7.35813e-05
15 *576:10 *578:10 4.49498e-05
16 *577:8 *4668:A3 0
17 *577:8 *578:10 0
*RES
1 *4657:X *578:10 5.6925 
2 *578:10 *4668:A3 8.61 
3 *578:10 *4661:A2 5.775 
*END

*D_NET *579 0.00104068
*CONN
*I *4660:A I *D sky130_fd_sc_hd__nand2_2
*I *4662:A1 I *D sky130_fd_sc_hd__a21bo_2
*I *4658:Y O *D sky130_fd_sc_hd__nand3_2
*CAP
1 *4660:A 0.000148673
2 *4662:A1 0
3 *4658:Y 0.000242016
4 *579:6 0.000390688
5 *4660:A *4662:A2 6.73751e-05
6 *4660:A *920:43 2.14129e-05
7 *4660:A *920:45 0.000164686
8 *4659:B1 *579:6 5.83121e-06
*RES
1 *4658:Y *579:6 5.155 
2 *579:6 *4662:A1 1.6 
3 *579:6 *4660:A 8.99 
*END

*D_NET *580 0.000591453
*CONN
*I *4660:B I *D sky130_fd_sc_hd__nand2_2
*I *4662:A2 I *D sky130_fd_sc_hd__a21bo_2
*I *4659:X O *D sky130_fd_sc_hd__a21o_2
*CAP
1 *4660:B 5.12763e-05
2 *4662:A2 8.74755e-05
3 *4659:X 0.000123287
4 *580:6 0.000262039
5 *4658:C *4662:A2 0
6 *4660:A *4662:A2 6.73751e-05
*RES
1 *4659:X *580:6 3.43 
2 *580:6 *4662:A2 7.49 
3 *580:6 *4660:B 2.395 
*END

*D_NET *581 0.00070142
*CONN
*I *4955:A I *D sky130_fd_sc_hd__xor2_2
*I *4660:Y O *D sky130_fd_sc_hd__nand2_2
*CAP
1 *4955:A 0.000237074
2 *4660:Y 0.000237074
3 *4955:A *4729:B1 9.54469e-05
4 *4955:A *4892:B1 0
5 *4955:A *920:43 0.000113577
6 *4955:A *920:45 1.82476e-05
7 *4955:A *948:10 0
*RES
1 *4660:Y *4955:A 11.775 
*END

*D_NET *582 0.00345126
*CONN
*I *4729:A1 I *D sky130_fd_sc_hd__o21a_2
*I *4678:A I *D sky130_fd_sc_hd__or4_2
*I *4731:B1 I *D sky130_fd_sc_hd__a211o_2
*I *4661:Y O *D sky130_fd_sc_hd__a21oi_2
*CAP
1 *4729:A1 0.00016845
2 *4678:A 0.000255922
3 *4731:B1 0.000279516
4 *4661:Y 0.000175074
5 *582:14 0.000900603
6 *582:10 0.000708689
7 *4678:A *4678:D 4.82863e-05
8 *4678:A *4732:C1 0.000102178
9 *4729:A1 *4667:C 0.000123225
10 *4731:B1 *4678:B 2.15025e-05
11 *4731:B1 *4732:C1 5.07419e-05
12 *582:10 *4668:A1 2.75145e-05
13 *582:10 *920:79 2.8185e-05
14 *582:14 *4668:B1 3.47668e-05
15 *582:14 *4678:C 0
16 *582:14 *4678:D 0
17 *582:14 *4731:A2 0
18 *582:14 *4731:C1 0
19 *582:14 *584:12 0
20 *582:14 *585:12 0
21 *582:14 *589:10 0
22 *582:14 *947:28 0
23 *4665:B1 *582:10 2.16191e-05
24 *4665:B1 *582:14 5.93757e-05
25 *4883:A1 *4729:A1 7.67345e-05
26 *233:10 *582:10 0
27 *233:29 *4729:A1 2.11084e-05
28 *576:31 *4729:A1 0.000123225
29 *576:31 *582:10 8.42161e-05
30 *576:31 *582:14 1.71013e-05
31 *576:44 *4729:A1 0.000123225
*RES
1 *4661:Y *582:10 6.63 
2 *582:10 *582:14 8.48 
3 *582:14 *4731:B1 5.08 
4 *582:14 *4678:A 5.08 
5 *582:10 *4729:A1 7.77 
*END

*D_NET *583 0.000921861
*CONN
*I *4729:B1 I *D sky130_fd_sc_hd__o21a_2
*I *4662:X O *D sky130_fd_sc_hd__a21bo_2
*CAP
1 *4729:B1 0.000263274
2 *4662:X 0.000263274
3 *4729:B1 *4729:A2 1.73877e-05
4 *4729:B1 *920:45 0.000165076
5 *4729:B1 *920:55 6.9117e-05
6 *4883:A1 *4729:B1 4.82863e-05
7 *4955:A *4729:B1 9.54469e-05
*RES
1 *4662:X *4729:B1 13.11 
*END

*D_NET *584 0.00258764
*CONN
*I *4667:C I *D sky130_fd_sc_hd__and3_2
*I *4664:B I *D sky130_fd_sc_hd__nand2_2
*I *4665:A2 I *D sky130_fd_sc_hd__a21oi_2
*I *4663:Y O *D sky130_fd_sc_hd__nand3_2
*CAP
1 *4667:C 0.000231317
2 *4664:B 0.000227458
3 *4665:A2 0
4 *4663:Y 0.000213306
5 *584:12 0.000321106
6 *584:6 0.000538272
7 *4667:C *4668:C1 4.82863e-05
8 *584:6 *589:10 2.49909e-05
9 *584:12 *4668:B1 0
10 *584:12 *589:10 0.000118513
11 *4663:C *584:6 3.00381e-05
12 *4665:A1 *4664:B 0.000120562
13 *4665:B1 *4664:B 0.000198939
14 *4668:A2 *4667:C 2.30292e-05
15 *4668:A3 *4667:C 8.65961e-05
16 *4668:A3 *584:6 0.000239807
17 *4729:A1 *4667:C 0.000123225
18 *576:31 *4667:C 4.21973e-05
19 *582:14 *584:12 0
*RES
1 *4663:Y *584:6 5.845 
2 *584:6 *584:12 5.89 
3 *584:12 *4665:A2 1.6 
4 *584:12 *4664:B 6.205 
5 *584:6 *4667:C 6.115 
*END

*D_NET *585 0.00660901
*CONN
*I *4666:B I *D sky130_fd_sc_hd__nand2_2
*I *4963:A1_N I *D sky130_fd_sc_hd__a2bb2o_2
*I *4966:B2 I *D sky130_fd_sc_hd__a22oi_2
*I *4664:Y O *D sky130_fd_sc_hd__nand2_2
*CAP
1 *4666:B 0.000261655
2 *4963:A1_N 3.04609e-05
3 *4966:B2 0.000465103
4 *4664:Y 0
5 *585:12 0.00146509
6 *585:6 0.00123118
7 *4666:B *4729:A2 0.000137414
8 *4666:B *4732:B1 0
9 *4666:B *920:55 0
10 *4666:B *920:79 0.000161529
11 *4963:A1_N *4963:A2_N 1.08758e-05
12 *4963:A1_N *4964:C1 1.37328e-05
13 *4966:B2 *4964:B2 0
14 *4966:B2 *4966:B1 0.000888963
15 *4966:B2 *4977:A2 6.53371e-05
16 *4966:B2 *4978:B 0
17 *4966:B2 *4978:C 0
18 *4966:B2 *947:28 5.4003e-05
19 *4966:B2 *960:31 4.40899e-05
20 *585:12 *4732:B1 0
21 *585:12 *4964:B2 0
22 *585:12 *4973:D_N 0
23 *585:12 *5074:D 0
24 *585:12 *592:52 0
25 *585:12 *947:28 0.00153464
26 *585:12 *966:31 0
27 *4460:A *4966:B2 0
28 *4665:B1 *4666:B 0
29 *4976:B2 *4966:B2 0
30 *5302:A *4963:A1_N 3.25293e-05
31 *233:10 *4666:B 6.52265e-05
32 *375:16 *4966:B2 4.99619e-05
33 *430:8 *4963:A1_N 1.82528e-05
34 *576:31 *4666:B 0
35 *576:44 *4666:B 5.99925e-05
36 *576:44 *585:12 1.89685e-05
37 *582:14 *585:12 0
*RES
1 *4664:Y *585:6 3.6 
2 *585:6 *585:12 20.805 
3 *585:12 *4966:B2 14.61 
4 *585:12 *4963:A1_N 4.485 
5 *585:6 *4666:B 9.36 
*END

*D_NET *586 0.000284816
*CONN
*I *4668:B1 I *D sky130_fd_sc_hd__a311o_2
*I *4665:Y O *D sky130_fd_sc_hd__a21oi_2
*CAP
1 *4668:B1 8.68303e-05
2 *4665:Y 8.68303e-05
3 *576:31 *4668:B1 7.63883e-05
4 *582:14 *4668:B1 3.47668e-05
5 *584:12 *4668:B1 0
*RES
1 *4665:Y *4668:B1 9.09 
*END

*D_NET *587 0.000779192
*CONN
*I *4729:A2 I *D sky130_fd_sc_hd__o21a_2
*I *4666:Y O *D sky130_fd_sc_hd__nand2_2
*CAP
1 *4729:A2 0.000123338
2 *4666:Y 0.000123338
3 *4729:A2 *4666:A 4.99619e-05
4 *4729:A2 *920:55 9.30717e-05
5 *4666:B *4729:A2 0.000137414
6 *4729:B1 *4729:A2 1.73877e-05
7 *233:10 *4729:A2 0.00023468
*RES
1 *4666:Y *4729:A2 11.01 
*END

*D_NET *588 9.2844e-05
*CONN
*I *4668:C1 I *D sky130_fd_sc_hd__a311o_2
*I *4667:X O *D sky130_fd_sc_hd__and3_2
*CAP
1 *4668:C1 2.22788e-05
2 *4667:X 2.22788e-05
3 *4667:C *4668:C1 4.82863e-05
*RES
1 *4667:X *4668:C1 3.65 
*END

*D_NET *589 0.0018859
*CONN
*I *4678:B I *D sky130_fd_sc_hd__or4_2
*I *4731:C1 I *D sky130_fd_sc_hd__a211o_2
*I *4668:X O *D sky130_fd_sc_hd__a311o_2
*CAP
1 *4678:B 0.000396118
2 *4731:C1 5.12135e-05
3 *4668:X 0.000317331
4 *589:10 0.000764663
5 *4678:B *4732:C1 0.000187381
6 *4731:C1 *4731:A1 4.18603e-06
7 *4731:B1 *4678:B 2.15025e-05
8 *582:14 *4731:C1 0
9 *582:14 *589:10 0
10 *584:6 *589:10 2.49909e-05
11 *584:12 *589:10 0.000118513
*RES
1 *4668:X *589:10 9 
2 *589:10 *4731:C1 4.47 
3 *589:10 *4678:B 8.535 
*END

*D_NET *590 0.000728303
*CONN
*I *4671:A I *D sky130_fd_sc_hd__xnor2_2
*I *4669:Y O *D sky130_fd_sc_hd__nand2b_2
*CAP
1 *4671:A 0.000257568
2 *4669:Y 0.000257568
3 *4615:A2 *4671:A 0
4 *531:10 *4671:A 0.000206157
5 *535:10 *4671:A 0
6 *536:10 *4671:A 7.00889e-06
*RES
1 *4669:Y *4671:A 12.435 
*END

*D_NET *591 0.000161162
*CONN
*I *4671:B I *D sky130_fd_sc_hd__xnor2_2
*I *4670:Y O *D sky130_fd_sc_hd__nand2_2
*CAP
1 *4671:B 3.06192e-05
2 *4670:Y 3.06192e-05
3 *4670:A *4671:B 1.16578e-05
4 *531:10 *4671:B 8.8266e-05
*RES
1 *4670:Y *4671:B 3.995 
*END

*D_NET *592 0.0054003
*CONN
*I *4971:A1 I *D sky130_fd_sc_hd__o32a_2
*I *4964:B2 I *D sky130_fd_sc_hd__a221o_2
*I *4677:B I *D sky130_fd_sc_hd__xnor2_2
*I *4730:A2 I *D sky130_fd_sc_hd__a21o_2
*I *4672:B I *D sky130_fd_sc_hd__or2_2
*I *4671:Y O *D sky130_fd_sc_hd__xnor2_2
*CAP
1 *4971:A1 1.65033e-05
2 *4964:B2 0.000126721
3 *4677:B 0.000804907
4 *4730:A2 4.57731e-05
5 *4672:B 9.20162e-05
6 *4671:Y 0.000243022
7 *592:52 0.000890882
8 *592:21 0.000103023
9 *592:10 0.000335039
10 *4672:B *4730:B1 0.000162318
11 *4677:B *595:12 0.000259539
12 *4730:A2 *595:12 8.65905e-05
13 *4964:B2 *4964:B1 0.000176666
14 *4964:B2 *4973:D_N 1.88656e-05
15 *4971:A1 *4971:B2 4.66108e-05
16 *592:10 *4730:B1 3.09233e-05
17 *592:10 *4731:A1 0
18 *592:52 *4964:B1 0.00038107
19 *592:52 *5072:RESET_B 5.12017e-06
20 *592:52 *595:12 0.000124895
21 *592:52 *780:12 7.6524e-05
22 *592:52 *966:31 0.000520509
23 *4672:A *4672:B 1.34361e-05
24 *4730:A1 *4677:B 3.83194e-05
25 *4730:A1 *4730:A2 2.75145e-05
26 *4966:B2 *4964:B2 0
27 *5302:A *4964:B2 3.78034e-06
28 *234:21 *592:52 0.000538538
29 *234:23 *4677:B 0.000198945
30 *370:31 *4971:A1 2.49909e-05
31 *430:8 *4964:B2 7.25921e-06
32 *585:12 *4964:B2 0
33 *585:12 *592:52 0
*RES
1 *4671:Y *592:10 6.72 
2 *592:10 *4672:B 5.745 
3 *592:10 *592:21 2 
4 *592:21 *4730:A2 2.755 
5 *592:21 *4677:B 4.12 
6 *4677:B *592:52 21.435 
7 *592:52 *4964:B2 5.85375 
8 *592:52 *4971:A1 4.05 
*END

*D_NET *593 0.000706925
*CONN
*I *4731:A1 I *D sky130_fd_sc_hd__a211o_2
*I *4672:X O *D sky130_fd_sc_hd__or2_2
*CAP
1 *4731:A1 0.000229566
2 *4672:X 0.000229566
3 *4731:A1 *4730:B1 5.30673e-05
4 *4731:A1 *4731:A2 0.000139245
5 *4731:A1 *595:12 0
6 *4672:A *4731:A1 5.12942e-05
7 *4731:C1 *4731:A1 4.18603e-06
8 *592:10 *4731:A1 0
*RES
1 *4672:X *4731:A1 11.415 
*END

*D_NET *594 0.000159613
*CONN
*I *4674:B I *D sky130_fd_sc_hd__nand2_2
*I *4673:Y O *D sky130_fd_sc_hd__nand3_2
*CAP
1 *4674:B 7.73439e-05
2 *4673:Y 7.73439e-05
3 *4674:B *595:12 0
4 *535:10 *4674:B 4.9253e-06
*RES
1 *4673:Y *4674:B 4.355 
*END

*D_NET *595 0.00577423
*CONN
*I *4676:B I *D sky130_fd_sc_hd__xnor2_2
*I *4675:B I *D sky130_fd_sc_hd__nand2_2
*I *4963:B2 I *D sky130_fd_sc_hd__a2bb2o_2
*I *4977:B2 I *D sky130_fd_sc_hd__o22a_2
*I *4674:Y O *D sky130_fd_sc_hd__nand2_2
*CAP
1 *4676:B 5.62511e-05
2 *4675:B 7.40504e-05
3 *4963:B2 2.12752e-05
4 *4977:B2 0.000241166
5 *4674:Y 0.000768675
6 *595:34 0.000130301
7 *595:14 0.000968235
8 *595:12 0.00147447
9 *4675:B *4675:A 0.000201503
10 *4676:B *4675:A 0.000188957
11 *4676:B *4678:C 8.8266e-05
12 *4963:B2 *4963:B1 3.00381e-05
13 *4977:B2 *4977:B1 0
14 *595:12 *4678:C 0
15 *595:12 *947:28 0
16 *595:14 *4977:B1 0
17 *595:14 *5072:D 0
18 *595:14 *945:16 0
19 *595:14 *947:28 0
20 *595:14 *966:37 0.000363171
21 *4460:A *4977:B2 0.000317699
22 *4509:A *595:14 0
23 *4509:C *4977:B2 0
24 *4674:B *595:12 0
25 *4677:B *595:12 0.000259539
26 *4730:A2 *595:12 8.65905e-05
27 *4731:A1 *595:12 0
28 *5302:A *4963:B2 5.75645e-05
29 *1:6 *4977:B2 0.000111582
30 *234:21 *595:12 1.60203e-05
31 *234:23 *595:12 6.90876e-05
32 *430:8 *4963:B2 0.0001249
33 *592:52 *595:12 0.000124895
*RES
1 *4674:Y *595:12 15.96 
2 *595:12 *595:14 12.6 
3 *595:14 *4977:B2 9.315 
4 *595:14 *4963:B2 4.74 
5 *595:12 *595:34 2 
6 *595:34 *4675:B 3.43 
7 *595:34 *4676:B 3.43 
*END

*D_NET *596 0.000694495
*CONN
*I *4730:B1 I *D sky130_fd_sc_hd__a21o_2
*I *4675:Y O *D sky130_fd_sc_hd__nand2_2
*CAP
1 *4730:B1 0.000132568
2 *4675:Y 0.000132568
3 *4672:A *4730:B1 0.00018305
4 *4672:B *4730:B1 0.000162318
5 *4731:A1 *4730:B1 5.30673e-05
6 *592:10 *4730:B1 3.09233e-05
*RES
1 *4675:Y *4730:B1 10.83 
*END

*D_NET *597 0.000881724
*CONN
*I *4678:C I *D sky130_fd_sc_hd__or4_2
*I *4676:Y O *D sky130_fd_sc_hd__xnor2_2
*CAP
1 *4678:C 0.000181428
2 *4676:Y 0.000181428
3 *4678:C *4678:D 9.30717e-05
4 *4678:C *947:28 0.000337531
5 *4676:B *4678:C 8.8266e-05
6 *582:14 *4678:C 0
7 *595:12 *4678:C 0
*RES
1 *4676:Y *4678:C 11.925 
*END

*D_NET *598 0.000299509
*CONN
*I *4678:D I *D sky130_fd_sc_hd__or4_2
*I *4677:Y O *D sky130_fd_sc_hd__xnor2_2
*CAP
1 *4678:D 6.5318e-05
2 *4677:Y 6.5318e-05
3 *4678:D *4732:C1 2.75145e-05
4 *4678:A *4678:D 4.82863e-05
5 *4678:C *4678:D 9.30717e-05
6 *582:14 *4678:D 0
*RES
1 *4677:Y *4678:D 8.775 
*END

*D_NET *599 0.00555473
*CONN
*I *4741:C I *D sky130_fd_sc_hd__or4_2
*I *4732:A1 I *D sky130_fd_sc_hd__o211a_2
*I *4678:X O *D sky130_fd_sc_hd__or4_2
*CAP
1 *4741:C 0.00119867
2 *4732:A1 0
3 *4678:X 0.000341482
4 *599:10 0.00154015
5 *4741:C *1195:DIODE 4.66108e-05
6 *4741:C *1249:DIODE 0
7 *4741:C *4741:D 8.00928e-05
8 *4741:C *4855:A 0.000149822
9 *4741:C *4855:B 2.75145e-05
10 *4741:C *4858:A1 0.000194694
11 *4741:C *4858:B1 1.5041e-05
12 *4741:C *4881:A1 1.12643e-05
13 *4741:C *4881:B1 4.82863e-05
14 *4741:C *5071:CLK 0.000108569
15 *4741:C *653:26 0.000343414
16 *4741:C *991:30 0.000136884
17 *4741:C *1029:12 0.000115779
18 *4741:C *1029:23 0.000505109
19 *4741:C *1029:67 0.000215396
20 *4741:C *1123:22 0.000139888
21 *4741:C *1123:99 4.39079e-05
22 *4741:C *1124:10 0.000134509
23 *4741:C *1127:22 5.98028e-05
24 *599:10 *4732:C1 9.78429e-05
25 *5127:A *4741:C 0
*RES
1 *4678:X *599:10 6.0025 
2 *599:10 *4732:A1 1.6 
3 *599:10 *4741:C 31.9325 
*END

*D_NET *600 0.000542863
*CONN
*I *4680:B I *D sky130_fd_sc_hd__xnor2_2
*I *4679:Y O *D sky130_fd_sc_hd__a21boi_2
*CAP
1 *4680:B 0.000117337
2 *4679:Y 0.000117337
3 *4679:A1 *4680:B 0.00016659
4 *4679:A2 *4680:B 0.000141599
*RES
1 *4679:Y *4680:B 9.975 
*END

*D_NET *601 0.0064793
*CONN
*I *4681:B I *D sky130_fd_sc_hd__nor2_2
*I *4983:A I *D sky130_fd_sc_hd__nor3_2
*I *4984:B1 I *D sky130_fd_sc_hd__o21a_2
*I *4682:B I *D sky130_fd_sc_hd__nand2_2
*I *4686:A2 I *D sky130_fd_sc_hd__a211o_2
*I *4680:Y O *D sky130_fd_sc_hd__xnor2_2
*CAP
1 *4681:B 0
2 *4983:A 5.43513e-05
3 *4984:B1 0
4 *4682:B 0
5 *4686:A2 0
6 *4680:Y 0.00187859
7 *601:44 0.000141702
8 *601:38 0.00013271
9 *601:31 0.00034586
10 *601:16 0.0021791
11 *4983:A *4984:A2 9.27495e-05
12 *4983:A *4985:A2 8.65961e-05
13 *601:16 *1335:DIODE 0.000535153
14 *601:16 *4732:A2 1.92979e-05
15 *601:16 *653:52 1.92979e-05
16 *601:31 *4682:A 9.53428e-06
17 *601:31 *4724:B1 4.82919e-05
18 *601:31 *4732:A2 0.000149903
19 *601:31 *653:52 0.000160979
20 *601:31 *915:39 1.61831e-05
21 *601:31 *915:52 9.27255e-06
22 *601:31 *986:88 0.000382769
23 *601:38 *915:39 0.000124895
24 *601:44 *4741:D 8.78813e-05
25 *601:44 *4984:A1 4.18603e-06
26 *601:44 *986:88 0
27 *4679:A2 *601:16 0
*RES
1 *4680:Y *601:16 9.23993 
2 *601:16 *4686:A2 3.6 
3 *601:16 *601:31 8.75 
4 *601:31 *4682:B 1.6 
5 *601:31 *601:38 1.14 
6 *601:38 *601:44 5.89 
7 *601:44 *4984:B1 1.6 
8 *601:44 *4983:A 3.085 
9 *601:38 *4681:B 1.6 
*END

*D_NET *602 0.00243359
*CONN
*I *4689:A I *D sky130_fd_sc_hd__or4_2
*I *4727:A I *D sky130_fd_sc_hd__or3_2
*I *4724:A1 I *D sky130_fd_sc_hd__o21a_2
*I *4681:Y O *D sky130_fd_sc_hd__nor2_2
*CAP
1 *4689:A 0
2 *4727:A 8.43301e-05
3 *4724:A1 0.000169286
4 *4681:Y 0.000135162
5 *602:25 0.000320079
6 *602:10 0.000540197
7 *4724:A1 *4724:A2 3.00381e-05
8 *4724:A1 *4728:B1 1.4389e-05
9 *4727:A *4727:B 0.000178817
10 *4727:A *4727:C 4.66108e-05
11 *4727:A *748:16 2.14581e-05
12 *602:10 *4724:B1 0.000105751
13 *602:10 *4741:D 0.000128176
14 *602:10 *990:239 0
15 *602:25 *4727:B 6.46537e-05
16 *602:25 *607:10 0.000160064
17 *5127:A *4727:A 0.000123979
18 *5127:A *602:25 0.000224902
19 *370:31 *4727:A 8.57024e-05
*RES
1 *4681:Y *602:10 9.275 
2 *602:10 *4724:A1 4.135 
3 *602:10 *602:25 6.83 
4 *602:25 *4727:A 6.54 
5 *602:25 *4689:A 3.6 
*END

*D_NET *603 0.000590082
*CONN
*I *4724:B1 I *D sky130_fd_sc_hd__o21a_2
*I *4682:Y O *D sky130_fd_sc_hd__nand2_2
*CAP
1 *4724:B1 0.000191967
2 *4682:Y 0.000191967
3 *4724:B1 *964:42 0
4 *4724:B1 *990:239 5.21046e-05
5 *601:31 *4724:B1 4.82919e-05
6 *602:10 *4724:B1 0.000105751
*RES
1 *4682:Y *4724:B1 11.07 
*END

*D_NET *604 0.000307289
*CONN
*I *4686:B1 I *D sky130_fd_sc_hd__a211o_2
*I *4683:X O *D sky130_fd_sc_hd__and2_2
*CAP
1 *4686:B1 0.00010242
2 *4683:X 0.00010242
3 *4686:B1 *4685:A 4.05358e-05
4 *4686:B1 *4686:A1 2.32594e-05
5 *4685:B *4686:B1 3.86529e-05
*RES
1 *4683:X *4686:B1 9.135 
*END

*D_NET *605 0.000218565
*CONN
*I *4724:A2 I *D sky130_fd_sc_hd__o21a_2
*I *4684:Y O *D sky130_fd_sc_hd__nand2_2
*CAP
1 *4724:A2 9.42635e-05
2 *4684:Y 9.42635e-05
3 *4724:A1 *4724:A2 3.00381e-05
*RES
1 *4684:Y *4724:A2 4.685 
*END

*D_NET *606 0.000620281
*CONN
*I *4686:C1 I *D sky130_fd_sc_hd__a211o_2
*I *4685:Y O *D sky130_fd_sc_hd__nor2_2
*CAP
1 *4686:C1 0.000129337
2 *4685:Y 0.000129337
3 *4686:C1 *4685:A 1.17735e-05
4 *4686:C1 *4686:A1 0.000114492
5 *4686:C1 *915:58 2.92496e-05
6 *4686:C1 *986:88 0.000120655
7 *4685:B *4686:C1 8.54376e-05
*RES
1 *4685:Y *4686:C1 10.23 
*END

*D_NET *607 0.00246149
*CONN
*I *4689:B I *D sky130_fd_sc_hd__or4_2
*I *4727:B I *D sky130_fd_sc_hd__or3_2
*I *4686:X O *D sky130_fd_sc_hd__a211o_2
*CAP
1 *4689:B 3.69588e-05
2 *4727:B 0.000130317
3 *4686:X 0.000623171
4 *607:10 0.000790447
5 *4689:B *989:10 4.66108e-05
6 *4727:B *4741:D 0.000155131
7 *607:10 *4741:D 0.000128216
8 *607:10 *990:239 8.81909e-05
9 *4727:A *4727:B 0.000178817
10 *5127:A *4727:B 1.37292e-05
11 *5127:A *607:10 4.51866e-05
12 *602:25 *4727:B 6.46537e-05
13 *602:25 *607:10 0.000160064
*RES
1 *4686:X *607:10 12.48 
2 *607:10 *4727:B 7.02 
3 *607:10 *4689:B 4.05 
*END

*D_NET *608 0.000804226
*CONN
*I *4689:C I *D sky130_fd_sc_hd__or4_2
*I *4687:Y O *D sky130_fd_sc_hd__xnor2_2
*CAP
1 *4689:C 0.000238955
2 *4687:Y 0.000238955
3 *4689:C *1124:44 0.000162325
4 *5127:A *4689:C 0.000163992
*RES
1 *4687:Y *4689:C 11.61 
*END

*D_NET *609 0.00121112
*CONN
*I *4689:D I *D sky130_fd_sc_hd__or4_2
*I *4688:Y O *D sky130_fd_sc_hd__xnor2_2
*CAP
1 *4689:D 0.000426081
2 *4688:Y 0.000426081
3 *4689:D *4726:B1 0.000232105
4 *4689:D *989:10 9.59384e-05
5 *4689:D *989:19 3.09179e-05
*RES
1 *4688:Y *4689:D 8.945 
*END

*D_NET *610 0.00119974
*CONN
*I *4740:A I *D sky130_fd_sc_hd__or3_2
*I *4728:A1 I *D sky130_fd_sc_hd__o211a_2
*I *4689:X O *D sky130_fd_sc_hd__or4_2
*CAP
1 *4740:A 0.000105729
2 *4728:A1 0.000162486
3 *4689:X 6.32306e-05
4 *610:6 0.000331446
5 *4728:A1 *4728:C1 2.49909e-05
6 *4728:A1 *989:10 3.39489e-05
7 *4740:A *4728:A2 6.02999e-05
8 *4740:A *4728:C1 7.23533e-05
9 *4740:A *4740:B 5.33085e-05
10 *4740:A *4741:D 0.000265637
11 *610:6 *4728:C1 5.83121e-06
12 *610:6 *989:10 2.04748e-05
13 *5127:A *4740:A 0
*RES
1 *4689:X *610:6 2.395 
2 *610:6 *4728:A1 3.68125 
3 *610:6 *4740:A 9.02 
*END

*D_NET *611 0.00183518
*CONN
*I *4695:A_N I *D sky130_fd_sc_hd__nand4b_2
*I *4693:A1 I *D sky130_fd_sc_hd__o21a_2
*I *4690:Y O *D sky130_fd_sc_hd__nor2_2
*CAP
1 *4695:A_N 5.80738e-05
2 *4693:A1 7.61092e-05
3 *4690:Y 0.00015021
4 *611:10 0.000284394
5 *4693:A1 *4695:C 8.34426e-05
6 *4693:A1 *4740:B 0.000183043
7 *4693:A1 *4740:C 9.29751e-06
8 *4693:A1 *612:10 8.53113e-06
9 *4693:A1 *613:8 0
10 *4695:A_N *4693:B1 0.000120655
11 *4695:A_N *4986:B 0.000197264
12 *611:10 *4691:A 0.00013834
13 *611:10 *4740:B 0.000297674
14 *611:10 *4740:C 1.23511e-05
15 *611:10 *612:10 0.000131773
16 *373:31 *611:10 4.82863e-05
17 *373:40 *611:10 3.57349e-05
*RES
1 *4690:Y *611:10 8.07 
2 *611:10 *4693:A1 5.9775 
3 *611:10 *4695:A_N 5.43 
*END

*D_NET *612 0.000964698
*CONN
*I *4695:B I *D sky130_fd_sc_hd__nand4b_2
*I *4693:B1 I *D sky130_fd_sc_hd__o21a_2
*I *4691:Y O *D sky130_fd_sc_hd__nand2_2
*CAP
1 *4695:B 0
2 *4693:B1 0.00015841
3 *4691:Y 6.63257e-05
4 *612:10 0.000224735
5 *4693:B1 *4723:B1 6.74079e-05
6 *4693:B1 *4740:B 9.24049e-05
7 *4693:B1 *4965:A 0
8 *4693:B1 *4986:B 2.16917e-05
9 *612:10 *4695:C 9.50342e-06
10 *612:10 *4740:C 6.32598e-05
11 *4693:A1 *612:10 8.53113e-06
12 *4695:A_N *4693:B1 0.000120655
13 *611:10 *612:10 0.000131773
*RES
1 *4691:Y *612:10 7.235 
2 *612:10 *4693:B1 9.335 
3 *612:10 *4695:B 1.6 
*END

*D_NET *613 0.000866153
*CONN
*I *4695:C I *D sky130_fd_sc_hd__nand4b_2
*I *4693:A2 I *D sky130_fd_sc_hd__o21a_2
*I *4692:Y O *D sky130_fd_sc_hd__nand2_2
*CAP
1 *4695:C 5.62913e-05
2 *4693:A2 6.9663e-05
3 *4692:Y 0.000125508
4 *613:8 0.000251463
5 *4693:A2 *987:88 5.0751e-05
6 *4695:C *4740:C 0.000164686
7 *613:8 *4692:A 5.4155e-06
8 *613:8 *987:88 4.94287e-05
9 *4693:A1 *4695:C 8.34426e-05
10 *4693:A1 *613:8 0
11 *612:10 *4695:C 9.50342e-06
*RES
1 *4692:Y *613:8 3.445 
2 *613:8 *4693:A2 2.74 
3 *613:8 *4695:C 7.49 
*END

*D_NET *614 0.000601575
*CONN
*I *4723:B1 I *D sky130_fd_sc_hd__o21a_2
*I *4693:X O *D sky130_fd_sc_hd__o21a_2
*CAP
1 *4723:B1 0.000252249
2 *4693:X 0.000252249
3 *4723:B1 *4728:A2 2.96689e-05
4 *4723:B1 *4740:B 0
5 *4723:B1 *964:42 0
6 *4693:B1 *4723:B1 6.74079e-05
*RES
1 *4693:X *4723:B1 11.415 
*END

*D_NET *615 0.000236064
*CONN
*I *4695:D I *D sky130_fd_sc_hd__nand4b_2
*I *4694:X O *D sky130_fd_sc_hd__o22a_2
*CAP
1 *4695:D 5.77042e-05
2 *4694:X 5.77042e-05
3 *4695:D *4986:B 0.000120655
*RES
1 *4694:X *4695:D 4.34 
*END

*D_NET *616 0.00268897
*CONN
*I *4723:A1 I *D sky130_fd_sc_hd__o21a_2
*I *4722:A I *D sky130_fd_sc_hd__or3b_2
*I *4695:Y O *D sky130_fd_sc_hd__nand4b_2
*CAP
1 *4723:A1 0.000163947
2 *4722:A 0.000306477
3 *4695:Y 2.89741e-05
4 *616:8 0.000499398
5 *4722:A *4696:B2 0.000116158
6 *4722:A *4720:A 6.97118e-05
7 *4722:A *4722:B 4.9253e-06
8 *4722:A *4723:A2 0.000456441
9 *4722:A *4740:C 0.000118454
10 *4722:A *4981:D1 0
11 *4722:A *1013:38 7.07801e-05
12 *4723:A1 *4691:A 8.00018e-05
13 *4723:A1 *4723:A2 0.000261765
14 *4723:A1 *4986:A 0
15 *616:8 *4986:B 2.49909e-05
16 *5127:A *4722:A 0.000352848
17 *5127:A *4723:A1 0.000134099
*RES
1 *4695:Y *616:8 4.05 
2 *616:8 *4722:A 12.75 
3 *616:8 *4723:A1 7.89 
*END

*D_NET *617 0.000949933
*CONN
*I *4722:B I *D sky130_fd_sc_hd__or3b_2
*I *4721:B1 I *D sky130_fd_sc_hd__a21oi_2
*I *4696:X O *D sky130_fd_sc_hd__a22o_2
*CAP
1 *4722:B 0.000185689
2 *4721:B1 3.88183e-05
3 *4696:X 0
4 *617:4 0.000224507
5 *4721:B1 *4696:A1 0
6 *4721:B1 *4723:A2 9.35556e-05
7 *4722:B *4720:A 3.10443e-05
8 *4722:B *4721:A1 4.40643e-05
9 *4722:B *4740:B 0.000158297
10 *4722:B *4740:C 8.39681e-05
11 *4694:B1 *4722:B 2.86623e-05
12 *4722:A *4722:B 4.9253e-06
13 *375:54 *4721:B1 5.64016e-05
*RES
1 *4696:X *617:4 1.6 
2 *617:4 *4721:B1 2.755 
3 *617:4 *4722:B 9.56 
*END

*D_NET *618 0.000700372
*CONN
*I *4709:A I *D sky130_fd_sc_hd__nand2_2
*I *4697:Y O *D sky130_fd_sc_hd__nand2_2
*CAP
1 *4709:A 0.000198585
2 *4697:Y 0.000198585
3 *4709:A *4709:B 5.69248e-06
4 *4709:A *4719:A1 1.26548e-05
5 *4709:A *4719:A2 0.000113373
6 *4709:A *4719:B1 7.65181e-05
7 *4709:A *4721:A1 7.23533e-05
8 *4709:A *4739:A 0
9 *4709:A *4739:B 0
10 *4709:A *629:10 0
11 *378:55 *4709:A 0
12 *378:63 *4709:A 2.26106e-05
*RES
1 *4697:Y *4709:A 11.07 
*END

*D_NET *619 0.000874777
*CONN
*I *4708:A I *D sky130_fd_sc_hd__or4_2
*I *4718:C1 I *D sky130_fd_sc_hd__a221o_2
*I *4698:X O *D sky130_fd_sc_hd__and2_2
*CAP
1 *4708:A 5.70695e-05
2 *4718:C1 8.63402e-05
3 *4698:X 6.154e-05
4 *619:8 0.00020495
5 *4708:A *4708:C 2.23485e-05
6 *4708:A *4718:A1 0.00011852
7 *4708:A *4719:B1 8.09021e-06
8 *4708:A *627:10 1.07797e-05
9 *4718:C1 *4718:B1 6.11488e-05
10 *4718:C1 *4718:B2 1.12643e-05
11 *619:8 *4719:B1 1.22676e-05
12 *619:8 *627:10 6.36578e-05
13 *4718:A2 *4708:A 0.000156802
*RES
1 *4698:X *619:8 4.98 
2 *619:8 *4718:C1 5.1 
3 *619:8 *4708:A 5.745 
*END

*D_NET *620 0.000586818
*CONN
*I *4709:B I *D sky130_fd_sc_hd__nand2_2
*I *4719:B2 I *D sky130_fd_sc_hd__a22o_2
*I *4699:X O *D sky130_fd_sc_hd__or2_2
*CAP
1 *4709:B 7.13736e-05
2 *4719:B2 0
3 *4699:X 2.22788e-05
4 *620:6 9.36524e-05
5 *4709:B *4719:B1 0.000139554
6 *4709:B *907:22 4.66108e-05
7 *620:6 *907:22 4.82863e-05
8 *4709:A *4709:B 5.69248e-06
9 *4718:A2 *4709:B 0.000159369
*RES
1 *4699:X *620:6 2.05 
2 *620:6 *4719:B2 1.6 
3 *620:6 *4709:B 7.94 
*END

*D_NET *621 0.000153397
*CONN
*I *4701:B I *D sky130_fd_sc_hd__or2_2
*I *4700:X O *D sky130_fd_sc_hd__and2_2
*CAP
1 *4701:B 1.39199e-05
2 *4700:X 1.39199e-05
3 *4701:B *1026:90 3.72916e-05
4 *4701:A *4701:B 8.8266e-05
*RES
1 *4700:X *4701:B 3.995 
*END

*D_NET *622 0.010536
*CONN
*I *4702:B1 I *D sky130_fd_sc_hd__o22ai_2
*I *4706:A2 I *D sky130_fd_sc_hd__a22o_2
*I *4977:A1 I *D sky130_fd_sc_hd__o22a_2
*I *4975:A1_N I *D sky130_fd_sc_hd__o2bb2a_2
*I *4701:X O *D sky130_fd_sc_hd__or2_2
*CAP
1 *4702:B1 4.9577e-05
2 *4706:A2 0
3 *4977:A1 0.000194565
4 *4975:A1_N 0.00041654
5 *4701:X 0
6 *622:44 0.00112399
7 *622:10 0.00136492
8 *622:4 0.00182823
9 *4702:B1 *4702:B2 0.0001249
10 *4702:B1 *4706:A1 7.2851e-05
11 *4702:B1 *627:10 5.34747e-05
12 *4975:A1_N *4978:B 6.60615e-05
13 *622:10 *1026:90 0.000164874
14 *622:44 *4706:A1 5.20437e-05
15 *622:44 *4767:A 6.77501e-05
16 *622:44 *4767:B 6.58339e-05
17 *622:44 *4772:A2 7.65518e-05
18 *622:44 *4978:A 8.65905e-05
19 *622:44 *626:14 0.000149709
20 *622:44 *930:55 0.000427876
21 *622:44 *1005:31 0.000615157
22 *622:44 *1026:90 0.000272536
23 *1192:DIODE *622:10 3.68682e-05
24 *4458:B1 *622:10 0
25 *4460:B *622:10 4.66443e-05
26 *4460:C *622:10 0.000396334
27 *4461:C *622:10 0.000150299
28 *4462:B *4977:A1 4.88154e-05
29 *4462:B *622:10 1.17666e-05
30 *4462:C *622:10 0.00156212
31 *4509:B *4977:A1 0.000206234
32 *4509:B *622:10 0.000272036
33 *4509:C *4975:A1_N 1.4399e-05
34 *1:6 *622:10 0
35 *230:12 *622:10 0.000158754
36 *374:8 *4977:A1 0
37 *378:8 *622:10 0.000300277
38 *380:28 *622:10 5.74016e-05
*RES
1 *4701:X *622:4 1.6 
2 *622:4 *622:10 27.05 
3 *622:10 *4975:A1_N 9.4575 
4 *622:10 *4977:A1 7.485 
5 *622:4 *622:44 20.2838 
6 *622:44 *4706:A2 1.6 
7 *622:44 *4702:B1 3.41125 
*END

*D_NET *623 0.00103318
*CONN
*I *4708:B I *D sky130_fd_sc_hd__or4_2
*I *4703:A I *D sky130_fd_sc_hd__inv_2
*I *4702:Y O *D sky130_fd_sc_hd__o22ai_2
*CAP
1 *4708:B 0.000219245
2 *4703:A 0
3 *4702:Y 8.6856e-05
4 *623:8 0.000306101
5 *4708:B *1210:DIODE 0
6 *380:28 *4708:B 0.000233918
7 *380:28 *623:8 0.000187064
*RES
1 *4702:Y *623:8 5.745 
2 *623:8 *4703:A 3.6 
3 *623:8 *4708:B 7.395 
*END

*D_NET *624 0.000346846
*CONN
*I *4718:B1 I *D sky130_fd_sc_hd__a221o_2
*I *4703:Y O *D sky130_fd_sc_hd__inv_2
*CAP
1 *4718:B1 0.000113073
2 *4703:Y 0.000113073
3 *4718:B1 *4718:A1 4.82863e-05
4 *4718:B1 *4718:B2 1.12643e-05
5 *4718:C1 *4718:B1 6.11488e-05
*RES
1 *4703:Y *4718:B1 5.03 
*END

*D_NET *625 0.000118162
*CONN
*I *4705:B I *D sky130_fd_sc_hd__nand2_2
*I *4704:X O *D sky130_fd_sc_hd__or2_2
*CAP
1 *4705:B 3.25471e-05
2 *4704:X 3.25471e-05
3 *4705:A *4705:B 5.30673e-05
*RES
1 *4704:X *4705:B 3.995 
*END

*D_NET *626 0.00773626
*CONN
*I *4706:B1 I *D sky130_fd_sc_hd__a22o_2
*I *4968:A1 I *D sky130_fd_sc_hd__a2111o_2
*I *4982:A1 I *D sky130_fd_sc_hd__o22a_2
*I *4707:B I *D sky130_fd_sc_hd__nor2_2
*I *4705:Y O *D sky130_fd_sc_hd__nand2_2
*CAP
1 *4706:B1 0
2 *4968:A1 0.000259058
3 *4982:A1 8.22055e-05
4 *4707:B 0
5 *4705:Y 0.00113567
6 *626:31 0.000703871
7 *626:22 0.000660949
8 *626:14 0.00143401
9 *4968:A1 *4982:A2 0
10 *4968:A1 *4982:B1 2.49909e-05
11 *4968:A1 *985:116 0.000102049
12 *4968:A1 *992:139 9.37731e-05
13 *4982:A1 *4982:A2 3.18137e-05
14 *626:14 *1211:DIODE 3.45588e-05
15 *626:14 *4767:A 0.0001249
16 *626:14 *4767:B 0.000119756
17 *626:14 *4769:C1 4.66108e-05
18 *626:14 *4770:A1 0.000268734
19 *626:14 *4770:A2 0.000116093
20 *626:14 *4770:B1 0.000114492
21 *626:14 *4772:A1 0.000122331
22 *626:14 *4772:B1 8.49205e-05
23 *626:14 *930:55 5.74791e-05
24 *626:14 *958:8 0.000387896
25 *626:22 *4706:B2 5.92269e-05
26 *626:22 *931:44 0.000583656
27 *626:22 *932:49 0
28 *626:22 *1126:51 3.09164e-05
29 *626:31 *4707:A 5.4155e-06
30 *626:31 *931:40 0.000142661
31 *626:31 *931:44 4.60584e-05
32 *626:31 *985:116 0.000131704
33 *1129:DIODE *626:14 8.57024e-05
34 *227:22 *626:14 0.000464499
35 *380:40 *4982:A1 3.05373e-05
36 *622:44 *626:14 0.000149709
*RES
1 *4705:Y *626:14 27.89 
2 *626:14 *626:22 10.915 
3 *626:22 *4707:B 1.6 
4 *626:22 *626:31 6.675 
5 *626:31 *4982:A1 7.235 
6 *626:31 *4968:A1 10.04 
7 *626:14 *4706:B1 1.6 
*END

*D_NET *627 0.00157315
*CONN
*I *4708:C I *D sky130_fd_sc_hd__or4_2
*I *4718:B2 I *D sky130_fd_sc_hd__a221o_2
*I *4706:X O *D sky130_fd_sc_hd__a22o_2
*CAP
1 *4708:C 4.7242e-05
2 *4718:B2 3.29957e-06
3 *4706:X 0.000386228
4 *627:10 0.000436769
5 *4708:C *4708:D 0.000131408
6 *4708:C *4718:A1 0.000143266
7 *627:10 *4702:A1 2.75229e-05
8 *627:10 *4702:B2 3.99879e-05
9 *627:10 *4708:D 0.000139245
10 *4702:B1 *627:10 5.34747e-05
11 *4708:A *4708:C 2.23485e-05
12 *4708:A *627:10 1.07797e-05
13 *4718:B1 *4718:B2 1.12643e-05
14 *4718:C1 *4718:B2 1.12643e-05
15 *380:28 *4708:C 2.03321e-05
16 *380:32 *627:10 2.50602e-05
17 *619:8 *627:10 6.36578e-05
*RES
1 *4706:X *627:10 9.48 
2 *627:10 *4718:B2 3.70875 
3 *627:10 *4708:C 5.745 
*END

*D_NET *628 0.000918787
*CONN
*I *4708:D I *D sky130_fd_sc_hd__or4_2
*I *4707:Y O *D sky130_fd_sc_hd__nor2_2
*CAP
1 *4708:D 0.000228487
2 *4707:Y 0.000228487
3 *4708:C *4708:D 0.000131408
4 *380:28 *4708:D 0.000191159
5 *627:10 *4708:D 0.000139245
*RES
1 *4707:Y *4708:D 12.405 
*END

*D_NET *629 0.00127669
*CONN
*I *4739:A I *D sky130_fd_sc_hd__or3_2
*I *4710:A I *D sky130_fd_sc_hd__nor2_2
*I *4708:X O *D sky130_fd_sc_hd__or4_2
*CAP
1 *4739:A 0.000113183
2 *4710:A 0
3 *4708:X 0.000382008
4 *629:10 0.000495191
5 *4739:A *4719:A1 4.55173e-05
6 *4739:A *4737:A1 8.49205e-05
7 *4739:A *4739:B 7.09512e-05
8 *4739:A *907:22 8.49205e-05
9 *629:10 *4719:B1 0
10 *4709:A *4739:A 0
11 *4709:A *629:10 0
*RES
1 *4708:X *629:10 8.1 
2 *629:10 *4710:A 3.6 
3 *629:10 *4739:A 6.285 
*END

*D_NET *630 0.000844888
*CONN
*I *4739:B I *D sky130_fd_sc_hd__or3_2
*I *4710:B I *D sky130_fd_sc_hd__nor2_2
*I *4709:Y O *D sky130_fd_sc_hd__nand2_2
*CAP
1 *4739:B 0.000242215
2 *4710:B 0
3 *4709:Y 4.10855e-05
4 *630:6 0.0002833
5 *4739:B *4738:D_N 6.52265e-05
6 *4739:B *4740:C 8.53113e-06
7 *4739:B *4980:B 0
8 *4739:B *907:14 0
9 *630:6 *4719:A2 7.00889e-06
10 *630:6 *4738:D_N 0.00012657
11 *4709:A *4739:B 0
12 *4739:A *4739:B 7.09512e-05
*RES
1 *4709:Y *630:6 2.74 
2 *630:6 *4710:B 1.6 
3 *630:6 *4739:B 9.5 
*END

*D_NET *631 0.000468256
*CONN
*I *4719:A1 I *D sky130_fd_sc_hd__a22o_2
*I *4710:Y O *D sky130_fd_sc_hd__nor2_2
*CAP
1 *4719:A1 0.000119599
2 *4710:Y 0.000119599
3 *4719:A1 *4719:A2 0.000119214
4 *4719:A1 *907:22 5.16724e-05
5 *4709:A *4719:A1 1.26548e-05
6 *4739:A *4719:A1 4.55173e-05
*RES
1 *4710:Y *4719:A1 9.72 
*END

*D_NET *632 0.0003851
*CONN
*I *4714:B1 I *D sky130_fd_sc_hd__o211a_2
*I *4711:Y O *D sky130_fd_sc_hd__xnor2_2
*CAP
1 *4714:B1 0.000170784
2 *4711:Y 0.000170784
3 *4714:A1 *4714:B1 4.35308e-05
*RES
1 *4711:Y *4714:B1 5.735 
*END

*D_NET *633 0.00118473
*CONN
*I *4713:C1 I *D sky130_fd_sc_hd__o221a_2
*I *4716:A2_N I *D sky130_fd_sc_hd__o2bb2a_2
*I *4712:X O *D sky130_fd_sc_hd__o2bb2a_2
*CAP
1 *4713:C1 0.000161911
2 *4716:A2_N 3.38648e-05
3 *4712:X 3.456e-05
4 *633:8 0.000230336
5 *4713:C1 *4715:A2 4.3375e-05
6 *4713:C1 *4716:A1_N 0.000159269
7 *4713:C1 *4978:A 1.53032e-05
8 *4713:C1 *929:29 3.00399e-05
9 *4713:C1 *929:40 0
10 *4713:C1 *960:31 2.97122e-05
11 *633:8 *4978:A 2.66935e-05
12 *633:8 *960:31 2.87867e-05
13 *1192:DIODE *4716:A2_N 4.82919e-05
14 *4713:B2 *4713:C1 0.000124661
15 *4715:A1 *4713:C1 4.66108e-05
16 *4715:C1 *4713:C1 1.61831e-05
17 *228:108 *4713:C1 0.000115464
18 *380:28 *4713:C1 3.96737e-05
*RES
1 *4712:X *633:8 4.47 
2 *633:8 *4716:A2_N 4.05 
3 *633:8 *4713:C1 8.55 
*END

*D_NET *634 0.000796947
*CONN
*I *4714:C1 I *D sky130_fd_sc_hd__o211a_2
*I *4713:X O *D sky130_fd_sc_hd__o221a_2
*CAP
1 *4714:C1 0.000212058
2 *4713:X 0.000212058
3 *4714:C1 *4713:A1 4.82863e-05
4 *4714:C1 *929:14 2.68721e-05
5 *4714:C1 *929:29 2.82065e-05
6 *4714:C1 *929:40 8.09546e-05
7 *4712:B1 *4714:C1 0.000116158
8 *227:64 *4714:C1 7.23533e-05
*RES
1 *4713:X *4714:C1 10.755 
*END

*D_NET *635 0.00592901
*CONN
*I *4717:A I *D sky130_fd_sc_hd__or2_2
*I *4738:D_N I *D sky130_fd_sc_hd__or4b_2
*I *4714:X O *D sky130_fd_sc_hd__o211a_2
*CAP
1 *4717:A 0
2 *4738:D_N 0.00048453
3 *4714:X 0.000682736
4 *635:12 0.00116727
5 *4738:D_N *4719:A2 0.000203253
6 *4738:D_N *4798:A 0.000302903
7 *4738:D_N *4798:B 8.23457e-05
8 *4738:D_N *4798:C 8.65905e-05
9 *4738:D_N *664:18 0.00145969
10 *635:12 *1210:DIODE 8.29264e-05
11 *635:12 *4718:A1 0
12 *635:12 *4737:A1 0.0001947
13 *635:12 *4752:B 2.75145e-05
14 *635:12 *4762:A1 7.17141e-05
15 *635:12 *4763:B1 1.86443e-05
16 *635:12 *4763:B2 0.000220896
17 *635:12 *985:48 0.000347922
18 *635:12 *1119:74 0.00030358
19 *4739:B *4738:D_N 6.52265e-05
20 *630:6 *4738:D_N 0.00012657
*RES
1 *4714:X *635:12 19.67 
2 *635:12 *4738:D_N 17.62 
3 *635:12 *4717:A 1.6 
*END

*D_NET *636 0.000391842
*CONN
*I *4716:A1_N I *D sky130_fd_sc_hd__o2bb2a_2
*I *4715:Y O *D sky130_fd_sc_hd__o211ai_2
*CAP
1 *4716:A1_N 6.00078e-05
2 *4715:Y 6.00078e-05
3 *4716:A1_N *4978:A 7.89112e-05
4 *1192:DIODE *4716:A1_N 1.24905e-05
5 *1194:DIODE *4716:A1_N 1.16527e-05
6 *4713:B2 *4716:A1_N 9.50342e-06
7 *4713:C1 *4716:A1_N 0.000159269
*RES
1 *4715:Y *4716:A1_N 9.2025 
*END

*D_NET *637 0.00356209
*CONN
*I *4717:B I *D sky130_fd_sc_hd__or2_2
*I *4716:X O *D sky130_fd_sc_hd__o2bb2a_2
*CAP
1 *4717:B 0.00158713
2 *4716:X 0.00158713
3 *4717:B *1210:DIODE 0.000136877
4 *4717:B *4716:B1 2.8185e-05
5 *4717:B *4718:A1 0
6 *1192:DIODE *4717:B 7.68414e-06
7 *1194:DIODE *4717:B 0.000131069
8 *230:117 *4717:B 8.40213e-05
*RES
1 *4716:X *4717:B 25.155 
*END

*D_NET *638 0.00133567
*CONN
*I *4719:A2 I *D sky130_fd_sc_hd__a22o_2
*I *4717:X O *D sky130_fd_sc_hd__or2_2
*CAP
1 *4719:A2 0.000433206
2 *4717:X 0.000433206
3 *4719:A2 *907:22 2.64128e-05
4 *4709:A *4719:A2 0.000113373
5 *4719:A1 *4719:A2 0.000119214
6 *4738:D_N *4719:A2 0.000203253
7 *630:6 *4719:A2 7.00889e-06
*RES
1 *4717:X *4719:A2 13.785 
*END

*D_NET *639 0.00102541
*CONN
*I *4719:B1 I *D sky130_fd_sc_hd__a22o_2
*I *4718:X O *D sky130_fd_sc_hd__a221o_2
*CAP
1 *4719:B1 0.000292721
2 *4718:X 0.000292721
3 *4708:A *4719:B1 8.09021e-06
4 *4709:A *4719:B1 7.65181e-05
5 *4709:B *4719:B1 0.000139554
6 *4718:A2 *4719:B1 0.000203539
7 *619:8 *4719:B1 1.22676e-05
8 *629:10 *4719:B1 0
*RES
1 *4718:X *4719:B1 13.875 
*END

*D_NET *640 0.00214958
*CONN
*I *4721:A1 I *D sky130_fd_sc_hd__a21oi_2
*I *4719:X O *D sky130_fd_sc_hd__a22o_2
*CAP
1 *4721:A1 0.000771228
2 *4719:X 0.000771228
3 *4721:A1 *4721:A2 0
4 *4721:A1 *4737:A1 4.99619e-05
5 *4721:A1 *4740:C 0
6 *4721:A1 *4950:B 0
7 *4721:A1 *4965:A 0
8 *4721:A1 *987:14 0
9 *4721:A1 *1023:111 0.000113606
10 *4721:A1 *1122:162 0.000183043
11 *4709:A *4721:A1 7.23533e-05
12 *4722:B *4721:A1 4.40643e-05
13 *4950:A *4721:A1 0
14 *375:54 *4721:A1 7.34073e-05
15 *376:30 *4721:A1 7.06865e-05
16 *378:55 *4721:A1 0
*RES
1 *4719:X *4721:A1 20.475 
*END

*D_NET *641 0.000811219
*CONN
*I *4722:C_N I *D sky130_fd_sc_hd__or3b_2
*I *4721:A2 I *D sky130_fd_sc_hd__a21oi_2
*I *4720:X O *D sky130_fd_sc_hd__or2_2
*CAP
1 *4722:C_N 2.27094e-05
2 *4721:A2 0.000153975
3 *4720:X 0
4 *641:4 0.000176684
5 *4721:A2 *4720:A 5.05437e-05
6 *4721:A2 *4740:B 0
7 *4721:A2 *987:14 5.63405e-05
8 *4721:A2 *1023:111 1.34503e-05
9 *4722:C_N *4720:A 3.94299e-05
10 *4721:A1 *4721:A2 0
11 *376:30 *4721:A2 0.000249795
12 *376:30 *4722:C_N 4.82919e-05
*RES
1 *4720:X *641:4 1.6 
2 *641:4 *4721:A2 9.065 
3 *641:4 *4722:C_N 2.41 
*END

*D_NET *642 0.00267971
*CONN
*I *4723:A2 I *D sky130_fd_sc_hd__o21a_2
*I *4721:Y O *D sky130_fd_sc_hd__a21oi_2
*CAP
1 *4723:A2 0.000598091
2 *4721:Y 0.000598091
3 *4723:A2 *4696:A1 2.75229e-05
4 *4723:A2 *4740:C 0.000583132
5 *4694:B1 *4723:A2 4.30176e-06
6 *4721:B1 *4723:A2 9.35556e-05
7 *4722:A *4723:A2 0.000456441
8 *4723:A1 *4723:A2 0.000261765
9 *375:54 *4723:A2 4.91319e-05
10 *376:30 *4723:A2 7.67415e-06
*RES
1 *4721:Y *4723:A2 19.515 
*END

*D_NET *643 0.00275893
*CONN
*I *4740:B I *D sky130_fd_sc_hd__or3_2
*I *4722:X O *D sky130_fd_sc_hd__or3b_2
*CAP
1 *4740:B 0.000716726
2 *4722:X 0.000716726
3 *4740:B *1244:DIODE 4.66474e-05
4 *4740:B *4691:A 2.17728e-05
5 *4740:B *4720:A 1.83756e-05
6 *4740:B *4728:A2 0.000253678
7 *4740:B *4740:C 0
8 *4740:B *4745:B 0
9 *4740:B *987:8 0
10 *4740:B *987:14 0
11 *4740:B *1008:40 6.83488e-05
12 *4693:A1 *4740:B 0.000183043
13 *4693:B1 *4740:B 9.24049e-05
14 *4694:B1 *4740:B 3.81581e-05
15 *4721:A2 *4740:B 0
16 *4722:B *4740:B 0.000158297
17 *4723:B1 *4740:B 0
18 *4740:A *4740:B 5.33085e-05
19 *5127:A *4740:B 0
20 *376:30 *4740:B 9.37731e-05
21 *611:10 *4740:B 0.000297674
*RES
1 *4722:X *4740:B 22.035 
*END

*D_NET *644 0.00164587
*CONN
*I *4728:A2 I *D sky130_fd_sc_hd__o211a_2
*I *4723:X O *D sky130_fd_sc_hd__o21a_2
*CAP
1 *4728:A2 0.000583663
2 *4723:X 0.000583663
3 *4728:A2 *4728:B1 8.7152e-06
4 *4728:A2 *4728:C1 5.61584e-05
5 *4728:A2 *964:42 0
6 *4728:A2 *1008:40 7.00225e-05
7 *4723:B1 *4728:A2 2.96689e-05
8 *4740:A *4728:A2 6.02999e-05
9 *4740:B *4728:A2 0.000253678
*RES
1 *4723:X *4728:A2 17.67 
*END

*D_NET *645 0.000321146
*CONN
*I *4728:B1 I *D sky130_fd_sc_hd__o211a_2
*I *4724:X O *D sky130_fd_sc_hd__o21a_2
*CAP
1 *4728:B1 0.000120054
2 *4724:X 0.000120054
3 *4728:B1 *4728:C1 8.7152e-06
4 *4728:B1 *4741:D 4.92192e-05
5 *4728:B1 *964:42 0
6 *4724:A1 *4728:B1 1.4389e-05
7 *4728:A2 *4728:B1 8.7152e-06
*RES
1 *4724:X *4728:B1 9.285 
*END

*D_NET *646 0.000782644
*CONN
*I *4726:B1 I *D sky130_fd_sc_hd__a21oi_2
*I *4725:X O *D sky130_fd_sc_hd__o211a_2
*CAP
1 *4726:B1 0.000139379
2 *4725:X 0.000139379
3 *4726:B1 *4725:A1 1.20741e-05
4 *4726:B1 *4726:A1 0
5 *4726:B1 *989:10 8.54818e-05
6 *4726:B1 *989:19 3.83194e-05
7 *4689:D *4726:B1 0.000232105
8 *370:31 *4726:B1 0.000135905
*RES
1 *4725:X *4726:B1 11.01 
*END

*D_NET *647 0.00128075
*CONN
*I *4727:C I *D sky130_fd_sc_hd__or3_2
*I *4726:Y O *D sky130_fd_sc_hd__a21oi_2
*CAP
1 *4727:C 0.000237338
2 *4726:Y 0.000237338
3 *4727:C *748:16 0.000305654
4 *4727:A *4727:C 4.66108e-05
5 *370:31 *4727:C 0.000453813
*RES
1 *4726:Y *4727:C 9.98 
*END

*D_NET *648 0.000349801
*CONN
*I *4728:C1 I *D sky130_fd_sc_hd__o211a_2
*I *4727:X O *D sky130_fd_sc_hd__or3_2
*CAP
1 *4728:C1 6.69244e-05
2 *4727:X 6.69244e-05
3 *4728:C1 *4741:D 2.03801e-05
4 *4728:C1 *989:10 2.75229e-05
5 *4728:A1 *4728:C1 2.49909e-05
6 *4728:A2 *4728:C1 5.61584e-05
7 *4728:B1 *4728:C1 8.7152e-06
8 *4740:A *4728:C1 7.23533e-05
9 *610:6 *4728:C1 5.83121e-06
*RES
1 *4727:X *4728:C1 9.03 
*END

*D_NET *649 0.00583148
*CONN
*I *4732:A2 I *D sky130_fd_sc_hd__o211a_2
*I *4728:X O *D sky130_fd_sc_hd__o211a_2
*CAP
1 *4732:A2 0.00143158
2 *4728:X 0.00143158
3 *4732:A2 *4732:B1 9.50342e-06
4 *4732:A2 *4856:A 3.00399e-05
5 *4732:A2 *4856:B 0.000274763
6 *4732:A2 *4880:B 8.65905e-05
7 *4732:A2 *653:52 0.000357377
8 *4732:A2 *914:60 0
9 *4732:A2 *915:58 1.73877e-05
10 *4732:A2 *915:82 4.49498e-05
11 *4732:A2 *915:93 6.65887e-05
12 *4732:A2 *915:108 1.0183e-05
13 *4732:A2 *966:31 0
14 *4732:A2 *989:10 8.8266e-05
15 *4732:A2 *1013:259 0
16 *4732:A2 *1120:55 2.76356e-05
17 *4732:A2 *1120:87 0.000253118
18 *4732:A2 *1123:26 0.000749023
19 *4732:A2 *1123:28 0.00010978
20 *4685:B *4732:A2 0.000350953
21 *5302:A *4732:A2 0.000236355
22 *234:21 *4732:A2 8.65905e-05
23 *601:16 *4732:A2 1.92979e-05
24 *601:31 *4732:A2 0.000149903
*RES
1 *4728:X *4732:A2 42.34 
*END

*D_NET *650 0.00101833
*CONN
*I *4732:B1 I *D sky130_fd_sc_hd__o211a_2
*I *4729:X O *D sky130_fd_sc_hd__o21a_2
*CAP
1 *4732:B1 0.000372921
2 *4729:X 0.000372921
3 *4732:B1 *4876:A2 0
4 *4732:B1 *4884:B1 0.000116853
5 *4732:B1 *966:31 0.000105086
6 *4732:B1 *1013:259 0
7 *4666:B *4732:B1 0
8 *4732:A2 *4732:B1 9.50342e-06
9 *4883:A1 *4732:B1 4.10476e-05
10 *585:12 *4732:B1 0
*RES
1 *4729:X *4732:B1 14.055 
*END

*D_NET *651 0.000533758
*CONN
*I *4731:A2 I *D sky130_fd_sc_hd__a211o_2
*I *4730:X O *D sky130_fd_sc_hd__a21o_2
*CAP
1 *4731:A2 0.000135253
2 *4730:X 0.000135253
3 *4731:A1 *4731:A2 0.000139245
4 *234:23 *4731:A2 0.000124007
5 *582:14 *4731:A2 0
*RES
1 *4730:X *4731:A2 9.975 
*END

*D_NET *652 0.00107612
*CONN
*I *4732:C1 I *D sky130_fd_sc_hd__o211a_2
*I *4731:X O *D sky130_fd_sc_hd__a211o_2
*CAP
1 *4732:C1 0.00030523
2 *4731:X 0.00030523
3 *4678:A *4732:C1 0.000102178
4 *4678:B *4732:C1 0.000187381
5 *4678:D *4732:C1 2.75145e-05
6 *4731:B1 *4732:C1 5.07419e-05
7 *599:10 *4732:C1 9.78429e-05
*RES
1 *4731:X *4732:C1 10.22 
*END

*D_NET *653 0.016256
*CONN
*I *4910:A2 I *D sky130_fd_sc_hd__o211a_2
*I *1271:DIODE I *D sky130_fd_sc_hd__diode_2
*I *5125:A I *D sky130_fd_sc_hd__clkdlybuf4s25_1
*I *1343:DIODE I *D sky130_fd_sc_hd__diode_2
*I *1365:DIODE I *D sky130_fd_sc_hd__diode_2
*I *5168:A I *D sky130_fd_sc_hd__clkdlybuf4s25_1
*I *1195:DIODE I *D sky130_fd_sc_hd__diode_2
*I *4732:X O *D sky130_fd_sc_hd__o211a_2
*CAP
1 *4910:A2 0.000255466
2 *1271:DIODE 0
3 *5125:A 3.06671e-05
4 *1343:DIODE 4.09561e-05
5 *1365:DIODE 6.49333e-05
6 *5168:A 0
7 *1195:DIODE 0.000689893
8 *4732:X 2.89988e-05
9 *653:84 0.00119133
10 *653:52 0.00112634
11 *653:48 0.00219336
12 *653:39 0.000395893
13 *653:26 0.00078907
14 *1343:DIODE *4965:A 6.28765e-05
15 *1343:DIODE *5143:A 0.000116158
16 *1365:DIODE *988:217 3.00381e-05
17 *1365:DIODE *1013:251 2.96334e-05
18 *4910:A2 *4907:A 5.4155e-06
19 *4910:A2 *4910:B1 4.78537e-05
20 *4910:A2 *4910:C1 8.40213e-05
21 *4910:A2 *922:21 0
22 *4910:A2 *922:32 0
23 *4910:A2 *1011:45 0.000182349
24 *5125:A *1198:DIODE 0.000119756
25 *5125:A *983:6 0.000119756
26 *653:26 *4881:C1 4.99619e-05
27 *653:26 *4882:B1 9.16237e-05
28 *653:26 *4889:A1 3.29528e-05
29 *653:26 *966:12 8.88715e-05
30 *653:26 *984:30 0.000163667
31 *653:26 *984:36 5.16418e-05
32 *653:26 *1120:61 2.24905e-05
33 *653:26 *1127:8 1.34594e-05
34 *653:26 *1127:22 7.58604e-05
35 *653:39 *1263:DIODE 0.000202095
36 *653:39 *4881:C1 3.66286e-05
37 *653:39 *4889:A2 0
38 *653:39 *966:12 5.05437e-05
39 *653:39 *1125:30 2.16917e-05
40 *653:48 *991:30 0.00038374
41 *653:48 *1013:251 0.000215729
42 *653:52 *1364:DIODE 0.00013521
43 *653:52 *4850:A 0
44 *653:52 *4851:C1 6.95814e-05
45 *653:52 *4858:B1 0.000136182
46 *653:52 *4915:A2 0.000181376
47 *653:52 *4965:A 3.23391e-05
48 *653:52 *4965:B 0.000134096
49 *653:52 *5143:A 0.000311131
50 *653:52 *656:83 0.00166122
51 *653:52 *914:60 0
52 *653:52 *1120:87 0.0002014
53 *653:52 *1120:96 0.000404402
54 *653:52 *1125:59 0
55 *653:84 *1269:DIODE 0.000727501
56 *653:84 *1342:DIODE 8.51879e-05
57 *653:84 *4902:A1 1.4399e-05
58 *653:84 *4902:S 0.000425307
59 *653:84 *5123:A 7.92209e-05
60 *653:84 *922:21 0
61 *653:84 *963:73 0.000107536
62 *653:84 *966:66 1.87977e-05
63 *653:84 *991:30 0.000460254
64 *653:84 *1011:45 9.30787e-05
65 *653:84 *1013:251 0.000471711
66 *4732:A2 *653:52 0.000357377
67 *4741:A *653:84 0.00018371
68 *4741:C *1195:DIODE 4.66108e-05
69 *4741:C *653:26 0.000343414
70 *5129:A *653:52 0.000183403
71 *5302:A *653:52 9.37839e-05
72 *431:16 *4910:A2 1.17409e-05
73 *601:16 *653:52 1.92979e-05
74 *601:31 *653:52 0.000160979
*RES
1 *4732:X *1195:DIODE 3.65 
2 *1195:DIODE *653:26 16.655 
3 *653:26 *5168:A 1.6 
4 *653:26 *653:39 7.195 
5 *653:39 *1365:DIODE 2.74 
6 *653:39 *653:48 5.28 
7 *653:48 *653:52 35.255 
8 *653:52 *1343:DIODE 4.98 
9 *653:52 *5125:A 4.74 
10 *653:48 *653:84 24.515 
11 *653:84 *1271:DIODE 3.6 
12 *653:84 *4910:A2 8.295 
*END

*D_NET *654 0.000276441
*CONN
*I *4735:B1 I *D sky130_fd_sc_hd__a31oi_2
*I *4733:X O *D sky130_fd_sc_hd__a21o_2
*CAP
1 *4735:B1 8.01411e-05
2 *4733:X 8.01411e-05
3 *4644:A *4735:B1 5.33085e-05
4 *4733:A1 *4735:B1 6.28498e-05
5 *4733:A2 *4735:B1 0
*RES
1 *4733:X *4735:B1 8.835 
*END

*D_NET *655 0.000868025
*CONN
*I *4735:A3 I *D sky130_fd_sc_hd__a31oi_2
*I *4734:Y O *D sky130_fd_sc_hd__o21bai_2
*CAP
1 *4735:A3 0.000355211
2 *4734:Y 0.000355211
3 *4644:D_N *4735:A3 0
4 *4647:A *4735:A3 0
5 *562:12 *4735:A3 0.000157602
6 *565:8 *4735:A3 0
7 *566:14 *4735:A3 0
8 *568:10 *4735:A3 0
*RES
1 *4734:Y *4735:A3 13.17 
*END

*D_NET *656 0.0155278
*CONN
*I *5167:A I *D sky130_fd_sc_hd__clkdlybuf4s25_1
*I *1364:DIODE I *D sky130_fd_sc_hd__diode_2
*I *5166:A I *D sky130_fd_sc_hd__clkdlybuf4s25_1
*I *4910:B1 I *D sky130_fd_sc_hd__o211a_2
*I *1272:DIODE I *D sky130_fd_sc_hd__diode_2
*I *1363:DIODE I *D sky130_fd_sc_hd__diode_2
*I *1196:DIODE I *D sky130_fd_sc_hd__diode_2
*I *4735:Y O *D sky130_fd_sc_hd__a31oi_2
*CAP
1 *5167:A 3.51218e-05
2 *1364:DIODE 0.000189413
3 *5166:A 9.73191e-06
4 *4910:B1 9.07474e-05
5 *1272:DIODE 0
6 *1363:DIODE 0.000400326
7 *1196:DIODE 0.000777001
8 *4735:Y 6.97767e-05
9 *656:83 0.00147206
10 *656:68 0.0013093
11 *656:47 0.000782348
12 *656:24 0.0017471
13 *1363:DIODE *4914:B 0.000422743
14 *1363:DIODE *4916:B1 0
15 *1364:DIODE *4965:A 0.00013521
16 *4910:B1 *4907:A 0
17 *4910:B1 *4910:C1 8.23457e-05
18 *5166:A *4916:B1 4.82863e-05
19 *5167:A *4745:A 0.00015806
20 *5167:A *4747:A2 0.00015806
21 *656:24 *4895:B 0.000116853
22 *656:24 *4896:C 0
23 *656:24 *921:37 7.00066e-05
24 *656:24 *921:39 1.1561e-05
25 *656:24 *966:191 0
26 *656:24 *966:216 0
27 *656:47 *4308:A 4.82919e-05
28 *656:47 *4906:A1 8.23457e-05
29 *656:47 *4906:A2 0.000127316
30 *656:47 *4907:A 7.99093e-05
31 *656:47 *4909:A 8.57024e-05
32 *656:47 *4914:B 0.000528665
33 *656:47 *795:17 0.000442386
34 *656:47 *922:47 0.000177015
35 *656:68 *4916:B1 0.000112349
36 *656:68 *1125:6 4.7101e-05
37 *656:83 *4858:B1 0.000134509
38 *656:83 *4858:B2 3.95269e-05
39 *656:83 *4915:A2 0.000330441
40 *656:83 *4916:A2 2.54692e-05
41 *656:83 *4916:B1 0.000120836
42 *656:83 *4965:A 0.000844399
43 *656:83 *4965:B 0.000137329
44 *656:83 *5165:A 0
45 *656:83 *964:42 0.000531748
46 *656:83 *984:12 0
47 *656:83 *1029:67 0.000116165
48 *656:83 *1123:99 0
49 *656:83 *1125:12 0.000154223
50 *4635:B *656:24 0
51 *4644:A *656:24 7.55391e-05
52 *4644:B *656:24 2.46089e-05
53 *4651:B *656:24 0.000225189
54 *4735:A1 *1196:DIODE 9.52646e-05
55 *4910:A2 *4910:B1 4.78537e-05
56 *4917:A1 *5166:A 4.82863e-05
57 *4917:A1 *656:68 0.000278117
58 *232:8 *656:47 8.65961e-05
59 *375:54 *1364:DIODE 0.000193806
60 *431:16 *4910:B1 0.000104153
61 *431:16 *656:47 7.00889e-06
62 *555:20 *656:24 4.82863e-05
63 *557:10 *1196:DIODE 4.82919e-05
64 *565:8 *656:24 0
65 *570:16 *656:24 0.00019656
66 *573:8 *1363:DIODE 0
67 *653:52 *1364:DIODE 0.00013521
68 *653:52 *656:83 0.00166122
*RES
1 *4735:Y *1196:DIODE 4.685 
2 *1196:DIODE *656:24 19.16 
3 *656:24 *1363:DIODE 10.37 
4 *656:24 *656:47 13.8 
5 *656:47 *1272:DIODE 1.6 
6 *656:47 *4910:B1 3.79 
7 *1363:DIODE *656:68 4.12 
8 *656:68 *5166:A 2.05 
9 *656:68 *656:83 39.38 
10 *656:83 *1364:DIODE 7.065 
11 *656:83 *5167:A 5.085 
*END

*D_NET *657 0.00813702
*CONN
*I *5161:A I *D sky130_fd_sc_hd__clkdlybuf4s25_1
*I *5162:A I *D sky130_fd_sc_hd__clkdlybuf4s25_1
*I *4819:A I *D sky130_fd_sc_hd__or2_2
*I *5160:A I *D sky130_fd_sc_hd__clkdlybuf4s25_1
*I *4736:Y O *D sky130_fd_sc_hd__o21ai_2
*CAP
1 *5161:A 0
2 *5162:A 0.00051063
3 *4819:A 0
4 *5160:A 0.000171082
5 *4736:Y 0.000150569
6 *657:34 0.000848815
7 *657:21 0.00157801
8 *657:10 0.00156148
9 *5162:A *4824:A1 1.12578e-05
10 *5162:A *4824:A2 0.000234674
11 *5162:A *4824:A3 2.30292e-05
12 *5162:A *4826:A 0.00012083
13 *5162:A *4828:C1 3.72916e-05
14 *5162:A *910:81 3.23663e-05
15 *5162:A *1121:10 2.11084e-05
16 *657:10 *4736:B1 4.99619e-05
17 *657:10 *4790:A1 0.000138175
18 *657:10 *983:90 0.000278117
19 *657:10 *1119:10 0
20 *657:21 *4936:A 1.26548e-05
21 *657:21 *4937:C_N 0.000136877
22 *657:21 *4938:A1 0.000134509
23 *657:21 *5066:RESET_B 0
24 *657:21 *908:16 0
25 *657:21 *908:31 0
26 *657:21 *925:32 0
27 *657:21 *926:8 8.26602e-05
28 *657:21 *926:47 0.000134538
29 *657:21 *986:133 0.000493679
30 *657:21 *986:135 0.000185405
31 *657:21 *986:139 0.000446541
32 *657:21 *990:63 0.000461295
33 *657:21 *990:93 0
34 *657:21 *1023:83 0
35 *657:21 *1024:44 0
36 *657:34 *5066:RESET_B 0
37 *657:34 *716:36 0
38 *657:34 *716:42 0
39 *657:34 *910:81 2.75229e-05
40 *657:34 *986:133 0.000101945
41 *657:34 *1013:16 0.000151999
*RES
1 *4736:Y *657:10 7.755 
2 *657:10 *5160:A 6.12 
3 *657:10 *657:21 26.88 
4 *657:21 *4819:A 3.6 
5 *657:21 *657:34 8.42 
6 *657:34 *5162:A 10.81 
7 *657:34 *5161:A 1.6 
*END

*D_NET *658 0.000427244
*CONN
*I *4738:B I *D sky130_fd_sc_hd__or4b_2
*I *4737:X O *D sky130_fd_sc_hd__a211o_2
*CAP
1 *4738:B 0.000162504
2 *4737:X 0.000162504
3 *4738:B *4738:A 7.47215e-05
4 *4738:B *4795:B 0
5 *4738:B *851:18 0
6 *4738:B *1119:118 0
7 *4737:A2 *4738:B 2.75145e-05
*RES
1 *4737:X *4738:B 9.795 
*END

*D_NET *659 0.00225029
*CONN
*I *4739:C I *D sky130_fd_sc_hd__or3_2
*I *4738:X O *D sky130_fd_sc_hd__or4b_2
*CAP
1 *4739:C 0.000381427
2 *4738:X 0.000381427
3 *4739:C *4737:A1 0.000530842
4 *4739:C *4795:C 5.99393e-05
5 *4739:C *4798:A 0.000310389
6 *4739:C *4970:C 4.05193e-05
7 *4739:C *907:22 0.000201503
8 *4739:C *907:63 0.000230435
9 *4739:C *1023:29 0.00011381
*RES
1 *4738:X *4739:C 16.38 
*END

*D_NET *660 0.00429437
*CONN
*I *4740:C I *D sky130_fd_sc_hd__or3_2
*I *4739:X O *D sky130_fd_sc_hd__or3_2
*CAP
1 *4740:C 0.00131198
2 *4739:X 0.00131198
3 *4740:C *1314:DIODE 3.81362e-05
4 *4740:C *4691:A 9.6042e-05
5 *4740:C *4737:A1 3.4687e-05
6 *4740:C *4741:D 4.00508e-06
7 *4740:C *4800:B 0
8 *4740:C *4980:B 0
9 *4740:C *5143:A 0
10 *4740:C *907:10 0
11 *4740:C *907:14 0
12 *4740:C *1008:40 4.75399e-05
13 *4740:C *1122:162 0
14 *4691:B *4740:C 0.000182055
15 *4693:A1 *4740:C 9.29751e-06
16 *4694:B1 *4740:C 0.00015829
17 *4695:C *4740:C 0.000164686
18 *4721:A1 *4740:C 0
19 *4722:A *4740:C 0.000118454
20 *4722:B *4740:C 8.39681e-05
21 *4723:A2 *4740:C 0.000583132
22 *4739:B *4740:C 8.53113e-06
23 *4740:B *4740:C 0
24 *5127:A *4740:C 6.59826e-05
25 *611:10 *4740:C 1.23511e-05
26 *612:10 *4740:C 6.32598e-05
*RES
1 *4739:X *4740:C 32.775 
*END

*D_NET *661 0.00343724
*CONN
*I *4741:D I *D sky130_fd_sc_hd__or4_2
*I *4740:X O *D sky130_fd_sc_hd__or3_2
*CAP
1 *4741:D 0.00104191
2 *4740:X 0.00104191
3 *4741:D *1249:DIODE 0
4 *4741:D *4861:B 2.87867e-05
5 *4741:D *4984:A1 0
6 *4741:D *5071:D 5.39718e-05
7 *4741:D *966:12 9.54399e-05
8 *4741:D *986:88 0
9 *4741:D *1008:40 3.41441e-05
10 *4741:D *1123:22 8.78219e-05
11 *4741:D *1124:10 0.000134509
12 *4727:B *4741:D 0.000155131
13 *4728:B1 *4741:D 4.92192e-05
14 *4728:C1 *4741:D 2.03801e-05
15 *4740:A *4741:D 0.000265637
16 *4740:C *4741:D 4.00508e-06
17 *4741:C *4741:D 8.00928e-05
18 *5127:A *4741:D 0
19 *601:44 *4741:D 8.78813e-05
20 *602:10 *4741:D 0.000128176
21 *607:10 *4741:D 0.000128216
*RES
1 *4740:X *4741:D 28.98 
*END

*D_NET *662 0.000915725
*CONN
*I *5165:A I *D sky130_fd_sc_hd__clkdlybuf4s25_1
*I *4741:X O *D sky130_fd_sc_hd__or4_2
*CAP
1 *5165:A 0.000243394
2 *4741:X 0.000243394
3 *5165:A *1249:DIODE 0.000163992
4 *5165:A *1323:DIODE 0.000118527
5 *5165:A *4858:B2 8.08153e-06
6 *5165:A *964:42 1.34361e-05
7 *5165:A *1013:251 0.0001249
8 *5165:A *1123:99 0
9 *656:83 *5165:A 0
*RES
1 *4741:X *5165:A 12.015 
*END

*D_NET *663 0.00246415
*CONN
*I *4936:B I *D sky130_fd_sc_hd__or2_2
*I *4931:B I *D sky130_fd_sc_hd__nor3_2
*I *4743:B I *D sky130_fd_sc_hd__and2_2
*I *4742:X O *D sky130_fd_sc_hd__and3_2
*CAP
1 *4936:B 0
2 *4931:B 0.000349572
3 *4743:B 0.000141476
4 *4742:X 5.58136e-05
5 *663:12 0.000529915
6 *663:8 9.46807e-05
7 *4743:B *4938:A2 0.000218084
8 *4743:B *664:12 9.14049e-05
9 *4743:B *990:65 8.23457e-05
10 *4743:B *1124:73 8.06744e-05
11 *4931:B *4931:A 8.40213e-05
12 *4931:B *4937:B 4.66108e-05
13 *4931:B *1023:83 4.01778e-05
14 *4931:B *1118:31 8.26175e-05
15 *663:8 *4737:B1 0.000231628
16 *663:8 *4738:C 5.68717e-05
17 *663:8 *4936:A 4.82919e-05
18 *663:8 *4937:C_N 4.66108e-05
19 *663:12 *4938:A2 3.09233e-05
20 *663:12 *986:152 4.5783e-05
21 *663:12 *1124:73 0.000106648
*RES
1 *4742:X *663:8 3.79 
2 *663:8 *663:12 3.38 
3 *663:12 *4743:B 7.05 
4 *663:12 *4931:B 8.895 
5 *663:8 *4936:B 1.6 
*END

*D_NET *664 0.00812302
*CONN
*I *4937:B I *D sky130_fd_sc_hd__nor3b_2
*I *4744:B I *D sky130_fd_sc_hd__xnor2_2
*I *4751:A2 I *D sky130_fd_sc_hd__a21oi_2
*I *4752:C I *D sky130_fd_sc_hd__and3_2
*I *4743:X O *D sky130_fd_sc_hd__and2_2
*CAP
1 *4937:B 6.65452e-05
2 *4744:B 0.000354884
3 *4751:A2 6.64472e-05
4 *4752:C 0
5 *4743:X 6.80274e-05
6 *664:27 0.000516211
7 *664:18 0.00139552
8 *664:12 0.00143521
9 *4744:B *4752:B 1.64436e-05
10 *4744:B *4753:A 9.30717e-05
11 *4744:B *4753:B 1.53032e-05
12 *4744:B *4755:C1 6.81237e-05
13 *4744:B *4756:B1 0.00020613
14 *4744:B *672:8 7.21296e-06
15 *4744:B *927:39 0.000123828
16 *4744:B *927:43 4.6813e-05
17 *4744:B *928:14 0
18 *4744:B *983:23 0.00010501
19 *4744:B *983:35 1.07797e-05
20 *4744:B *985:48 1.50624e-05
21 *4744:B *1126:20 0.000351867
22 *4751:A2 *4751:A1 8.40213e-05
23 *4937:B *4937:A 1.78424e-05
24 *4937:B *1118:31 4.77277e-05
25 *664:12 *711:23 4.82863e-05
26 *664:12 *1124:73 9.30717e-05
27 *664:18 *1210:DIODE 0
28 *664:18 *4713:A1 7.81556e-05
29 *664:18 *4738:A 2.49909e-05
30 *664:18 *4738:C 0.000179027
31 *664:18 *4798:A 8.43423e-05
32 *664:18 *4798:C 8.65905e-05
33 *664:18 *4937:A 8.49205e-05
34 *664:18 *985:63 0
35 *664:18 *1118:31 0.000120655
36 *664:27 *4713:A1 4.55864e-06
37 *664:27 *4752:B 9.54399e-05
38 *664:27 *927:43 5.85304e-05
39 *664:27 *927:45 2.84757e-05
40 *664:27 *1119:74 0
41 *4738:D_N *664:18 0.00145969
42 *4743:B *664:12 9.14049e-05
43 *4931:B *4937:B 4.66108e-05
44 *380:28 *664:18 0.000426195
*RES
1 *4743:X *664:12 7.175 
2 *664:12 *664:18 27.71 
3 *664:18 *4752:C 3.6 
4 *664:18 *664:27 2.145 
5 *664:27 *4751:A2 4.755 
6 *664:27 *4744:B 12.93 
7 *664:12 *4937:B 3.115 
*END

*D_NET *665 0.000822971
*CONN
*I *4746:C1 I *D sky130_fd_sc_hd__o211a_2
*I *4744:Y O *D sky130_fd_sc_hd__xnor2_2
*CAP
1 *4746:C1 0.000205588
2 *4744:Y 0.000205588
3 *4746:C1 *983:23 9.14049e-05
4 *4746:C1 *1122:30 0.000302194
5 *4746:C1 *1126:10 5.53249e-06
6 *4746:C1 *1126:20 1.26626e-05
*RES
1 *4744:Y *4746:C1 10.755 
*END

*D_NET *666 0.00168599
*CONN
*I *4747:A2 I *D sky130_fd_sc_hd__a211o_2
*I *4745:Y O *D sky130_fd_sc_hd__nand2_2
*CAP
1 *4747:A2 0.000242174
2 *4745:Y 0.000242174
3 *4747:A2 *4745:A 0.000115714
4 *4747:A2 *4746:A1 0.000414254
5 *4747:A2 *987:57 0.000206176
6 *4747:A2 *1013:38 0.000257478
7 *5127:A *4747:A2 4.99619e-05
8 *5167:A *4747:A2 0.00015806
*RES
1 *4745:Y *4747:A2 10.91 
*END

*D_NET *667 0.000600099
*CONN
*I *4747:B1 I *D sky130_fd_sc_hd__a211o_2
*I *4746:X O *D sky130_fd_sc_hd__o211a_2
*CAP
1 *4747:B1 7.71997e-05
2 *4746:X 7.71997e-05
3 *4747:B1 *1199:DIODE 0.000220905
4 *4747:B1 *4746:A1 0.000114492
5 *4747:B1 *4747:A1 1.73877e-05
6 *4747:B1 *1126:10 7.21296e-06
7 *375:54 *4747:B1 8.57024e-05
*RES
1 *4746:X *4747:B1 9.885 
*END

*D_NET *668 0.000517584
*CONN
*I *4749:A2 I *D sky130_fd_sc_hd__a211o_2
*I *4747:X O *D sky130_fd_sc_hd__a211o_2
*CAP
1 *4749:A2 0.000163696
2 *4747:X 0.000163696
3 *4749:A2 *4749:A1 3.70488e-05
4 *4749:A2 *1003:12 3.24882e-05
5 *4749:A2 *1013:38 0.000120655
*RES
1 *4747:X *4749:A2 6.08 
*END

*D_NET *669 0.000404893
*CONN
*I *4749:B1 I *D sky130_fd_sc_hd__a211o_2
*I *4748:Y O *D sky130_fd_sc_hd__nor2_2
*CAP
1 *4749:B1 3.8455e-05
2 *4748:Y 3.8455e-05
3 *4749:B1 *1208:DIODE 3.25831e-05
4 *4749:B1 *1003:25 0.000163992
5 *4749:B1 *1013:42 0.000131408
*RES
1 *4748:Y *4749:B1 9.09 
*END

*D_NET *670 0.00345233
*CONN
*I *4750:A I *D sky130_fd_sc_hd__inv_2
*I *4971:B1 I *D sky130_fd_sc_hd__o32a_2
*I *4749:X O *D sky130_fd_sc_hd__a211o_2
*CAP
1 *4750:A 0
2 *4971:B1 0.000477738
3 *4749:X 0.000567066
4 *670:14 0.0010448
5 *4971:B1 *4971:A3 8.53113e-06
6 *4971:B1 *4975:B1 2.0851e-06
7 *4971:B1 *4978:A 0
8 *4971:B1 *990:189 0.000898329
9 *670:14 *5056:D 0.000144621
10 *670:14 *844:12 0
11 *670:14 *927:10 0
12 *670:14 *955:6 4.66108e-05
13 *4976:B2 *4971:B1 0.000162412
14 *429:12 *4971:B1 0.00010013
*RES
1 *4749:X *670:14 12.365 
2 *670:14 *4971:B1 17.3 
3 *670:14 *4750:A 1.6 
*END

*D_NET *671 0.000332527
*CONN
*I *4753:A I *D sky130_fd_sc_hd__or2_2
*I *4751:Y O *D sky130_fd_sc_hd__a21oi_2
*CAP
1 *4753:A 4.67248e-05
2 *4751:Y 4.67248e-05
3 *4753:A *1206:DIODE 4.82863e-05
4 *4753:A *4753:B 4.94326e-05
5 *4753:A *1122:162 4.82863e-05
6 *4744:B *4753:A 9.30717e-05
*RES
1 *4751:Y *4753:A 8.775 
*END

*D_NET *672 0.00246156
*CONN
*I *4753:B I *D sky130_fd_sc_hd__or2_2
*I *4759:B I *D sky130_fd_sc_hd__and2_2
*I *4761:B I *D sky130_fd_sc_hd__or2_2
*I *4752:X O *D sky130_fd_sc_hd__and3_2
*CAP
1 *4753:B 6.88924e-05
2 *4759:B 0.000141155
3 *4761:B 9.73191e-06
4 *4752:X 5.01598e-05
5 *672:12 0.000219736
6 *672:8 0.000187901
7 *4753:B *1206:DIODE 4.82863e-05
8 *4753:B *928:14 6.92253e-05
9 *4753:B *1122:162 4.82863e-05
10 *4759:B *4760:A 4.82863e-05
11 *4759:B *4762:C1 0.000132714
12 *4759:B *1122:77 3.68862e-05
13 *4759:B *1122:83 7.61339e-05
14 *4759:B *1126:28 0.000190883
15 *4759:B *1126:36 0.00015481
16 *4761:B *1205:DIODE 4.82863e-05
17 *4761:B *928:20 4.82863e-05
18 *672:8 *4752:B 0.00011852
19 *672:8 *928:14 1.52184e-05
20 *672:8 *1119:74 4.40643e-05
21 *672:12 *1205:DIODE 0.00030448
22 *672:12 *4752:B 8.49205e-05
23 *672:12 *928:20 0.000219559
24 *4744:B *4753:B 1.53032e-05
25 *4744:B *672:8 7.21296e-06
26 *4753:A *4753:B 4.94326e-05
27 *380:28 *4759:B 2.3192e-05
*RES
1 *4752:X *672:8 5.235 
2 *672:8 *672:12 4.865 
3 *672:12 *4761:B 2.05 
4 *672:12 *4759:B 10.235 
5 *672:8 *4753:B 5.685 
*END

*D_NET *673 0.00034965
*CONN
*I *4755:C1 I *D sky130_fd_sc_hd__o211a_2
*I *4753:X O *D sky130_fd_sc_hd__or2_2
*CAP
1 *4755:C1 9.81511e-05
2 *4753:X 9.81511e-05
3 *4755:C1 *1206:DIODE 2.11084e-05
4 *4755:C1 *928:10 4.18603e-06
5 *4755:C1 *928:14 5.04256e-05
6 *4755:C1 *1126:20 9.50342e-06
7 *4744:B *4755:C1 6.81237e-05
*RES
1 *4753:X *4755:C1 9.285 
*END

*D_NET *674 0.000383523
*CONN
*I *4756:A2 I *D sky130_fd_sc_hd__a211o_2
*I *4754:Y O *D sky130_fd_sc_hd__nand2_2
*CAP
1 *4756:A2 7.21805e-05
2 *4754:Y 7.21805e-05
3 *4756:A2 *4747:A1 1.22762e-05
4 *4756:A2 *4756:A1 4.82919e-05
5 *4756:A2 *4970:B 4.82919e-05
6 *4756:A2 *928:10 4.94326e-05
7 *4756:A2 *1119:74 7.21296e-06
8 *4756:A2 *1126:20 7.36562e-05
*RES
1 *4754:Y *4756:A2 9.285 
*END

*D_NET *675 0.000825488
*CONN
*I *4756:B1 I *D sky130_fd_sc_hd__a211o_2
*I *4755:X O *D sky130_fd_sc_hd__o211a_2
*CAP
1 *4756:B1 0.000149616
2 *4755:X 0.000149616
3 *4756:B1 *4755:A1 2.45744e-05
4 *4756:B1 *4755:A2 1.21231e-05
5 *4756:B1 *964:16 7.00889e-06
6 *4756:B1 *983:23 0.000130707
7 *4756:B1 *983:35 0.000123702
8 *4756:B1 *985:29 2.18022e-05
9 *4756:B1 *985:48 2.08258e-07
10 *4744:B *4756:B1 0.00020613
*RES
1 *4755:X *4756:B1 11.085 
*END

*D_NET *676 0.00185279
*CONN
*I *4758:A2 I *D sky130_fd_sc_hd__a21oi_2
*I *4756:X O *D sky130_fd_sc_hd__a211o_2
*CAP
1 *4758:A2 0.000444701
2 *4756:X 0.000444701
3 *4758:A2 *1306:DIODE 4.82919e-05
4 *4758:A2 *4747:A1 0.000176647
5 *4758:A2 *4758:A1 0.000203178
6 *4758:A2 *4970:B 4.99619e-05
7 *4758:A2 *5189:A 8.49205e-05
8 *4758:A2 *956:6 8.8266e-05
9 *4758:A2 *1005:10 4.82919e-05
10 *4758:A2 *1122:30 8.23457e-05
11 *4758:A2 *1126:20 0
12 *376:16 *4758:A2 0.000181485
*RES
1 *4756:X *4758:A2 16.47 
*END

*D_NET *677 0.000648953
*CONN
*I *4758:B1 I *D sky130_fd_sc_hd__a21oi_2
*I *4757:Y O *D sky130_fd_sc_hd__o21ai_2
*CAP
1 *4758:B1 0.000219438
2 *4757:Y 0.000219438
3 *4758:B1 *5057:D 0
4 *4758:B1 *990:175 0
5 *4758:B1 *1005:31 0.000210077
6 *4758:B1 *1023:174 0
*RES
1 *4757:Y *4758:B1 11.64 
*END

*D_NET *678 0.00378581
*CONN
*I *4760:A I *D sky130_fd_sc_hd__inv_2
*I *4767:B I *D sky130_fd_sc_hd__xnor2_2
*I *4774:A2 I *D sky130_fd_sc_hd__a21oi_2
*I *4773:C I *D sky130_fd_sc_hd__and3_2
*I *4759:X O *D sky130_fd_sc_hd__and2_2
*CAP
1 *4760:A 8.13519e-05
2 *4767:B 3.70584e-05
3 *4774:A2 0
4 *4773:C 0.000214567
5 *4759:X 0.000288739
6 *678:12 0.000421987
7 *678:10 0.000451865
8 *4760:A *4713:A1 0.000169435
9 *4760:A *4759:A 4.66108e-05
10 *4773:C *4773:A 8.38112e-05
11 *4773:C *4773:B 6.20952e-05
12 *4773:C *4781:A 0
13 *4773:C *4785:B1 0.00013521
14 *4773:C *4786:B1 0
15 *4773:C *987:203 1.34594e-05
16 *678:10 *983:39 0.000484176
17 *678:10 *985:63 0.000273508
18 *678:12 *4769:C1 0.000117832
19 *678:12 *4773:B 1.56477e-05
20 *678:12 *930:73 0.000146357
21 *678:12 *931:46 1.23331e-05
22 *678:12 *983:39 0.000157595
23 *678:12 *983:43 0.000187044
24 *678:12 *985:63 3.57768e-05
25 *4759:B *4760:A 4.82863e-05
26 *380:28 *4760:A 3.31272e-05
27 *380:28 *678:10 8.23457e-05
28 *622:44 *4767:B 6.58339e-05
29 *626:14 *4767:B 0.000119756
*RES
1 *4759:X *678:10 10.11 
2 *678:10 *678:12 6.225 
3 *678:12 *4773:C 7.395 
4 *678:12 *4774:A2 3.6 
5 *678:10 *4767:B 4.74 
6 *4759:X *4760:A 5.495 
*END

*D_NET *679 0.000369904
*CONN
*I *4763:B1 I *D sky130_fd_sc_hd__a32o_2
*I *4760:Y O *D sky130_fd_sc_hd__inv_2
*CAP
1 *4763:B1 4.99784e-05
2 *4760:Y 4.99784e-05
3 *4763:B1 *4761:A 4.88568e-05
4 *4763:B1 *4763:B2 1.86443e-05
5 *4763:B1 *929:44 7.23533e-05
6 *4763:B1 *1005:31 0.000111448
7 *635:12 *4763:B1 1.86443e-05
*RES
1 *4760:Y *4763:B1 8.76 
*END

*D_NET *680 0.000635601
*CONN
*I *4762:C1 I *D sky130_fd_sc_hd__o211a_2
*I *4761:X O *D sky130_fd_sc_hd__or2_2
*CAP
1 *4762:C1 0.000147135
2 *4761:X 0.000147135
3 *4762:C1 *928:20 6.71882e-05
4 *4762:C1 *1122:77 0.000132714
5 *4762:C1 *1122:83 8.7152e-06
6 *4759:B *4762:C1 0.000132714
*RES
1 *4761:X *4762:C1 9.975 
*END

*D_NET *681 0.000995576
*CONN
*I *4763:B2 I *D sky130_fd_sc_hd__a32o_2
*I *4762:X O *D sky130_fd_sc_hd__o211a_2
*CAP
1 *4763:B2 0.00028192
2 *4762:X 0.00028192
3 *4763:B2 *4762:A1 7.24346e-05
4 *4763:B2 *4763:A1 8.23457e-05
5 *4763:B2 *985:48 3.74161e-05
6 *4763:B1 *4763:B2 1.86443e-05
7 *635:12 *4763:B2 0.000220896
*RES
1 *4762:X *4763:B2 8.135 
*END

*D_NET *682 0.000739166
*CONN
*I *4764:A2 I *D sky130_fd_sc_hd__a21oi_2
*I *4763:X O *D sky130_fd_sc_hd__a32o_2
*CAP
1 *4764:A2 0.000245211
2 *4763:X 0.000245211
3 *4764:A2 *1205:DIODE 9.54469e-05
4 *4764:A2 *1309:DIODE 2.31298e-05
5 *4764:A2 *4761:A 0
6 *4764:A2 *4764:A1 4.82863e-05
7 *4764:A2 *5058:RESET_B 4.82863e-05
8 *4764:A2 *990:175 1.83756e-05
9 *4764:A2 *1005:31 0
10 *4764:A2 *1023:174 1.52184e-05
11 *4764:A2 *1084:18 0
*RES
1 *4763:X *4764:A2 11.76 
*END

*D_NET *683 0.00222769
*CONN
*I *4956:B I *D sky130_fd_sc_hd__nor3_2
*I *4957:A1 I *D sky130_fd_sc_hd__o21a_2
*I *4766:A I *D sky130_fd_sc_hd__nor2_2
*I *4764:Y O *D sky130_fd_sc_hd__a21oi_2
*CAP
1 *4956:B 0.000191198
2 *4957:A1 0
3 *4766:A 0.000149169
4 *4764:Y 0.000306238
5 *683:24 0.000171733
6 *683:22 0.000520001
7 *4766:A *4766:B 2.0514e-05
8 *4766:A *684:6 4.66108e-05
9 *4766:A *684:10 1.46744e-05
10 *4956:B *4978:A 0.00013994
11 *4956:B *990:189 0
12 *683:22 *4764:B1 5.20968e-05
13 *683:22 *4765:B1 3.00483e-05
14 *683:22 *5058:CLK 6.97034e-05
15 *683:22 *684:6 3.83041e-05
16 *683:22 *684:10 0
17 *683:22 *990:189 8.8266e-05
18 *683:24 *684:6 3.74161e-05
19 *4765:A1 *4956:B 2.24423e-05
20 *4765:A1 *683:22 3.89528e-05
21 *4956:A *4766:A 4.82863e-05
22 *4956:A *4956:B 8.23457e-05
23 *228:78 *4766:A 0.000159747
*RES
1 *4764:Y *683:22 11.225 
2 *683:22 *683:24 0.45 
3 *683:24 *4766:A 4.465 
4 *683:24 *4957:A1 1.6 
5 *683:22 *4956:B 9.08 
*END

*D_NET *684 0.00133485
*CONN
*I *4957:A2 I *D sky130_fd_sc_hd__o21a_2
*I *4956:C I *D sky130_fd_sc_hd__nor3_2
*I *4766:B I *D sky130_fd_sc_hd__nor2_2
*I *4765:X O *D sky130_fd_sc_hd__a21o_2
*CAP
1 *4957:A2 0
2 *4956:C 6.74307e-05
3 *4766:B 0.000147608
4 *4765:X 5.27205e-05
5 *684:10 0.000292902
6 *684:6 0.000130584
7 *4956:C *4967:A2 0.000120186
8 *4956:C *960:31 4.65643e-05
9 *4766:A *4766:B 2.0514e-05
10 *4766:A *684:6 4.66108e-05
11 *4766:A *684:10 1.46744e-05
12 *4956:A *4956:C 0.000103192
13 *4956:A *684:10 3.83041e-05
14 *228:78 *4766:B 0.000122331
15 *228:78 *684:10 4.82919e-05
16 *229:53 *4956:C 7.21296e-06
17 *683:22 *684:6 3.83041e-05
18 *683:22 *684:10 0
19 *683:24 *684:6 3.74161e-05
*RES
1 *4765:X *684:6 2.74 
2 *684:6 *684:10 1.5 
3 *684:10 *4766:B 4.045 
4 *684:10 *4956:C 8 
5 *684:6 *4957:A2 1.6 
*END

*D_NET *685 0.000421029
*CONN
*I *4769:C1 I *D sky130_fd_sc_hd__o211a_2
*I *4767:Y O *D sky130_fd_sc_hd__xnor2_2
*CAP
1 *4769:C1 7.02138e-05
2 *4767:Y 7.02138e-05
3 *4769:C1 *985:63 0.000116158
4 *626:14 *4769:C1 4.66108e-05
5 *678:12 *4769:C1 0.000117832
*RES
1 *4767:Y *4769:C1 9.03 
*END

*D_NET *686 0.000589249
*CONN
*I *4770:A2 I *D sky130_fd_sc_hd__a211o_2
*I *4768:Y O *D sky130_fd_sc_hd__nand2_2
*CAP
1 *4770:A2 0.000135288
2 *4768:Y 0.000135288
3 *4770:A2 *4770:B1 1.7175e-05
4 *4770:A2 *4771:B1 0.000185405
5 *4770:A2 *987:188 0
6 *626:14 *4770:A2 0.000116093
*RES
1 *4768:Y *4770:A2 10.485 
*END

*D_NET *687 0.000774949
*CONN
*I *4770:B1 I *D sky130_fd_sc_hd__a211o_2
*I *4769:X O *D sky130_fd_sc_hd__o211a_2
*CAP
1 *4770:B1 0.000180745
2 *4769:X 0.000180745
3 *4770:B1 *930:73 2.16833e-05
4 *4770:B1 *987:188 0.000136884
5 *4770:B1 *1122:83 0.000123225
6 *4770:A2 *4770:B1 1.7175e-05
7 *626:14 *4770:B1 0.000114492
*RES
1 *4769:X *4770:B1 11.01 
*END

*D_NET *688 0.00106088
*CONN
*I *4772:A2 I *D sky130_fd_sc_hd__a21oi_2
*I *4770:X O *D sky130_fd_sc_hd__a211o_2
*CAP
1 *4772:A2 0.000376072
2 *4770:X 0.000376072
3 *4772:A2 *4771:B1 5.05521e-05
4 *4772:A2 *930:8 4.11194e-05
5 *4772:A2 *930:55 2.67184e-05
6 *227:22 *4772:A2 0.000113797
7 *622:44 *4772:A2 7.65518e-05
*RES
1 *4770:X *4772:A2 12.48 
*END

*D_NET *689 0.000468536
*CONN
*I *4772:B1 I *D sky130_fd_sc_hd__a21oi_2
*I *4771:Y O *D sky130_fd_sc_hd__o21ai_2
*CAP
1 *4772:B1 8.65338e-05
2 *4771:Y 8.65338e-05
3 *4772:B1 *964:139 7.3664e-05
4 *4772:B1 *1084:18 0.000136884
5 *626:14 *4772:B1 8.49205e-05
*RES
1 *4771:Y *4772:B1 9.63 
*END

*D_NET *690 0.0015842
*CONN
*I *4775:A I *D sky130_fd_sc_hd__or2_2
*I *4782:B I *D sky130_fd_sc_hd__and2_2
*I *4781:B I *D sky130_fd_sc_hd__nor2_2
*I *4773:X O *D sky130_fd_sc_hd__and3_2
*CAP
1 *4775:A 9.61094e-05
2 *4782:B 2.2266e-05
3 *4781:B 6.38896e-05
4 *4773:X 0.000119519
5 *690:19 0.000264266
6 *690:8 0.000329299
7 *4775:A *1212:DIODE 4.66108e-05
8 *4775:A *4776:C1 0
9 *4775:A *932:49 0.00012441
10 *4775:A *992:151 4.66108e-05
11 *4781:B *4781:A 0.000116158
12 *4781:B *4783:A 0
13 *4782:B *983:60 4.82919e-05
14 *690:8 *987:203 6.27347e-05
15 *690:19 *4781:A 0.000235323
16 *690:19 *4783:A 0
17 *690:19 *698:12 0
18 *690:19 *932:49 8.7152e-06
*RES
1 *4773:X *690:8 5.085 
2 *690:8 *4781:B 4.98 
3 *690:8 *690:19 2.91 
4 *690:19 *4782:B 4.05 
5 *690:19 *4775:A 5.685 
*END

*D_NET *691 0.000324992
*CONN
*I *4775:B I *D sky130_fd_sc_hd__or2_2
*I *4774:Y O *D sky130_fd_sc_hd__a21oi_2
*CAP
1 *4775:B 5.13078e-05
2 *4774:Y 5.13078e-05
3 *4775:B *1212:DIODE 4.82919e-05
4 *4775:B *932:49 3.23981e-05
5 *4775:B *992:151 4.82919e-05
6 *4775:B *1126:51 9.33942e-05
*RES
1 *4774:Y *4775:B 8.775 
*END

*D_NET *692 0.000962569
*CONN
*I *4776:C1 I *D sky130_fd_sc_hd__o211a_2
*I *4775:X O *D sky130_fd_sc_hd__or2_2
*CAP
1 *4776:C1 0.00016259
2 *4775:X 0.00016259
3 *4776:C1 *1212:DIODE 0.000316415
4 *4776:C1 *4776:A1 0
5 *4776:C1 *4776:B1 4.55864e-06
6 *4776:C1 *992:151 0.000316415
7 *4775:A *4776:C1 0
*RES
1 *4775:X *4776:C1 11.7 
*END

*D_NET *693 0.000223545
*CONN
*I *4778:B1 I *D sky130_fd_sc_hd__a211o_2
*I *4776:X O *D sky130_fd_sc_hd__o211a_2
*CAP
1 *4778:B1 4.43182e-05
2 *4776:X 4.43182e-05
3 *4778:B1 *5061:RESET_B 8.57024e-05
4 *4778:B1 *983:60 0
5 *4778:B1 *983:77 4.92062e-05
*RES
1 *4776:X *4778:B1 4.355 
*END

*D_NET *694 0.000453693
*CONN
*I *4778:A2 I *D sky130_fd_sc_hd__a211o_2
*I *4777:Y O *D sky130_fd_sc_hd__nand2_2
*CAP
1 *4778:A2 0.000145477
2 *4777:Y 0.000145477
3 *4778:A2 *4778:A1 8.7152e-06
4 *4778:A2 *931:21 6.74281e-05
5 *4778:A2 *987:227 8.65961e-05
*RES
1 *4777:Y *4778:A2 9.63 
*END

*D_NET *695 0.000539762
*CONN
*I *4780:A2 I *D sky130_fd_sc_hd__a21oi_2
*I *4778:X O *D sky130_fd_sc_hd__a211o_2
*CAP
1 *4780:A2 0.000145118
2 *4778:X 0.000145118
3 *4780:A2 *4780:A1 9.58678e-06
4 *4780:A2 *931:21 0.00011504
5 *4780:A2 *983:77 0.0001249
*RES
1 *4778:X *4780:A2 9.72 
*END

*D_NET *696 0.000225891
*CONN
*I *4780:B1 I *D sky130_fd_sc_hd__a21oi_2
*I *4779:Y O *D sky130_fd_sc_hd__o21ai_2
*CAP
1 *4780:B1 7.90356e-05
2 *4779:Y 7.90356e-05
3 *4780:B1 *4779:A1 3.54536e-05
4 *4780:B1 *992:151 3.23663e-05
*RES
1 *4779:Y *4780:B1 4.7 
*END

*D_NET *697 0.000528009
*CONN
*I *4783:A I *D sky130_fd_sc_hd__or2_2
*I *4781:Y O *D sky130_fd_sc_hd__nor2_2
*CAP
1 *4783:A 0.000181567
2 *4781:Y 0.000181567
3 *4783:A *1354:DIODE 0.000164874
4 *4781:B *4783:A 0
5 *690:19 *4783:A 0
*RES
1 *4781:Y *4783:A 9.81 
*END

*D_NET *698 0.00600107
*CONN
*I *4789:B I *D sky130_fd_sc_hd__xnor2_2
*I *4797:C I *D sky130_fd_sc_hd__and3_2
*I *4796:A2 I *D sky130_fd_sc_hd__a21oi_2
*I *4783:B I *D sky130_fd_sc_hd__or2_2
*I *4782:X O *D sky130_fd_sc_hd__and2_2
*CAP
1 *4789:B 0
2 *4797:C 0
3 *4796:A2 0.000190649
4 *4783:B 1.77919e-06
5 *4782:X 0.000226412
6 *698:37 0.000671313
7 *698:31 0.000763558
8 *698:12 0.000511086
9 *4783:B *987:203 1.12643e-05
10 *4796:A2 *4797:A 8.09753e-05
11 *4796:A2 *4797:B 3.8858e-05
12 *698:12 *5061:RESET_B 0.000163199
13 *698:12 *1126:74 0
14 *698:31 *1355:DIODE 0.000277223
15 *698:31 *4777:A 4.82919e-05
16 *698:31 *987:203 0.000342453
17 *698:31 *987:210 3.83041e-05
18 *698:31 *987:227 0.000945673
19 *698:31 *1084:104 0.000312964
20 *698:31 *1122:244 0.000164874
21 *698:31 *1122:254 0.00016887
22 *698:37 *1355:DIODE 6.10014e-05
23 *698:37 *4738:A 0
24 *698:37 *4970:C 9.70699e-05
25 *698:37 *4985:D1 2.06083e-05
26 *698:37 *5062:D 7.10121e-05
27 *698:37 *906:23 0
28 *698:37 *926:22 0
29 *698:37 *1023:29 0.000793632
30 *690:19 *698:12 0
*RES
1 *4782:X *698:12 8.72 
2 *698:12 *4783:B 1.70875 
3 *698:12 *698:31 13.005 
4 *698:31 *698:37 15.58 
5 *698:37 *4796:A2 4.3225 
6 *698:37 *4797:C 1.6 
7 *698:31 *4789:B 1.6 
*END

*D_NET *699 0.00176086
*CONN
*I *4785:C1 I *D sky130_fd_sc_hd__o211a_2
*I *4783:X O *D sky130_fd_sc_hd__or2_2
*CAP
1 *4785:C1 0.000372898
2 *4783:X 0.000372898
3 *4785:C1 *4774:B1 8.23457e-05
4 *4785:C1 *4781:A 3.90349e-05
5 *4785:C1 *4785:B1 8.40213e-05
6 *4785:C1 *932:30 0.000193581
7 *4785:C1 *983:60 0.000189334
8 *4785:C1 *1126:51 0.00011379
9 *4785:C1 *1126:74 0.000312958
*RES
1 *4783:X *4785:C1 14.775 
*END

*D_NET *700 0.000276588
*CONN
*I *4786:A2 I *D sky130_fd_sc_hd__a211o_2
*I *4784:Y O *D sky130_fd_sc_hd__nand2_2
*CAP
1 *4786:A2 7.95747e-05
2 *4784:Y 7.95747e-05
3 *4786:A2 *4786:B1 2.03321e-05
4 *4786:A2 *987:188 9.71067e-05
5 *4786:A2 *992:153 0
*RES
1 *4784:Y *4786:A2 8.835 
*END

*D_NET *701 0.000379114
*CONN
*I *4786:B1 I *D sky130_fd_sc_hd__a211o_2
*I *4785:X O *D sky130_fd_sc_hd__o211a_2
*CAP
1 *4786:B1 8.6385e-05
2 *4785:X 8.6385e-05
3 *4786:B1 *4784:B 2.75145e-05
4 *4786:B1 *4786:A1 4.92096e-05
5 *4786:B1 *5061:RESET_B 4.82863e-05
6 *4786:B1 *987:188 6.10014e-05
7 *4773:C *4786:B1 0
8 *4786:A2 *4786:B1 2.03321e-05
*RES
1 *4785:X *4786:B1 9.54 
*END

*D_NET *702 0.00119928
*CONN
*I *4788:A2 I *D sky130_fd_sc_hd__a21oi_2
*I *4786:X O *D sky130_fd_sc_hd__a211o_2
*CAP
1 *4788:A2 0.000465247
2 *4786:X 0.000465247
3 *4788:A2 *4787:A2 4.60584e-05
4 *4788:A2 *4787:B1 4.82863e-05
5 *4788:A2 *4788:A1 0.000142079
6 *4788:A2 *960:12 3.23663e-05
*RES
1 *4786:X *4788:A2 9.65 
*END

*D_NET *703 0.000277044
*CONN
*I *4788:B1 I *D sky130_fd_sc_hd__a21oi_2
*I *4787:Y O *D sky130_fd_sc_hd__o21ai_2
*CAP
1 *4788:B1 8.31441e-05
2 *4787:Y 8.31441e-05
3 *4788:B1 *4787:A2 5.05521e-05
4 *4788:B1 *4788:A1 2.75145e-05
5 *4788:B1 *960:12 3.26889e-05
*RES
1 *4787:Y *4788:B1 4.7 
*END

*D_NET *704 0.00119017
*CONN
*I *4790:C1 I *D sky130_fd_sc_hd__o211a_2
*I *4789:Y O *D sky130_fd_sc_hd__xnor2_2
*CAP
1 *4790:C1 0.000206887
2 *4789:Y 0.000206887
3 *4790:C1 *1219:DIODE 8.7152e-06
4 *4790:C1 *5159:A 0.000181699
5 *4790:C1 *987:227 0.000507318
6 *4790:C1 *1118:10 4.82919e-05
7 *4790:C1 *1122:254 3.03684e-05
*RES
1 *4789:Y *4790:C1 12.9 
*END

*D_NET *705 0.000736509
*CONN
*I *4792:B1 I *D sky130_fd_sc_hd__a211o_2
*I *4790:X O *D sky130_fd_sc_hd__o211a_2
*CAP
1 *4792:B1 0.000108401
2 *4790:X 0.000108401
3 *4792:B1 *4790:A1 0.000112414
4 *4792:B1 *5055:RESET_B 1.08758e-05
5 *4792:B1 *983:77 0.000104162
6 *4792:B1 *983:90 1.72386e-05
7 *4792:B1 *1126:88 7.35078e-05
8 *4792:B1 *1126:101 0.000201508
*RES
1 *4790:X *4792:B1 6.77 
*END

*D_NET *706 0.000523667
*CONN
*I *4792:A2 I *D sky130_fd_sc_hd__a211o_2
*I *4791:Y O *D sky130_fd_sc_hd__nand2_2
*CAP
1 *4792:A2 9.32679e-05
2 *4791:Y 9.32679e-05
3 *4792:A2 *5055:RESET_B 7.10578e-05
4 *4792:A2 *5062:RESET_B 9.30717e-05
5 *4792:A2 *906:23 0
6 *4792:A2 *965:53 4.97771e-05
7 *4792:A2 *983:77 0.000123225
*RES
1 *4791:Y *4792:A2 9.975 
*END

*D_NET *707 0.00182093
*CONN
*I *4794:A2 I *D sky130_fd_sc_hd__a21oi_2
*I *4792:X O *D sky130_fd_sc_hd__a211o_2
*CAP
1 *4794:A2 0.000525938
2 *4792:X 0.000525938
3 *4794:A2 *4982:A2 0
4 *4794:A2 *5060:D 0
5 *4794:A2 *5062:D 3.86607e-05
6 *4794:A2 *934:23 7.12228e-06
7 *4794:A2 *983:77 0.000520052
8 *4794:A2 *992:139 3.09233e-05
9 *4794:A2 *1023:16 4.99619e-05
10 *4794:A2 *1023:29 0.000122331
*RES
1 *4792:X *4794:A2 14.895 
*END

*D_NET *708 0.000210076
*CONN
*I *4794:B1 I *D sky130_fd_sc_hd__a21oi_2
*I *4793:Y O *D sky130_fd_sc_hd__o21ai_2
*CAP
1 *4794:B1 1.0943e-05
2 *4793:Y 1.0943e-05
3 *4794:B1 *1220:DIODE 4.99619e-05
4 *4794:B1 *906:35 8.8266e-05
5 *4794:B1 *992:205 4.99619e-05
*RES
1 *4793:Y *4794:B1 3.995 
*END

*D_NET *709 0.00040646
*CONN
*I *4799:A1 I *D sky130_fd_sc_hd__o21a_2
*I *4795:X O *D sky130_fd_sc_hd__and3_2
*CAP
1 *4799:A1 8.03405e-05
2 *4795:X 8.03405e-05
3 *4799:A1 *4970:C 7.36562e-05
4 *4799:A1 *986:227 4.82919e-05
5 *4799:A1 *1023:29 7.55391e-05
6 *4799:A1 *1122:183 4.82919e-05
*RES
1 *4795:X *4799:A1 9.285 
*END

*D_NET *710 0.00062768
*CONN
*I *4798:B I *D sky130_fd_sc_hd__nor3_2
*I *4796:Y O *D sky130_fd_sc_hd__a21oi_2
*CAP
1 *4798:B 7.3062e-05
2 *4796:Y 7.3062e-05
3 *4798:B *4798:A 8.23457e-05
4 *4798:B *907:69 0.000157595
5 *4738:D_N *4798:B 8.23457e-05
6 *4980:A *4798:B 0.000159269
*RES
1 *4796:Y *4798:B 9.885 
*END

*D_NET *711 0.00511005
*CONN
*I *4803:B I *D sky130_fd_sc_hd__and2_2
*I *4802:B I *D sky130_fd_sc_hd__nor2_2
*I *4798:C I *D sky130_fd_sc_hd__nor3_2
*I *4797:X O *D sky130_fd_sc_hd__and3_2
*CAP
1 *4803:B 6.95025e-05
2 *4802:B 0
3 *4798:C 6.83145e-05
4 *4797:X 0
5 *711:23 0.0012838
6 *711:4 0.00128261
7 *4798:C *4970:C 0.000137578
8 *4798:C *1023:29 5.12942e-05
9 *4803:B *4803:A 4.66108e-05
10 *4803:B *4804:A 7.89689e-05
11 *4803:B *985:133 1.01661e-05
12 *4803:B *1024:44 0.000155176
13 *711:23 *4931:C 6.47594e-05
14 *711:23 *985:133 0.000284569
15 *711:23 *990:65 0.000301905
16 *711:23 *990:93 0.000197264
17 *711:23 *1024:44 0.000856067
18 *4738:D_N *4798:C 8.65905e-05
19 *664:12 *711:23 4.82863e-05
20 *664:18 *4798:C 8.65905e-05
*RES
1 *4797:X *711:4 1.6 
2 *711:4 *4798:C 8.03 
3 *711:4 *711:23 24.92 
4 *711:23 *4802:B 3.6 
5 *711:23 *4803:B 5.94 
*END

*D_NET *712 0.00105824
*CONN
*I *4799:A2 I *D sky130_fd_sc_hd__o21a_2
*I *4798:Y O *D sky130_fd_sc_hd__nor3_2
*CAP
1 *4799:A2 0.000259891
2 *4798:Y 0.000259891
3 *4799:A2 *1221:DIODE 7.4027e-05
4 *4799:A2 *907:69 9.21068e-05
5 *4799:A2 *992:139 0.000126367
6 *4799:A2 *1122:183 8.63479e-05
7 *4980:A *4799:A2 0.000159608
*RES
1 *4798:Y *4799:A2 12.51 
*END

*D_NET *713 0.000248132
*CONN
*I *4801:A2 I *D sky130_fd_sc_hd__o211a_2
*I *4799:X O *D sky130_fd_sc_hd__o21a_2
*CAP
1 *4801:A2 5.01662e-05
2 *4799:X 5.01662e-05
3 *4801:A2 *992:139 6.1994e-05
4 *4801:A2 *1023:29 2.7454e-05
5 *4980:A *4801:A2 5.83518e-05
*RES
1 *4799:X *4801:A2 8.58 
*END

*D_NET *714 0.000314173
*CONN
*I *4801:B1 I *D sky130_fd_sc_hd__o211a_2
*I *4800:X O *D sky130_fd_sc_hd__or2_2
*CAP
1 *4801:B1 5.41276e-05
2 *4800:X 5.41276e-05
3 *4801:B1 *1206:DIODE 0.000119762
4 *4801:B1 *4801:A1 1.28174e-05
5 *4801:B1 *4801:C1 4.66108e-05
6 *4801:B1 *963:27 2.67275e-05
*RES
1 *4800:X *4801:B1 4.7 
*END

*D_NET *715 0.000646164
*CONN
*I *4804:A I *D sky130_fd_sc_hd__or2_2
*I *4802:Y O *D sky130_fd_sc_hd__nor2_2
*CAP
1 *4804:A 0.000156087
2 *4802:Y 0.000156087
3 *4804:A *4806:C1 0
4 *4804:A *4814:B1 0
5 *4804:A *716:10 0.000139245
6 *4804:A *985:133 9.71067e-05
7 *4804:A *1024:44 1.86688e-05
8 *4804:A *1126:120 0
9 *4803:B *4804:A 7.89689e-05
*RES
1 *4802:Y *4804:A 11.13 
*END

*D_NET *716 0.00321847
*CONN
*I *4810:B I *D sky130_fd_sc_hd__or2_2
*I *4825:D I *D sky130_fd_sc_hd__and4_2
*I *4824:A3 I *D sky130_fd_sc_hd__a31oi_2
*I *4811:B I *D sky130_fd_sc_hd__nand2_2
*I *4804:B I *D sky130_fd_sc_hd__or2_2
*I *4803:X O *D sky130_fd_sc_hd__and2_2
*CAP
1 *4810:B 1.77632e-05
2 *4825:D 0.000129914
3 *4824:A3 1.51011e-05
4 *4811:B 0
5 *4804:B 1.17533e-05
6 *4803:X 0.000168021
7 *716:42 0.000481707
8 *716:36 0.000446486
9 *716:25 0.00029074
10 *716:10 0.000378483
11 *4804:B *4953:B 2.75145e-05
12 *4804:B *1024:50 4.82863e-05
13 *4810:B *1012:30 4.82919e-05
14 *4824:A3 *4824:A1 8.65905e-05
15 *4824:A3 *4824:A2 4.82863e-05
16 *4825:D *4825:B 6.44307e-05
17 *4825:D *4825:C 4.82863e-05
18 *4825:D *4972:B 4.82863e-05
19 *4825:D *1013:16 0
20 *716:10 *4814:B1 0
21 *716:10 *987:112 0.000159741
22 *716:10 *1024:44 8.97564e-05
23 *716:25 *4812:A 0
24 *716:25 *4814:B1 0
25 *716:25 *5066:RESET_B 0.000115609
26 *716:25 *723:10 0.000141606
27 *716:25 *909:63 1.22762e-05
28 *716:25 *1024:44 1.1561e-05
29 *716:36 *5066:RESET_B 2.14129e-05
30 *716:36 *909:63 5.12842e-05
31 *716:36 *909:72 8.08153e-06
32 *716:42 *909:72 0
33 *716:42 *1012:30 8.49205e-05
34 *716:42 *1013:16 0
35 *4804:A *716:10 0.000139245
36 *5131:A *4825:D 0
37 *5131:A *716:42 0
38 *5162:A *4824:A3 2.30292e-05
39 *657:34 *716:36 0
40 *657:34 *716:42 0
*RES
1 *4803:X *716:10 6.975 
2 *716:10 *4804:B 4.05 
3 *716:10 *716:25 4.485 
4 *716:25 *4811:B 3.6 
5 *716:25 *716:36 3.89 
6 *716:36 *716:42 7.235 
7 *716:42 *4824:A3 4.395 
8 *716:42 *4825:D 6.195 
9 *716:36 *4810:B 2.05 
*END

*D_NET *717 0.000435128
*CONN
*I *4806:C1 I *D sky130_fd_sc_hd__o211a_2
*I *4804:X O *D sky130_fd_sc_hd__or2_2
*CAP
1 *4806:C1 0.000129391
2 *4804:X 0.000129391
3 *4806:C1 *4814:B1 8.42239e-05
4 *4806:C1 *4953:B 8.65905e-05
5 *4806:C1 *1126:120 5.53249e-06
6 *4804:A *4806:C1 0
*RES
1 *4804:X *4806:C1 9.885 
*END

*D_NET *718 0.000374289
*CONN
*I *4807:A2 I *D sky130_fd_sc_hd__a211o_2
*I *4805:Y O *D sky130_fd_sc_hd__nand2_2
*CAP
1 *4807:A2 9.78283e-05
2 *4805:Y 9.78283e-05
3 *4807:A2 *4815:A1 9.50342e-06
4 *4807:A2 *5064:D 0
5 *4807:A2 *908:8 2.75229e-05
6 *4807:A2 *965:161 0
7 *4807:A2 *1118:79 0.000141606
*RES
1 *4805:Y *4807:A2 9.285 
*END

*D_NET *719 0.000186803
*CONN
*I *4807:B1 I *D sky130_fd_sc_hd__a211o_2
*I *4806:X O *D sky130_fd_sc_hd__o211a_2
*CAP
1 *4807:B1 6.84208e-05
2 *4806:X 6.84208e-05
3 *4807:B1 *4807:C1 4.99619e-05
4 *4807:B1 *4814:A1 0
5 *4807:B1 *985:133 0
*RES
1 *4806:X *4807:B1 4.355 
*END

*D_NET *720 0.000105481
*CONN
*I *4809:A2 I *D sky130_fd_sc_hd__a21oi_2
*I *4807:X O *D sky130_fd_sc_hd__a211o_2
*CAP
1 *4809:A2 5.27404e-05
2 *4807:X 5.27404e-05
*RES
1 *4807:X *4809:A2 3.995 
*END

*D_NET *721 0.000386247
*CONN
*I *4809:B1 I *D sky130_fd_sc_hd__a21oi_2
*I *4808:Y O *D sky130_fd_sc_hd__o21ai_2
*CAP
1 *4809:B1 6.94066e-05
2 *4808:Y 6.94066e-05
3 *4809:B1 *4808:A2 2.49909e-05
4 *4809:B1 *5064:RESET_B 0.000141599
5 *4809:B1 *1007:10 8.08439e-05
*RES
1 *4808:Y *4809:B1 9.285 
*END

*D_NET *722 0.000632522
*CONN
*I *4812:A I *D sky130_fd_sc_hd__nand2_2
*I *4810:X O *D sky130_fd_sc_hd__or2_2
*CAP
1 *4812:A 0.000172214
2 *4810:X 0.000172214
3 *4812:A *4814:B1 1.01661e-05
4 *4812:A *4814:C1 0.000187071
5 *4812:A *909:63 8.53244e-05
6 *4812:A *909:72 5.53249e-06
7 *4812:A *987:136 0
8 *716:25 *4812:A 0
*RES
1 *4810:X *4812:A 11.13 
*END

*D_NET *723 0.000769536
*CONN
*I *4812:B I *D sky130_fd_sc_hd__nand2_2
*I *4818:B I *D sky130_fd_sc_hd__xnor2_2
*I *4811:Y O *D sky130_fd_sc_hd__nand2_2
*CAP
1 *4812:B 5.71132e-05
2 *4818:B 0.000152292
3 *4811:Y 3.37559e-05
4 *723:10 0.000243161
5 *723:10 *5066:RESET_B 0.000141606
6 *716:25 *723:10 0.000141606
*RES
1 *4811:Y *723:10 7.235 
2 *723:10 *4818:B 3.775 
3 *723:10 *4812:B 2.395 
*END

*D_NET *724 0.000390486
*CONN
*I *4814:C1 I *D sky130_fd_sc_hd__o211a_2
*I *4812:Y O *D sky130_fd_sc_hd__nand2_2
*CAP
1 *4814:C1 4.91735e-05
2 *4812:Y 4.91735e-05
3 *4814:C1 *4814:B1 0.000105068
4 *4812:A *4814:C1 0.000187071
*RES
1 *4812:Y *4814:C1 9.345 
*END

*D_NET *725 0.000405761
*CONN
*I *4815:A2 I *D sky130_fd_sc_hd__a211o_2
*I *4813:Y O *D sky130_fd_sc_hd__nand2_2
*CAP
1 *4815:A2 8.49723e-05
2 *4813:Y 8.49723e-05
3 *4815:A2 *1319:DIODE 0
4 *4815:A2 *4815:A1 0.000137563
5 *4815:A2 *909:16 4.99619e-05
6 *4815:A2 *965:167 4.82919e-05
*RES
1 *4813:Y *4815:A2 9.285 
*END

*D_NET *726 0.000410701
*CONN
*I *4815:B1 I *D sky130_fd_sc_hd__a211o_2
*I *4814:X O *D sky130_fd_sc_hd__o211a_2
*CAP
1 *4815:B1 0.00013953
2 *4814:X 0.00013953
3 *4815:B1 *4815:A1 0
4 *4815:B1 *4815:C1 4.82919e-05
5 *4815:B1 *987:136 6.03195e-05
6 *4815:B1 *1012:30 2.30292e-05
*RES
1 *4814:X *4815:B1 9.735 
*END

*D_NET *727 0.000225981
*CONN
*I *4817:A2 I *D sky130_fd_sc_hd__a21oi_2
*I *4815:X O *D sky130_fd_sc_hd__a211o_2
*CAP
1 *4817:A2 5.05434e-05
2 *4815:X 5.05434e-05
3 *4817:A2 *1012:30 0.000124895
*RES
1 *4815:X *4817:A2 4.34 
*END

*D_NET *728 0.000342451
*CONN
*I *4817:B1 I *D sky130_fd_sc_hd__a21oi_2
*I *4816:Y O *D sky130_fd_sc_hd__o21ai_2
*CAP
1 *4817:B1 8.11652e-05
2 *4816:Y 8.11652e-05
3 *4817:B1 *4816:A1 0.000124344
4 *4817:B1 *4816:A2 8.73389e-06
5 *4817:B1 *1007:8 4.7043e-05
*RES
1 *4816:Y *4817:B1 9.03 
*END

*D_NET *729 0.00089318
*CONN
*I *4819:B I *D sky130_fd_sc_hd__or2_2
*I *4818:Y O *D sky130_fd_sc_hd__xnor2_2
*CAP
1 *4819:B 0.000168995
2 *4818:Y 0.000168995
3 *4819:B *4821:A2 0.000167773
4 *4819:B *5066:RESET_B 0.000155497
5 *4819:B *990:16 0.000181376
6 *4819:B *1012:30 0
7 *4819:B *1013:16 5.05437e-05
*RES
1 *4818:Y *4819:B 11.625 
*END

*D_NET *730 0.0010148
*CONN
*I *4821:A2 I *D sky130_fd_sc_hd__a31o_2
*I *4819:X O *D sky130_fd_sc_hd__or2_2
*CAP
1 *4821:A2 0.000200392
2 *4819:X 0.000200392
3 *4821:A2 *5066:CLK 3.21052e-05
4 *4821:A2 *5066:RESET_B 0.000102565
5 *4821:A2 *909:30 0.00023713
6 *4821:A2 *990:16 0
7 *4821:A2 *1012:30 7.44442e-05
8 *4819:B *4821:A2 0.000167773
*RES
1 *4819:X *4821:A2 12.735 
*END

*D_NET *731 0.000489375
*CONN
*I *4821:A3 I *D sky130_fd_sc_hd__a31o_2
*I *4820:X O *D sky130_fd_sc_hd__a21bo_2
*CAP
1 *4821:A3 0.000148914
2 *4820:X 0.000148914
3 *4821:A3 *1231:DIODE 9.54469e-05
4 *4821:A3 *910:27 8.65961e-05
5 *4821:A3 *990:10 0
6 *4821:A3 *1012:30 9.50342e-06
*RES
1 *4820:X *4821:A3 9.63 
*END

*D_NET *732 0.00161965
*CONN
*I *4823:A I *D sky130_fd_sc_hd__and2_2
*I *4961:B I *D sky130_fd_sc_hd__nand3_2
*I *4821:X O *D sky130_fd_sc_hd__a31o_2
*CAP
1 *4823:A 0
2 *4961:B 0.000151415
3 *4821:X 5.55982e-05
4 *732:6 0.000207013
5 *4961:B *1231:DIODE 0.000229541
6 *4961:B *1232:DIODE 4.82919e-05
7 *4961:B *4985:D1 0.00018088
8 *4961:B *851:18 0.000179213
9 *732:6 *1231:DIODE 0.000312964
10 *732:6 *1232:DIODE 0.000224698
11 *732:6 *986:122 3.00381e-05
*RES
1 *4821:X *732:6 4.465 
2 *732:6 *4961:B 9.92 
3 *732:6 *4823:A 1.6 
*END

*D_NET *733 0.000614631
*CONN
*I *4961:C I *D sky130_fd_sc_hd__nand3_2
*I *4823:B I *D sky130_fd_sc_hd__and2_2
*I *4822:X O *D sky130_fd_sc_hd__o21a_2
*CAP
1 *4961:C 4.2127e-05
2 *4823:B 8.25236e-05
3 *4822:X 0.000124651
4 *4823:B *1232:DIODE 0.000134509
5 *4823:B *992:86 0.000182793
6 *4961:C *992:86 4.80285e-05
*RES
1 *4822:X *4823:B 9.285 
2 *4822:X *4961:C 3.995 
*END

*D_NET *734 0.000315807
*CONN
*I *4826:A I *D sky130_fd_sc_hd__or2_2
*I *4824:Y O *D sky130_fd_sc_hd__a31oi_2
*CAP
1 *4826:A 9.74887e-05
2 *4824:Y 9.74887e-05
3 *5162:A *4826:A 0.00012083
*RES
1 *4824:Y *4826:A 4.7 
*END

*D_NET *735 0.00340158
*CONN
*I *4832:B I *D sky130_fd_sc_hd__xnor2_2
*I *4839:A2 I *D sky130_fd_sc_hd__a21oi_2
*I *4840:C I *D sky130_fd_sc_hd__and3_2
*I *4826:B I *D sky130_fd_sc_hd__or2_2
*I *4825:X O *D sky130_fd_sc_hd__and4_2
*CAP
1 *4832:B 0.000192833
2 *4839:A2 4.24117e-05
3 *4840:C 0.000117683
4 *4826:B 0.000228233
5 *4825:X 0.000428671
6 *735:37 0.000299667
7 *735:26 0.000382544
8 *4826:B *4824:B1 0.000118513
9 *4826:B *4825:C 1.15688e-05
10 *4826:B *4828:C1 7.23533e-05
11 *4826:B *4972:B 6.07575e-06
12 *4826:B *909:72 4.43871e-06
13 *4826:B *911:49 0.000196364
14 *4826:B *987:159 5.83121e-06
15 *4832:B *4837:A2 8.40269e-05
16 *4832:B *912:16 8.1737e-05
17 *4832:B *912:18 9.54329e-05
18 *4832:B *1011:8 0.000120655
19 *4832:B *1124:203 0.000114492
20 *4839:A2 *4960:B 8.88715e-05
21 *4839:A2 *913:46 0.000158066
22 *4840:C *4840:A 8.49205e-05
23 *4840:C *4841:B 4.0843e-05
24 *735:26 *4840:B 6.36578e-05
25 *735:26 *4841:A 2.92496e-05
26 *735:26 *913:33 1.07797e-05
27 *735:26 *1013:16 0
28 *735:37 *4840:B 5.46944e-05
29 *735:37 *4841:A 7.23602e-05
30 *735:37 *912:18 1.5431e-05
31 *735:37 *913:33 2.04724e-05
32 *5131:A *4832:B 4.4256e-05
33 *5131:A *735:26 0.000114447
34 *5131:A *735:37 0
*RES
1 *4825:X *4826:B 11.01 
2 *4825:X *735:26 7.785 
3 *735:26 *4840:C 5.085 
4 *735:26 *735:37 1.635 
5 *735:37 *4839:A2 5.085 
6 *735:37 *4832:B 8.67 
*END

*D_NET *736 0.000444302
*CONN
*I *4828:C1 I *D sky130_fd_sc_hd__o211a_2
*I *4826:X O *D sky130_fd_sc_hd__or2_2
*CAP
1 *4828:C1 0.000135941
2 *4826:X 0.000135941
3 *4828:C1 *1236:DIODE 0
4 *4828:C1 *4824:B1 1.07797e-05
5 *4828:C1 *4828:B1 9.50342e-06
6 *4828:C1 *911:34 1.15688e-05
7 *4828:C1 *987:159 3.09233e-05
8 *4826:B *4828:C1 7.23533e-05
9 *5162:A *4828:C1 3.72916e-05
*RES
1 *4826:X *4828:C1 9.63 
*END

*D_NET *737 0.000235491
*CONN
*I *4829:A2 I *D sky130_fd_sc_hd__a211o_2
*I *4827:Y O *D sky130_fd_sc_hd__nand2_2
*CAP
1 *4829:A2 6.3505e-05
2 *4827:Y 6.3505e-05
3 *4829:A2 *4831:A2 5.39718e-05
4 *4829:A2 *1121:10 4.43871e-06
5 *4829:A2 *1121:14 5.00699e-05
*RES
1 *4827:Y *4829:A2 8.835 
*END

*D_NET *738 0.000195036
*CONN
*I *4829:B1 I *D sky130_fd_sc_hd__a211o_2
*I *4828:X O *D sky130_fd_sc_hd__o211a_2
*CAP
1 *4829:B1 6.18572e-05
2 *4828:X 6.18572e-05
3 *4829:B1 *4829:C1 4.82919e-05
4 *4829:B1 *4972:B 2.30292e-05
*RES
1 *4828:X *4829:B1 4.355 
*END

*D_NET *739 0.000482463
*CONN
*I *4831:A2 I *D sky130_fd_sc_hd__a21oi_2
*I *4829:X O *D sky130_fd_sc_hd__a211o_2
*CAP
1 *4831:A2 0.000132643
2 *4829:X 0.000132643
3 *4831:A2 *911:26 0.000163204
4 *4831:A2 *939:12 0
5 *4831:A2 *1121:14 0
6 *4829:A2 *4831:A2 5.39718e-05
*RES
1 *4829:X *4831:A2 10.065 
*END

*D_NET *740 0.000394708
*CONN
*I *4831:B1 I *D sky130_fd_sc_hd__a21oi_2
*I *4830:Y O *D sky130_fd_sc_hd__o21ai_2
*CAP
1 *4831:B1 7.41823e-05
2 *4830:Y 7.41823e-05
3 *4831:B1 *4830:B1 4.82919e-05
4 *4831:B1 *911:26 0.000198051
*RES
1 *4830:Y *4831:B1 5.03 
*END

*D_NET *741 0.000457831
*CONN
*I *4833:C1 I *D sky130_fd_sc_hd__o211a_2
*I *4832:Y O *D sky130_fd_sc_hd__xnor2_2
*CAP
1 *4833:C1 4.18442e-05
2 *4832:Y 4.18442e-05
3 *4833:C1 *4833:B1 0.000187071
4 *4833:C1 *987:159 0.000187071
*RES
1 *4832:Y *4833:C1 9.345 
*END

*D_NET *742 0.00112649
*CONN
*I *4835:B1 I *D sky130_fd_sc_hd__a211o_2
*I *4833:X O *D sky130_fd_sc_hd__o211a_2
*CAP
1 *4835:B1 0.000137009
2 *4833:X 0.000137009
3 *4835:B1 *4835:A1 1.85674e-05
4 *4835:B1 *4835:C1 0.000163199
5 *4835:B1 *967:16 0.000139231
6 *4835:B1 *988:163 0.000183036
7 *4835:B1 *1025:6 4.82919e-05
8 *4835:B1 *1121:29 0.000257957
9 *5148:A *4835:B1 4.21889e-05
*RES
1 *4833:X *4835:B1 12.33 
*END

*D_NET *743 0.00116696
*CONN
*I *4835:A2 I *D sky130_fd_sc_hd__a211o_2
*I *4834:Y O *D sky130_fd_sc_hd__nand2_2
*CAP
1 *4835:A2 0.000166519
2 *4834:Y 0.000166519
3 *4835:A2 *987:159 0.000294094
4 *5131:A *4835:A2 0.000135408
5 *5132:A *4835:A2 0.000404416
*RES
1 *4834:Y *4835:A2 13.425 
*END

*D_NET *744 0.00196336
*CONN
*I *4837:A2 I *D sky130_fd_sc_hd__a211o_2
*I *4835:X O *D sky130_fd_sc_hd__a211o_2
*CAP
1 *4837:A2 0.000398386
2 *4835:X 0.000398386
3 *4837:A2 *1356:DIODE 6.83659e-05
4 *4837:A2 *4832:A 4.82919e-05
5 *4837:A2 *4837:A1 3.45252e-05
6 *4837:A2 *4837:C1 4.99619e-05
7 *4837:A2 *912:12 8.23457e-05
8 *4837:A2 *1011:8 0.000208552
9 *4837:A2 *1124:203 0.000294421
10 *4832:B *4837:A2 8.40269e-05
11 *5132:A *4837:A2 0.000296094
*RES
1 *4835:X *4837:A2 17.295 
*END

*D_NET *745 0.000635649
*CONN
*I *4837:B1 I *D sky130_fd_sc_hd__a211o_2
*I *4836:Y O *D sky130_fd_sc_hd__nor2_2
*CAP
1 *4837:B1 9.15215e-05
2 *4836:Y 9.15215e-05
3 *4837:B1 *1011:21 0.000320834
4 *4837:B1 *1013:10 0.000131772
*RES
1 *4836:Y *4837:B1 10.875 
*END

*D_NET *746 0.00240519
*CONN
*I *4838:A I *D sky130_fd_sc_hd__inv_2
*I *4979:B1 I *D sky130_fd_sc_hd__a32oi_2
*I *4962:B I *D sky130_fd_sc_hd__nor2_2
*I *4837:X O *D sky130_fd_sc_hd__a211o_2
*CAP
1 *4838:A 3.38389e-05
2 *4979:B1 0.000265306
3 *4962:B 0.000379309
4 *4837:X 0.00067467
5 *746:26 0.000594506
6 *4838:A *966:96 4.00541e-06
7 *4962:B *1320:DIODE 2.11084e-05
8 *4962:B *851:18 8.65905e-05
9 *4979:B1 *4979:A3 9.91257e-05
10 *4979:B1 *4981:C1 1.5567e-05
11 *746:26 *4836:A 3.86529e-05
12 *746:26 *5068:D 0.000115779
13 *746:26 *966:96 2.36616e-05
14 *4979:A1 *4979:B1 5.30673e-05
*RES
1 *4837:X *4962:B 9.17 
2 *4837:X *746:26 9.695 
3 *746:26 *4979:B1 6.115 
4 *746:26 *4838:A 2.215 
*END

*D_NET *747 0.000257237
*CONN
*I *4841:A I *D sky130_fd_sc_hd__or2_2
*I *4839:Y O *D sky130_fd_sc_hd__a21oi_2
*CAP
1 *4841:A 2.92603e-05
2 *4839:Y 2.92603e-05
3 *4841:A *913:33 9.71067e-05
4 *735:26 *4841:A 2.92496e-05
5 *735:37 *4841:A 7.23602e-05
*RES
1 *4839:Y *4841:A 8.325 
*END

*D_NET *748 0.00535829
*CONN
*I *4841:B I *D sky130_fd_sc_hd__or2_2
*I *4848:B I *D sky130_fd_sc_hd__and2_2
*I *4847:B I *D sky130_fd_sc_hd__nor2_2
*I *4840:X O *D sky130_fd_sc_hd__and3_2
*CAP
1 *4841:B 7.92719e-05
2 *4848:B 0
3 *4847:B 5.90156e-05
4 *4840:X 0
5 *748:16 0.00188836
6 *748:4 0.00190862
7 *4841:B *4840:A 4.82919e-05
8 *4841:B *4840:B 1.34503e-05
9 *4841:B *4973:A 0.000163199
10 *4847:B *914:49 5.05437e-05
11 *748:16 *4840:A 0
12 *748:16 *4973:A 0.000199541
13 *4727:A *748:16 2.14581e-05
14 *4727:C *748:16 0.000305654
15 *4840:C *4841:B 4.0843e-05
16 *370:31 *4847:B 0.000112656
17 *370:31 *748:16 0.000467382
*RES
1 *4840:X *748:4 1.6 
2 *748:4 *748:16 25.8 
3 *748:16 *4847:B 3.085 
4 *748:16 *4848:B 1.6 
5 *748:4 *4841:B 3.775 
*END

*D_NET *749 0.000523738
*CONN
*I *4843:C1 I *D sky130_fd_sc_hd__o211a_2
*I *4841:X O *D sky130_fd_sc_hd__or2_2
*CAP
1 *4843:C1 8.23508e-05
2 *4841:X 8.23508e-05
3 *4843:C1 *4960:B 8.40269e-05
4 *4843:C1 *913:33 0.00013812
5 *5131:A *4843:C1 0.000136889
*RES
1 *4841:X *4843:C1 9.63 
*END

*D_NET *750 0.000460124
*CONN
*I *4844:A2 I *D sky130_fd_sc_hd__a211o_2
*I *4842:Y O *D sky130_fd_sc_hd__nand2_2
*CAP
1 *4844:A2 0.000114861
2 *4842:Y 0.000114861
3 *4844:A2 *5069:CLK 0
4 *4844:A2 *913:10 8.40213e-05
5 *4844:A2 *1121:14 0.000136877
6 *4844:A2 *1121:29 9.50342e-06
*RES
1 *4842:Y *4844:A2 9.63 
*END

*D_NET *751 0.000200029
*CONN
*I *4844:B1 I *D sky130_fd_sc_hd__a211o_2
*I *4843:X O *D sky130_fd_sc_hd__o211a_2
*CAP
1 *4844:B1 5.71634e-05
2 *4843:X 5.71634e-05
3 *4844:B1 *4960:B 8.57024e-05
*RES
1 *4843:X *4844:B1 4.355 
*END

*D_NET *752 0.000118162
*CONN
*I *4846:A2 I *D sky130_fd_sc_hd__a21oi_2
*I *4844:X O *D sky130_fd_sc_hd__a211o_2
*CAP
1 *4846:A2 3.25471e-05
2 *4844:X 3.25471e-05
3 *4846:A2 *4960:B 5.30673e-05
*RES
1 *4844:X *4846:A2 3.995 
*END

*D_NET *753 0.000613892
*CONN
*I *4846:B1 I *D sky130_fd_sc_hd__a21oi_2
*I *4845:Y O *D sky130_fd_sc_hd__o21ai_2
*CAP
1 *4846:B1 0.000245294
2 *4845:Y 0.000245294
3 *4846:B1 *4845:A2 0.000123304
*RES
1 *4845:Y *4846:B1 7.115 
*END

*D_NET *754 0.000351739
*CONN
*I *4849:A I *D sky130_fd_sc_hd__or2_2
*I *4847:Y O *D sky130_fd_sc_hd__nor2_2
*CAP
1 *4849:A 6.76314e-05
2 *4847:Y 6.76314e-05
3 *4849:A *4851:A1 5.85589e-05
4 *4849:A *914:32 0.000157918
*RES
1 *4847:Y *4849:A 9.09 
*END

*D_NET *755 0.00436105
*CONN
*I *4855:B I *D sky130_fd_sc_hd__or2_2
*I *4856:B I *D sky130_fd_sc_hd__nand2_2
*I *4862:A2 I *D sky130_fd_sc_hd__a21oi_2
*I *4863:C I *D sky130_fd_sc_hd__and3_2
*I *4849:B I *D sky130_fd_sc_hd__or2_2
*I *4848:X O *D sky130_fd_sc_hd__and2_2
*CAP
1 *4855:B 0.000115187
2 *4856:B 4.92802e-05
3 *4862:A2 3.12907e-05
4 *4863:C 9.83339e-06
5 *4849:B 5.58018e-05
6 *4848:X 0.000231948
7 *755:45 0.00027373
8 *755:34 0.000231629
9 *755:23 0.000575888
10 *755:8 0.000762729
11 *4849:B *914:32 0.000136877
12 *4855:B *1259:DIODE 6.99988e-05
13 *4855:B *4858:A3 0
14 *4855:B *915:108 0
15 *4856:B *4856:A 8.65961e-05
16 *4856:B *1120:87 0.000110259
17 *4862:A2 *4862:A1 8.8266e-05
18 *4862:A2 *988:66 7.35813e-05
19 *4863:C *768:12 4.82919e-05
20 *4863:C *986:88 2.11084e-05
21 *755:23 *4685:A 0
22 *755:23 *4866:C1 6.95764e-05
23 *755:23 *914:32 6.97124e-05
24 *755:23 *914:49 4.54719e-05
25 *755:23 *914:60 0
26 *755:23 *915:58 0
27 *755:23 *988:10 0
28 *755:23 *988:32 0
29 *755:23 *988:58 0.000394857
30 *755:34 *915:82 0
31 *755:34 *915:93 0
32 *755:34 *988:58 8.26536e-05
33 *755:45 *1259:DIODE 7.36562e-05
34 *755:45 *915:93 0
35 *755:45 *915:108 0
36 *755:45 *988:58 2.4997e-05
37 *4732:A2 *4856:B 0.000274763
38 *4741:C *4855:B 2.75145e-05
39 *5130:A *4849:B 5.04256e-05
40 *5130:A *755:23 2.24975e-05
41 *370:31 *755:8 0.000252629
*RES
1 *4848:X *755:8 6.465 
2 *755:8 *4849:B 5.235 
3 *755:8 *755:23 9.84 
4 *755:23 *4863:C 4.05 
5 *755:23 *755:34 1.89 
6 *755:34 *4862:A2 4.74 
7 *755:34 *755:45 2.145 
8 *755:45 *4856:B 6.12 
9 *755:45 *4855:B 5.685 
*END

*D_NET *756 0.000631322
*CONN
*I *4851:C1 I *D sky130_fd_sc_hd__o211a_2
*I *4849:X O *D sky130_fd_sc_hd__or2_2
*CAP
1 *4851:C1 0.000191673
2 *4849:X 0.000191673
3 *4851:C1 *4965:C 0.000108031
4 *4851:C1 *1125:59 7.03626e-05
5 *653:52 *4851:C1 6.95814e-05
*RES
1 *4849:X *4851:C1 10.665 
*END

*D_NET *757 0.000590924
*CONN
*I *4852:A2 I *D sky130_fd_sc_hd__a211o_2
*I *4850:Y O *D sky130_fd_sc_hd__nand2_2
*CAP
1 *4852:A2 0.000150061
2 *4850:Y 0.000150061
3 *4852:A2 *1321:DIODE 3.72916e-05
4 *4852:A2 *4850:A 0.000155863
5 *4852:A2 *4852:A1 1.36204e-05
6 *4852:A2 *4986:B 8.40269e-05
7 *4852:A2 *5070:RESET_B 0
*RES
1 *4850:Y *4852:A2 10.29 
*END

*D_NET *758 0.000414717
*CONN
*I *4852:B1 I *D sky130_fd_sc_hd__a211o_2
*I *4851:X O *D sky130_fd_sc_hd__o211a_2
*CAP
1 *4852:B1 0.000111992
2 *4851:X 0.000111992
3 *4852:B1 *4850:A 8.69005e-05
4 *4852:B1 *4852:C1 7.25921e-06
5 *5129:A *4852:B1 4.82863e-05
6 *373:31 *4852:B1 4.82863e-05
*RES
1 *4851:X *4852:B1 9.64875 
*END

*D_NET *759 0.00137469
*CONN
*I *4854:A2 I *D sky130_fd_sc_hd__a21oi_2
*I *4852:X O *D sky130_fd_sc_hd__a211o_2
*CAP
1 *4854:A2 0.000599335
2 *4852:X 0.000599335
3 *4854:A2 *4852:C1 2.0248e-05
4 *4854:A2 *5070:RESET_B 2.3941e-05
5 *4854:A2 *844:12 0
6 *4854:A2 *914:12 0.000122331
7 *4854:A2 *994:172 9.50342e-06
8 *4854:A2 *1120:29 0
*RES
1 *4852:X *4854:A2 14.55 
*END

*D_NET *760 0.000197062
*CONN
*I *4854:B1 I *D sky130_fd_sc_hd__a21oi_2
*I *4853:Y O *D sky130_fd_sc_hd__o21ai_2
*CAP
1 *4854:B1 1.02651e-05
2 *4853:Y 1.02651e-05
3 *4854:B1 *1246:DIODE 3.83041e-05
4 *4854:B1 *994:172 4.99619e-05
5 *373:31 *4854:B1 8.8266e-05
*RES
1 *4853:Y *4854:B1 3.995 
*END

*D_NET *761 0.000364625
*CONN
*I *4857:C1 I *D sky130_fd_sc_hd__o211a_2
*I *4855:X O *D sky130_fd_sc_hd__or2_2
*CAP
1 *4857:C1 0.000143513
2 *4855:X 0.000143513
3 *4857:C1 *1259:DIODE 0
4 *4857:C1 *984:28 0
5 *4857:C1 *1120:96 0
6 *4857:C1 *1125:22 2.97004e-06
7 *4857:C1 *1125:30 2.68526e-05
8 *4857:C1 *1127:127 4.77757e-05
*RES
1 *4855:X *4857:C1 9.54 
*END

*D_NET *762 0.000428865
*CONN
*I *4858:B1 I *D sky130_fd_sc_hd__a32o_2
*I *4856:Y O *D sky130_fd_sc_hd__nand2_2
*CAP
1 *4858:B1 6.84381e-05
2 *4856:Y 6.84381e-05
3 *4858:B1 *1029:67 6.25711e-06
4 *4741:C *4858:B1 1.5041e-05
5 *653:52 *4858:B1 0.000136182
6 *656:83 *4858:B1 0.000134509
*RES
1 *4856:Y *4858:B1 9.015 
*END

*D_NET *763 0.000553773
*CONN
*I *4858:B2 I *D sky130_fd_sc_hd__a32o_2
*I *4857:X O *D sky130_fd_sc_hd__o211a_2
*CAP
1 *4858:B2 0.000124994
2 *4857:X 0.000124994
3 *4858:B2 *1323:DIODE 6.18754e-05
4 *4858:B2 *4915:A2 4.9253e-06
5 *4858:B2 *964:42 3.25831e-05
6 *4858:B2 *966:12 1.6408e-05
7 *4858:B2 *1029:67 0.000140384
8 *5165:A *4858:B2 8.08153e-06
9 *656:83 *4858:B2 3.95269e-05
*RES
1 *4857:X *4858:B2 10.23 
*END

*D_NET *764 0.000381742
*CONN
*I *4859:A2 I *D sky130_fd_sc_hd__a21oi_2
*I *4858:X O *D sky130_fd_sc_hd__a32o_2
*CAP
1 *4859:A2 6.04516e-05
2 *4858:X 6.04516e-05
3 *4859:A2 *1249:DIODE 7.3664e-05
4 *4859:A2 *964:42 0.000138544
5 *4859:A2 *994:142 2.11084e-05
6 *4859:A2 *1123:22 2.16917e-05
7 *4859:A2 *1123:24 5.83121e-06
*RES
1 *4858:X *4859:A2 9.285 
*END

*D_NET *765 0.00182772
*CONN
*I *4861:A I *D sky130_fd_sc_hd__nor2_2
*I *4983:B I *D sky130_fd_sc_hd__nor3_2
*I *4984:A1 I *D sky130_fd_sc_hd__o21a_2
*I *4859:Y O *D sky130_fd_sc_hd__a21oi_2
*CAP
1 *4861:A 0
2 *4983:B 8.09125e-05
3 *4984:A1 9.97428e-05
4 *4859:Y 0.000305748
5 *765:32 0.000286917
6 *4983:B *4984:A2 2.49909e-05
7 *4983:B *4985:A2 3.21634e-05
8 *4983:B *1124:44 0.000199039
9 *4984:A1 *4859:B1 4.82919e-05
10 *4984:A1 *986:88 8.89673e-05
11 *4984:A1 *994:142 4.82919e-05
12 *765:32 *986:64 8.8266e-05
13 *765:32 *994:132 0
14 *765:32 *994:142 0.000132747
15 *765:32 *1123:22 8.8266e-05
16 *765:32 *1124:44 5.39961e-05
17 *4741:D *4984:A1 0
18 *5127:A *4983:B 0.000200699
19 *5127:A *765:32 4.44927e-05
20 *601:44 *4984:A1 4.18603e-06
*RES
1 *4859:Y *4984:A1 9.54 
2 *4859:Y *765:32 7.89 
3 *765:32 *4983:B 6.45 
4 *765:32 *4861:A 3.6 
*END

*D_NET *766 0.00187576
*CONN
*I *4984:A2 I *D sky130_fd_sc_hd__o21a_2
*I *4983:C I *D sky130_fd_sc_hd__nor3_2
*I *4861:B I *D sky130_fd_sc_hd__nor2_2
*I *4860:Y O *D sky130_fd_sc_hd__o21ai_2
*CAP
1 *4984:A2 0.000134616
2 *4983:C 0
3 *4861:B 0.000177037
4 *4860:Y 0
5 *766:25 0.000191256
6 *766:4 0.000233677
7 *4861:B *1248:DIODE 0.00018955
8 *4984:A2 *4985:A2 4.55186e-05
9 *4984:A2 *988:66 0.000421056
10 *766:25 *4985:A2 1.83847e-05
11 *766:25 *915:30 0.000114492
12 *766:25 *988:66 1.91597e-05
13 *766:25 *1123:165 0.000112123
14 *4741:D *4861:B 2.87867e-05
15 *4983:A *4984:A2 9.27495e-05
16 *4983:B *4984:A2 2.49909e-05
17 *5127:A *4861:B 7.23602e-05
*RES
1 *4860:Y *766:4 1.6 
2 *766:4 *4861:B 8.3 
3 *766:4 *766:25 5.83 
4 *766:25 *4983:C 1.6 
5 *766:25 *4984:A2 5.86 
*END

*D_NET *767 0.000354425
*CONN
*I *4864:A I *D sky130_fd_sc_hd__or2_2
*I *4862:Y O *D sky130_fd_sc_hd__a21oi_2
*CAP
1 *4864:A 0.000160804
2 *4862:Y 0.000160804
3 *4864:A *917:58 3.18568e-05
4 *4864:A *988:66 9.60582e-07
*RES
1 *4862:Y *4864:A 5.045 
*END

*D_NET *768 0.00280237
*CONN
*I *4864:B I *D sky130_fd_sc_hd__or2_2
*I *4871:B I *D sky130_fd_sc_hd__and2_2
*I *4870:B I *D sky130_fd_sc_hd__or2_2
*I *4863:X O *D sky130_fd_sc_hd__and3_2
*CAP
1 *4864:B 0
2 *4871:B 0
3 *4870:B 0.000172635
4 *4863:X 0.000361611
5 *768:14 0.000354417
6 *768:12 0.000543394
7 *4870:B *4870:A 4.66108e-05
8 *4870:B *4873:C1 7.81954e-05
9 *4870:B *775:8 4.82919e-05
10 *4870:B *986:88 4.82919e-05
11 *4870:B *1009:51 0.000374276
12 *4870:B *1120:42 2.9031e-05
13 *4870:B *1120:55 5.72742e-05
14 *768:12 *4685:A 5.83121e-06
15 *768:12 *4863:A 8.23457e-05
16 *768:12 *4873:B1 1.19928e-05
17 *768:12 *4874:B2 4.82863e-05
18 *768:12 *984:36 6.55328e-05
19 *768:12 *986:88 5.38395e-05
20 *768:12 *1125:34 0.000116853
21 *768:14 *775:8 8.65905e-05
22 *768:14 *917:58 0.000168781
23 *4863:C *768:12 4.82919e-05
*RES
1 *4863:X *768:12 10.88 
2 *768:12 *768:14 3.555 
3 *768:14 *4870:B 10.94 
4 *768:14 *4871:B 1.6 
5 *768:12 *4864:B 1.6 
*END

*D_NET *769 0.00145232
*CONN
*I *4866:C1 I *D sky130_fd_sc_hd__o211a_2
*I *4864:X O *D sky130_fd_sc_hd__or2_2
*CAP
1 *4866:C1 0.000230886
2 *4864:X 0.000230886
3 *4866:C1 *4863:A 0.000115464
4 *4866:C1 *988:58 0.000214629
5 *4866:C1 *994:156 0.000485252
6 *4866:C1 *1125:40 0.000105624
7 *755:23 *4866:C1 6.95764e-05
*RES
1 *4864:X *4866:C1 15.21 
*END

*D_NET *770 0.000491362
*CONN
*I *4867:A2 I *D sky130_fd_sc_hd__a211o_2
*I *4865:Y O *D sky130_fd_sc_hd__nand2_2
*CAP
1 *4867:A2 0.000103229
2 *4865:Y 0.000103229
3 *4867:A2 *994:162 5.92849e-05
4 *4867:A2 *1120:29 9.50342e-06
5 *4867:A2 *1120:42 0.000132089
6 *429:36 *4867:A2 8.40269e-05
*RES
1 *4865:Y *4867:A2 9.63 
*END

*D_NET *771 0.000175897
*CONN
*I *4867:B1 I *D sky130_fd_sc_hd__a211o_2
*I *4866:X O *D sky130_fd_sc_hd__o211a_2
*CAP
1 *4867:B1 6.94242e-05
2 *4866:X 6.94242e-05
3 *4867:B1 *4866:A2 0
4 *4867:B1 *4867:C1 3.70488e-05
*RES
1 *4866:X *4867:B1 4.355 
*END

*D_NET *772 0.000301846
*CONN
*I *4869:A2 I *D sky130_fd_sc_hd__a21oi_2
*I *4867:X O *D sky130_fd_sc_hd__a211o_2
*CAP
1 *4869:A2 8.53902e-05
2 *4867:X 8.53902e-05
3 *4869:A2 *994:172 6.55406e-05
4 *4869:A2 *1120:29 6.5525e-05
*RES
1 *4867:X *4869:A2 9.03 
*END

*D_NET *773 0.000359081
*CONN
*I *4869:B1 I *D sky130_fd_sc_hd__a21oi_2
*I *4868:Y O *D sky130_fd_sc_hd__o21ai_2
*CAP
1 *4869:B1 9.60217e-05
2 *4868:Y 9.60217e-05
3 *4869:B1 *4868:A2 5.05521e-05
4 *4869:B1 *844:12 5.92849e-05
5 *4869:B1 *1009:23 4.18603e-06
6 *4869:B1 *1009:34 5.30144e-05
*RES
1 *4868:Y *4869:B1 9.63 
*END

*D_NET *774 0.000540348
*CONN
*I *4873:C1 I *D sky130_fd_sc_hd__o211a_2
*I *4870:X O *D sky130_fd_sc_hd__or2_2
*CAP
1 *4873:C1 0.000100396
2 *4870:X 0.000100396
3 *4873:C1 *4874:B2 0.000119762
4 *4873:C1 *1120:42 0.000120186
5 *4873:C1 *1120:55 2.14129e-05
6 *4870:B *4873:C1 7.81954e-05
*RES
1 *4870:X *4873:C1 9.975 
*END

*D_NET *775 0.00306296
*CONN
*I *4872:A I *D sky130_fd_sc_hd__inv_2
*I *4885:A2 I *D sky130_fd_sc_hd__a21oi_2
*I *4886:C I *D sky130_fd_sc_hd__and3_2
*I *4879:B I *D sky130_fd_sc_hd__xnor2_2
*I *4871:X O *D sky130_fd_sc_hd__and2_2
*CAP
1 *4872:A 0
2 *4885:A2 4.13239e-05
3 *4886:C 8.48398e-05
4 *4879:B 2.439e-05
5 *4871:X 6.42291e-05
6 *775:23 0.000302149
7 *775:12 0.000487341
8 *775:8 0.000351195
9 *4879:B *919:8 8.40269e-05
10 *4879:B *966:12 4.08514e-05
11 *4879:B *966:14 5.83121e-06
12 *4885:A2 *4890:A1 4.70343e-05
13 *4885:A2 *1009:64 6.18754e-05
14 *4886:C *4885:B1 8.65905e-05
15 *4886:C *920:55 4.82919e-05
16 *775:8 *4871:A 3.70488e-05
17 *775:8 *917:58 0.000201269
18 *775:12 *844:12 0
19 *775:12 *917:32 1.22676e-05
20 *775:12 *1009:51 0.000554182
21 *775:23 *4890:A1 8.69126e-05
22 *775:23 *844:12 0
23 *775:23 *1009:51 0.000179015
24 *775:23 *1009:64 0.000127416
25 *4870:B *775:8 4.82919e-05
26 *768:14 *775:8 8.65905e-05
*RES
1 *4871:X *775:8 3.79 
2 *775:8 *775:12 8.48 
3 *775:12 *4879:B 4.395 
4 *775:12 *775:23 4.695 
5 *775:23 *4886:C 4.74 
6 *775:23 *4885:A2 4.98 
7 *775:8 *4872:A 1.6 
*END

*D_NET *776 0.000489791
*CONN
*I *4874:B1 I *D sky130_fd_sc_hd__a32o_2
*I *4872:Y O *D sky130_fd_sc_hd__inv_2
*CAP
1 *4874:B1 0.000129232
2 *4872:Y 0.000129232
3 *4874:B1 *4874:A1 1.34594e-05
4 *4874:B1 *4874:B2 6.33596e-05
5 *4874:B1 *917:32 7.81876e-05
6 *4874:B1 *1009:51 7.63204e-05
*RES
1 *4872:Y *4874:B1 10.245 
*END

*D_NET *777 0.0010427
*CONN
*I *4874:B2 I *D sky130_fd_sc_hd__a32o_2
*I *4873:X O *D sky130_fd_sc_hd__o211a_2
*CAP
1 *4874:B2 0.000247166
2 *4873:X 0.000247166
3 *4874:B2 *4873:B1 6.1357e-05
4 *4874:B2 *4874:A1 0.000159741
5 *4874:B2 *984:36 2.41437e-05
6 *4874:B2 *984:47 7.17141e-05
7 *4873:C1 *4874:B2 0.000119762
8 *4874:B1 *4874:B2 6.33596e-05
9 *768:12 *4874:B2 4.82863e-05
*RES
1 *4873:X *4874:B2 8.135 
*END

*D_NET *778 0.000340272
*CONN
*I *4875:A2 I *D sky130_fd_sc_hd__a21oi_2
*I *4874:X O *D sky130_fd_sc_hd__a32o_2
*CAP
1 *4875:A2 6.32052e-05
2 *4874:X 6.32052e-05
3 *4875:A2 *4870:A 4.82919e-05
4 *4875:A2 *917:32 0.000118527
5 *4875:A2 *1009:51 4.7043e-05
*RES
1 *4874:X *4875:A2 9.03 
*END

*D_NET *779 0.00194031
*CONN
*I *4877:A I *D sky130_fd_sc_hd__or2_2
*I *4971:A2 I *D sky130_fd_sc_hd__o32a_2
*I *4875:Y O *D sky130_fd_sc_hd__a21oi_2
*CAP
1 *4877:A 0
2 *4971:A2 0.000294593
3 *4875:Y 0.000143347
4 *779:10 0.000437939
5 *4971:A2 *1326:DIODE 2.97004e-06
6 *4971:A2 *4964:B1 0.0002954
7 *4971:A2 *5072:RESET_B 0.000162318
8 *4971:A2 *844:12 0
9 *4971:A2 *990:189 7.06865e-05
10 *779:10 *1256:DIODE 3.83041e-05
11 *779:10 *844:12 0
12 *779:10 *990:189 0.00019423
13 *429:8 *4971:A2 8.23457e-05
14 *429:12 *4971:A2 7.26629e-05
15 *429:36 *4971:A2 0.000145515
*RES
1 *4875:Y *779:10 6.12 
2 *779:10 *4971:A2 14.065 
3 *779:10 *4877:A 3.6 
*END

*D_NET *780 0.00195955
*CONN
*I *4877:B I *D sky130_fd_sc_hd__or2_2
*I *4971:A3 I *D sky130_fd_sc_hd__o32a_2
*I *4876:X O *D sky130_fd_sc_hd__a21o_2
*CAP
1 *4877:B 2.3906e-05
2 *4971:A3 0.000199086
3 *4876:X 0.00017965
4 *780:12 0.000402641
5 *4877:B *5158:A 3.74161e-05
6 *4971:A3 *4971:B2 3.29195e-05
7 *4971:A3 *5072:RESET_B 4.31189e-05
8 *4971:A3 *5073:RESET_B 4.43871e-06
9 *4971:A3 *5158:A 5.4155e-06
10 *4971:A3 *945:14 1.47347e-05
11 *4971:A3 *990:189 0.000211879
12 *780:12 *5072:RESET_B 2.92496e-05
13 *780:12 *5073:RESET_B 8.55576e-05
14 *780:12 *5158:A 1.08758e-05
15 *780:12 *5303:A 0
16 *780:12 *781:10 8.46525e-05
17 *780:12 *918:28 0
18 *780:12 *966:31 6.55406e-05
19 *780:12 *1028:8 4.66108e-05
20 *4971:B1 *4971:A3 8.53113e-06
21 *370:31 *4971:A3 8.40213e-05
22 *429:12 *4971:A3 0.000312778
23 *592:52 *780:12 7.6524e-05
*RES
1 *4876:X *780:12 9.905 
2 *780:12 *4971:A3 11.45 
3 *780:12 *4877:B 2.05 
*END

*D_NET *781 0.0024238
*CONN
*I *4964:B1 I *D sky130_fd_sc_hd__a221o_2
*I *4878:A I *D sky130_fd_sc_hd__inv_2
*I *4877:X O *D sky130_fd_sc_hd__or2_2
*CAP
1 *4964:B1 0.000211159
2 *4878:A 4.99426e-05
3 *4877:X 0.000105841
4 *781:10 0.000366943
5 *4878:A *1028:8 6.97034e-05
6 *4964:B1 *5072:RESET_B 3.57846e-05
7 *781:10 *5158:A 0.000148801
8 *781:10 *1028:8 2.0514e-05
9 *4964:B2 *4964:B1 0.000176666
10 *4971:A2 *4964:B1 0.0002954
11 *4976:B2 *4964:B1 4.18603e-06
12 *429:8 *4878:A 9.27326e-05
13 *429:8 *781:10 8.29769e-05
14 *429:12 *4964:B1 6.53154e-05
15 *429:36 *781:10 0.000232111
16 *592:52 *4964:B1 0.00038107
17 *780:12 *781:10 8.46525e-05
*RES
1 *4877:X *781:10 5.275 
2 *781:10 *4878:A 3.085 
3 *781:10 *4964:B1 12.53 
*END

*D_NET *782 0.000610627
*CONN
*I *4881:C1 I *D sky130_fd_sc_hd__o211a_2
*I *4879:Y O *D sky130_fd_sc_hd__xnor2_2
*CAP
1 *4881:C1 9.66224e-05
2 *4879:Y 9.66224e-05
3 *4881:C1 *1263:DIODE 9.17294e-05
4 *4881:C1 *4889:A2 7.27402e-06
5 *4881:C1 *1125:30 0.000201574
6 *4881:C1 *1125:34 8.53113e-06
7 *4881:C1 *1127:8 2.16833e-05
8 *653:26 *4881:C1 4.99619e-05
9 *653:39 *4881:C1 3.66286e-05
*RES
1 *4879:Y *4881:C1 10.14 
*END

*D_NET *783 0.00095719
*CONN
*I *4882:A2 I *D sky130_fd_sc_hd__a211o_2
*I *4880:Y O *D sky130_fd_sc_hd__nand2_2
*CAP
1 *4882:A2 0.000138443
2 *4880:Y 0.000138443
3 *4882:A2 *4880:A 0.000139245
4 *4882:A2 *919:23 0.00016163
5 *4882:A2 *1029:23 8.57024e-05
6 *4882:A2 *1120:61 0.000293726
*RES
1 *4880:Y *4882:A2 11.415 
*END

*D_NET *784 0.000759963
*CONN
*I *4882:B1 I *D sky130_fd_sc_hd__a211o_2
*I *4881:X O *D sky130_fd_sc_hd__o211a_2
*CAP
1 *4882:B1 0.00012343
2 *4881:X 0.00012343
3 *4882:B1 *4889:A1 5.43042e-05
4 *4882:B1 *988:223 4.43871e-06
5 *4882:B1 *1013:251 4.82919e-05
6 *4882:B1 *1120:61 0.000314445
7 *653:26 *4882:B1 9.16237e-05
*RES
1 *4881:X *4882:B1 11.325 
*END

*D_NET *785 0.00132292
*CONN
*I *4884:A2 I *D sky130_fd_sc_hd__a21oi_2
*I *4882:X O *D sky130_fd_sc_hd__a211o_2
*CAP
1 *4884:A2 0.000114658
2 *4882:X 0.000114658
3 *4884:A2 *4884:A1 0.000348704
4 *4884:A2 *4890:A1 4.99619e-05
5 *4884:A2 *1009:51 0.000110668
6 *4884:A2 *1013:251 0.000461941
7 *4884:A2 *1013:259 0.000122331
*RES
1 *4882:X *4884:A2 8.48 
*END

*D_NET *786 0.000362083
*CONN
*I *4884:B1 I *D sky130_fd_sc_hd__a21oi_2
*I *4883:X O *D sky130_fd_sc_hd__a21o_2
*CAP
1 *4884:B1 0.000113427
2 *4883:X 0.000113427
3 *4884:B1 *4876:A2 0
4 *4884:B1 *5074:D 1.83756e-05
5 *4732:B1 *4884:B1 0.000116853
*RES
1 *4883:X *4884:B1 9.375 
*END

*D_NET *787 0.000352674
*CONN
*I *4887:A I *D sky130_fd_sc_hd__or2_2
*I *4885:Y O *D sky130_fd_sc_hd__a21oi_2
*CAP
1 *4887:A 0.000151061
2 *4885:Y 0.000151061
3 *4887:A *788:29 5.05521e-05
*RES
1 *4885:Y *4887:A 5.045 
*END

*D_NET *788 0.0039206
*CONN
*I *4894:B I *D sky130_fd_sc_hd__and2_2
*I *4895:B I *D sky130_fd_sc_hd__nor2_2
*I *4887:B I *D sky130_fd_sc_hd__or2_2
*I *4886:X O *D sky130_fd_sc_hd__and3_2
*CAP
1 *4894:B 0
2 *4895:B 0.000176371
3 *4887:B 0
4 *4886:X 0.000107281
5 *788:29 0.00122145
6 *788:12 0.00115236
7 *4895:B *4893:A 9.50342e-06
8 *4895:B *4895:A 0.000122331
9 *4895:B *4896:C 0
10 *4895:B *921:39 0.000184703
11 *4895:B *966:191 0
12 *788:12 *4885:B1 0.000164445
13 *788:12 *988:223 4.19967e-05
14 *788:12 *991:34 2.30292e-05
15 *788:29 *4889:C1 7.47366e-05
16 *788:29 *4914:A 0.000123902
17 *788:29 *4914:B 0.000184378
18 *4887:A *788:29 5.05521e-05
19 *4917:A1 *4895:B 4.60584e-05
20 *5126:A *788:29 0.000120655
21 *656:24 *4895:B 0.000116853
*RES
1 *4886:X *788:12 7.775 
2 *788:12 *4887:B 1.6 
3 *788:12 *788:29 16.83 
4 *788:29 *4895:B 9.935 
5 *788:29 *4894:B 1.6 
*END

*D_NET *789 0.000661368
*CONN
*I *4889:C1 I *D sky130_fd_sc_hd__o211a_2
*I *4887:X O *D sky130_fd_sc_hd__or2_2
*CAP
1 *4889:C1 0.000226555
2 *4887:X 0.000226555
3 *4889:C1 *1263:DIODE 7.63204e-05
4 *4889:C1 *4889:A2 5.72004e-05
5 *788:29 *4889:C1 7.47366e-05
*RES
1 *4887:X *4889:C1 10.665 
*END

*D_NET *790 0.000332035
*CONN
*I *4890:A2 I *D sky130_fd_sc_hd__a211o_2
*I *4888:Y O *D sky130_fd_sc_hd__nand2_2
*CAP
1 *4890:A2 0.000161266
2 *4888:Y 0.000161266
3 *4890:A2 *1262:DIODE 0
4 *4890:A2 *4890:A1 9.50342e-06
5 *4890:A2 *1009:64 0
*RES
1 *4888:Y *4890:A2 9.63 
*END

*D_NET *791 0.000240792
*CONN
*I *4890:B1 I *D sky130_fd_sc_hd__a211o_2
*I *4889:X O *D sky130_fd_sc_hd__o211a_2
*CAP
1 *4890:B1 7.62631e-05
2 *4889:X 7.62631e-05
3 *4890:B1 *4890:C1 8.8266e-05
*RES
1 *4889:X *4890:B1 4.7 
*END

*D_NET *792 0.000509001
*CONN
*I *4892:A2 I *D sky130_fd_sc_hd__a21oi_2
*I *4890:X O *D sky130_fd_sc_hd__a211o_2
*CAP
1 *4892:A2 0.000125018
2 *4890:X 0.000125018
3 *4892:A2 *844:12 9.428e-05
4 *4892:A2 *1009:64 0.000164686
*RES
1 *4890:X *4892:A2 10.23 
*END

*D_NET *793 0.000327374
*CONN
*I *4892:B1 I *D sky130_fd_sc_hd__a21oi_2
*I *4891:Y O *D sky130_fd_sc_hd__o21ai_2
*CAP
1 *4892:B1 0.000104594
2 *4891:Y 0.000104594
3 *4892:B1 *4891:A2 7.00889e-06
4 *4892:B1 *844:12 4.82919e-05
5 *4892:B1 *948:10 6.28843e-05
6 *4955:A *4892:B1 0
*RES
1 *4891:Y *4892:B1 9.285 
*END

*D_NET *794 0.0004937
*CONN
*I *4897:A1 I *D sky130_fd_sc_hd__o21ai_2
*I *4893:X O *D sky130_fd_sc_hd__and3_2
*CAP
1 *4897:A1 0.000111106
2 *4893:X 0.000111106
3 *4897:A1 *4896:A 6.99988e-05
4 *4897:A1 *4914:B 2.24423e-05
5 *4897:A1 *966:191 1.91597e-05
6 *4904:A1 *4897:A1 7.58604e-05
7 *4910:A1 *4897:A1 8.40269e-05
*RES
1 *4893:X *4897:A1 9.885 
*END

*D_NET *795 0.00240141
*CONN
*I *4906:A2 I *D sky130_fd_sc_hd__a21oi_2
*I *4907:C I *D sky130_fd_sc_hd__and3_2
*I *4900:B I *D sky130_fd_sc_hd__xnor2_2
*I *4896:B I *D sky130_fd_sc_hd__nor3_2
*I *4894:X O *D sky130_fd_sc_hd__and2_2
*CAP
1 *4906:A2 4.19587e-05
2 *4907:C 0
3 *4900:B 0.000108587
4 *4896:B 0
5 *4894:X 9.45818e-05
6 *795:19 0.000144138
7 *795:17 0.000311545
8 *795:6 0.000328617
9 *4900:B *4912:A2 3.00381e-05
10 *4900:B *986:14 0
11 *4906:A2 *4907:A 8.8266e-05
12 *795:6 *4914:B 0.000138175
13 *795:17 *1265:DIODE 2.75229e-05
14 *795:17 *4897:A2 6.21347e-05
15 *795:17 *4914:B 0.000407853
16 *1266:DIODE *4900:B 0
17 *4904:A1 *4900:B 0
18 *4910:A1 *4900:B 4.82919e-05
19 *656:47 *4906:A2 0.000127316
20 *656:47 *795:17 0.000442386
*RES
1 *4894:X *795:6 3.775 
2 *795:6 *4896:B 1.6 
3 *795:6 *795:17 7.38 
4 *795:17 *795:19 0.615 
5 *795:19 *4900:B 7.43 
6 *795:19 *4907:C 1.6 
7 *795:17 *4906:A2 3.085 
*END

*D_NET *796 0.000223759
*CONN
*I *4896:C I *D sky130_fd_sc_hd__nor3_2
*I *4895:Y O *D sky130_fd_sc_hd__nor2_2
*CAP
1 *4896:C 8.519e-05
2 *4895:Y 8.519e-05
3 *4896:C *966:191 5.33787e-05
4 *4895:B *4896:C 0
5 *656:24 *4896:C 0
*RES
1 *4895:Y *4896:C 8.835 
*END

*D_NET *797 0.00037319
*CONN
*I *4897:A2 I *D sky130_fd_sc_hd__o21ai_2
*I *4896:Y O *D sky130_fd_sc_hd__nor3_2
*CAP
1 *4897:A2 0.000155528
2 *4896:Y 0.000155528
3 *795:17 *4897:A2 6.21347e-05
*RES
1 *4896:Y *4897:A2 5.3 
*END

*D_NET *798 0.00099047
*CONN
*I *4899:A2 I *D sky130_fd_sc_hd__a21oi_2
*I *4897:Y O *D sky130_fd_sc_hd__o21ai_2
*CAP
1 *4899:A2 0.000151559
2 *4897:Y 0.000151559
3 *4899:A2 *4970:A 1.26626e-05
4 *4899:A2 *986:10 7.23533e-05
5 *232:39 *4899:A2 0.000161492
6 *567:12 *4899:A2 0.000440844
*RES
1 *4897:Y *4899:A2 12.66 
*END

*D_NET *799 0.000232567
*CONN
*I *4899:B1 I *D sky130_fd_sc_hd__a21oi_2
*I *4898:Y O *D sky130_fd_sc_hd__o21ai_2
*CAP
1 *4899:B1 5.61903e-05
2 *4898:Y 5.61903e-05
3 *4899:B1 *4898:A1 0.000120186
4 *4899:B1 *1027:39 0
*RES
1 *4898:Y *4899:B1 8.58 
*END

*D_NET *800 0.000288181
*CONN
*I *4902:A0 I *D sky130_fd_sc_hd__mux2_1
*I *4900:Y O *D sky130_fd_sc_hd__xnor2_2
*CAP
1 *4902:A0 0.000142293
2 *4900:Y 0.000142293
3 *4902:A0 *963:73 3.59531e-06
4 *4902:A0 *986:14 0
5 *1266:DIODE *4902:A0 0
*RES
1 *4900:Y *4902:A0 9.345 
*END

*D_NET *801 0.00138096
*CONN
*I *4902:A1 I *D sky130_fd_sc_hd__mux2_1
*I *4901:Y O *D sky130_fd_sc_hd__nand2_2
*CAP
1 *4902:A1 0.000453706
2 *4901:Y 0.000453706
3 *4902:A1 *4903:A2 0
4 *4902:A1 *5077:D 4.40812e-05
5 *4902:A1 *963:45 9.70869e-05
6 *4902:A1 *966:84 0.000157343
7 *1266:DIODE *4902:A1 0.000160641
8 *653:84 *4902:A1 1.4399e-05
*RES
1 *4901:Y *4902:A1 14.46 
*END

*D_NET *802 0.00103964
*CONN
*I *4903:A2 I *D sky130_fd_sc_hd__o21ai_2
*I *4902:X O *D sky130_fd_sc_hd__mux2_1
*CAP
1 *4903:A2 0.000233658
2 *4902:X 0.000233658
3 *4903:A2 *4903:A1 1.71013e-05
4 *4903:A2 *4905:A 4.82863e-05
5 *4903:A2 *5077:D 0.000116158
6 *4903:A2 *803:8 0.000126336
7 *4903:A2 *804:10 8.70923e-05
8 *4903:A2 *804:12 1.71013e-05
9 *4903:A2 *963:45 0
10 *4903:A2 *966:84 9.27495e-05
11 *4903:A2 *986:14 2.88436e-05
12 *4903:A2 *1013:237 3.86607e-05
13 *4902:A1 *4903:A2 0
*RES
1 *4902:X *4903:A2 12.975 
*END

*D_NET *803 0.00209343
*CONN
*I *4959:A1 I *D sky130_fd_sc_hd__a21o_2
*I *4979:A2 I *D sky130_fd_sc_hd__a32oi_2
*I *4905:A I *D sky130_fd_sc_hd__and2_2
*I *4903:Y O *D sky130_fd_sc_hd__o21ai_2
*CAP
1 *4959:A1 8.06506e-05
2 *4979:A2 7.1801e-05
3 *4905:A 0.000152949
4 *4903:Y 0.000177827
5 *803:25 0.000271241
6 *803:8 0.000449564
7 *4905:A *966:84 3.89404e-05
8 *4959:A1 *988:66 6.27438e-05
9 *4979:A2 *1232:DIODE 0.000103192
10 *4979:A2 *4979:A3 5.72091e-05
11 *4979:A2 *4981:C1 0
12 *4979:A2 *804:12 1.22676e-05
13 *803:8 *966:84 4.58166e-05
14 *803:25 *1232:DIODE 3.76596e-05
15 *803:25 *4903:A1 8.28738e-05
16 *803:25 *804:12 0.000115773
17 *803:25 *988:66 0.000158297
18 *4903:A2 *4905:A 4.82863e-05
19 *4903:A2 *803:8 0.000126336
*RES
1 *4903:Y *803:8 4.135 
2 *803:8 *4905:A 3.91 
3 *803:8 *803:25 5.675 
4 *803:25 *4979:A2 5.745 
5 *803:25 *4959:A1 5.085 
*END

*D_NET *804 0.00174864
*CONN
*I *4905:B I *D sky130_fd_sc_hd__and2_2
*I *4959:A2 I *D sky130_fd_sc_hd__a21o_2
*I *4979:A3 I *D sky130_fd_sc_hd__a32oi_2
*I *4904:Y O *D sky130_fd_sc_hd__a21oi_2
*CAP
1 *4905:B 0
2 *4959:A2 0
3 *4979:A3 0.000126085
4 *4904:Y 7.97672e-05
5 *804:12 0.000286165
6 *804:10 0.000239847
7 *804:10 *1338:DIODE 8.23457e-05
8 *804:10 *4904:B1 4.66108e-05
9 *804:10 *5077:CLK 1.91597e-05
10 *804:10 *986:14 0.000150453
11 *804:12 *986:14 0.000203769
12 *4903:A2 *804:10 8.70923e-05
13 *4903:A2 *804:12 1.71013e-05
14 *4979:A1 *4979:A3 5.4256e-05
15 *4979:A1 *804:12 1.01661e-05
16 *4979:A2 *4979:A3 5.72091e-05
17 *4979:A2 *804:12 1.22676e-05
18 *4979:B1 *4979:A3 9.91257e-05
19 *567:12 *804:12 6.14433e-05
20 *803:25 *804:12 0.000115773
*RES
1 *4904:Y *804:10 6.285 
2 *804:10 *804:12 4.44 
3 *804:12 *4979:A3 6.72 
4 *804:12 *4959:A2 3.6 
5 *804:10 *4905:B 3.6 
*END

*D_NET *805 0.000545267
*CONN
*I *4909:A I *D sky130_fd_sc_hd__or2_2
*I *4906:Y O *D sky130_fd_sc_hd__a21oi_2
*CAP
1 *4909:A 8.47209e-05
2 *4906:Y 8.47209e-05
3 *4909:A *4913:A2 5.53249e-06
4 *4909:A *922:47 7.58604e-05
5 *4909:A *923:22 4.70999e-05
6 *4909:A *1027:39 0.00016163
7 *656:47 *4909:A 8.57024e-05
*RES
1 *4906:Y *4909:A 9.885 
*END

*D_NET *806 0.00395816
*CONN
*I *4909:B I *D sky130_fd_sc_hd__or2_2
*I *4914:B I *D sky130_fd_sc_hd__xor2_2
*I *4907:X O *D sky130_fd_sc_hd__and3_2
*CAP
1 *4909:B 0.000219536
2 *4914:B 0.000658636
3 *4907:X 0.000878172
4 *4909:B *4308:A 9.50342e-06
5 *4914:B *1265:DIODE 4.82919e-05
6 *4914:B *966:191 0
7 *1266:DIODE *4909:B 0
8 *1363:DIODE *4914:B 0.000422743
9 *4897:A1 *4914:B 2.24423e-05
10 *5126:A *4914:B 6.71882e-05
11 *232:39 *4909:B 0
12 *431:16 *4909:B 0.000276441
13 *567:12 *4914:B 9.61344e-05
14 *656:47 *4914:B 0.000528665
15 *788:29 *4914:B 0.000184378
16 *795:6 *4914:B 0.000138175
17 *795:17 *4914:B 0.000407853
*RES
1 *4907:X *4914:B 21.2975 
2 *4907:X *4909:B 11.355 
*END

*D_NET *807 0.000322079
*CONN
*I *4911:A2 I *D sky130_fd_sc_hd__a211o_2
*I *4908:Y O *D sky130_fd_sc_hd__nand2_2
*CAP
1 *4911:A2 9.56789e-05
2 *4908:Y 9.56789e-05
3 *4911:A2 *4911:A1 4.43871e-06
4 *4911:A2 *4911:C1 4.99619e-05
5 *4911:A2 *4912:A2 7.63204e-05
6 *4911:A2 *847:12 0
*RES
1 *4908:Y *4911:A2 9.285 
*END

*D_NET *808 0.000873917
*CONN
*I *4910:C1 I *D sky130_fd_sc_hd__o211a_2
*I *4909:X O *D sky130_fd_sc_hd__or2_2
*CAP
1 *4910:C1 0.000191149
2 *4909:X 0.000191149
3 *4910:C1 *4913:A2 1.19928e-05
4 *4910:C1 *923:22 3.76596e-05
5 *4910:C1 *1011:45 0.00013521
6 *4910:A2 *4910:C1 8.40213e-05
7 *4910:B1 *4910:C1 8.23457e-05
8 *431:16 *4910:C1 0.00014039
*RES
1 *4909:X *4910:C1 11.115 
*END

*D_NET *809 0.000351487
*CONN
*I *4911:B1 I *D sky130_fd_sc_hd__a211o_2
*I *4910:X O *D sky130_fd_sc_hd__o211a_2
*CAP
1 *4911:B1 5.04407e-05
2 *4910:X 5.04407e-05
3 *4911:B1 *4911:A1 8.89751e-05
4 *4911:B1 *847:12 0.00016163
*RES
1 *4910:X *4911:B1 9.09 
*END

*D_NET *810 0.00132385
*CONN
*I *4913:A2 I *D sky130_fd_sc_hd__a21oi_2
*I *4911:X O *D sky130_fd_sc_hd__a211o_2
*CAP
1 *4913:A2 0.000373347
2 *4911:X 0.000373347
3 *4913:A2 *1273:DIODE 2.39856e-05
4 *4913:A2 *4899:A1 7.1932e-06
5 *4913:A2 *4911:C1 1.16578e-05
6 *4913:A2 *4913:A1 6.01819e-05
7 *4913:A2 *5078:RESET_B 1.22762e-05
8 *4913:A2 *923:22 0.000162332
9 *4913:A2 *1011:62 0
10 *4913:A2 *1027:39 0.000197988
11 *4909:A *4913:A2 5.53249e-06
12 *4910:C1 *4913:A2 1.19928e-05
13 *431:16 *4913:A2 8.40213e-05
*RES
1 *4911:X *4913:A2 15.69 
*END

*D_NET *811 0.000443191
*CONN
*I *4913:B1 I *D sky130_fd_sc_hd__a21oi_2
*I *4912:X O *D sky130_fd_sc_hd__a21o_2
*CAP
1 *4913:B1 7.58733e-05
2 *4912:X 7.58733e-05
3 *4913:B1 *951:10 0.000203178
4 *4912:A1 *4913:B1 8.8266e-05
*RES
1 *4912:X *4913:B1 5.375 
*END

*D_NET *812 0.00033096
*CONN
*I *4915:C1 I *D sky130_fd_sc_hd__o211a_2
*I *4914:X O *D sky130_fd_sc_hd__xor2_2
*CAP
1 *4915:C1 7.01598e-05
2 *4914:X 7.01598e-05
3 *4915:C1 *4916:A2 0.000138544
4 *4915:C1 *4917:B1 0
5 *4915:C1 *1123:105 5.20968e-05
*RES
1 *4914:X *4915:C1 8.835 
*END

*D_NET *813 0.0009819
*CONN
*I *4916:B1 I *D sky130_fd_sc_hd__a31o_2
*I *4915:X O *D sky130_fd_sc_hd__o211a_2
*CAP
1 *4916:B1 0.000261159
2 *4915:X 0.000261159
3 *4916:B1 *4889:B1 1.16578e-05
4 *4916:B1 *984:12 3.59997e-05
5 *4916:B1 *1125:6 0.000107424
6 *1363:DIODE *4916:B1 0
7 *4917:A1 *4916:B1 2.30292e-05
8 *5166:A *4916:B1 4.82863e-05
9 *573:8 *4916:B1 0
10 *656:68 *4916:B1 0.000112349
11 *656:83 *4916:B1 0.000120836
*RES
1 *4915:X *4916:B1 13.065 
*END

*D_NET *814 9.41184e-05
*CONN
*I *4917:A2 I *D sky130_fd_sc_hd__a21o_2
*I *4916:X O *D sky130_fd_sc_hd__a31o_2
*CAP
1 *4917:A2 7.65247e-06
2 *4916:X 7.65247e-06
3 *4917:A2 *4889:B1 2.93678e-05
4 *4917:A1 *4917:A2 4.94457e-05
*RES
1 *4916:X *4917:A2 3.65 
*END

*D_NET *815 0.000664317
*CONN
*I *4918:B1 I *D sky130_fd_sc_hd__o211a_2
*I *4917:X O *D sky130_fd_sc_hd__a21o_2
*CAP
1 *4918:B1 0.000161379
2 *4917:X 0.000161379
3 *4918:B1 *924:10 0
4 *4918:B1 *924:27 0
5 *4918:B1 *1029:27 0.000341559
6 *4918:B1 *1123:116 0
7 *1276:DIODE *4918:B1 0
*RES
1 *4917:X *4918:B1 11.13 
*END

*D_NET *816 0.000445551
*CONN
*I *4920:B1 I *D sky130_fd_sc_hd__a31o_2
*I *4919:Y O *D sky130_fd_sc_hd__o21ai_2
*CAP
1 *4920:B1 7.40937e-05
2 *4919:Y 7.40937e-05
3 *4920:B1 *4919:A2 3.96653e-05
4 *4920:B1 *4919:B1 0.000160635
5 *4920:B1 *4969:C1 4.7101e-05
6 *4919:A1 *4920:B1 4.99619e-05
*RES
1 *4919:Y *4920:B1 5.375 
*END

*D_NET *817 0.000609932
*CONN
*I *4922:A2 I *D sky130_fd_sc_hd__a21oi_2
*I *4920:X O *D sky130_fd_sc_hd__a31o_2
*CAP
1 *4922:A2 4.51173e-05
2 *4920:X 4.51173e-05
3 *4922:A2 *4969:C1 0.000275548
4 *4922:A2 *1012:30 0.000114912
5 *4922:A2 *1012:42 8.57024e-05
6 *4922:A2 *1124:65 4.35348e-05
*RES
1 *4920:X *4922:A2 5.72 
*END

*D_NET *818 0.000396337
*CONN
*I *4922:B1 I *D sky130_fd_sc_hd__a21oi_2
*I *4921:X O *D sky130_fd_sc_hd__a21o_2
*CAP
1 *4922:B1 9.4904e-05
2 *4921:X 9.4904e-05
3 *4922:B1 *987:112 1.56428e-05
4 *4922:B1 *990:20 0
5 *4922:B1 *1012:30 0.000137578
6 *4922:B1 *1119:141 5.33085e-05
*RES
1 *4921:X *4922:B1 9.285 
*END

*D_NET *819 0.000312215
*CONN
*I *4926:A1 I *D sky130_fd_sc_hd__o21a_2
*I *4923:X O *D sky130_fd_sc_hd__and3_2
*CAP
1 *4926:A1 0.000115665
2 *4923:X 0.000115665
3 *4926:A1 *4923:C 4.99619e-05
4 *4926:A1 *4924:B 3.09233e-05
5 *4926:A1 *983:105 0
6 *4926:A1 *1118:62 0
*RES
1 *4923:X *4926:A1 9.03 
*END

*D_NET *820 0.000423779
*CONN
*I *4925:B I *D sky130_fd_sc_hd__nor2_2
*I *4924:Y O *D sky130_fd_sc_hd__xnor2_2
*CAP
1 *4925:B 0.000109052
2 *4924:Y 0.000109052
3 *4925:B *4926:A2 7.06865e-05
4 *4925:B *990:113 5.05437e-05
5 *4925:B *1118:62 4.75576e-05
6 *4925:B *1118:79 1.26626e-05
7 *4925:B *1122:183 2.42236e-05
*RES
1 *4924:Y *4925:B 9.375 
*END

*D_NET *821 0.000711592
*CONN
*I *4926:A2 I *D sky130_fd_sc_hd__o21a_2
*I *4925:Y O *D sky130_fd_sc_hd__nor2_2
*CAP
1 *4926:A2 0.00017436
2 *4925:Y 0.00017436
3 *4926:A2 *4924:B 7.36562e-05
4 *4926:A2 *4925:A 4.66108e-05
5 *4926:A2 *905:10 0
6 *4926:A2 *905:16 0
7 *4926:A2 *1118:62 7.88397e-05
8 *4926:A2 *1122:183 9.30787e-05
9 *4925:B *4926:A2 7.06865e-05
*RES
1 *4925:Y *4926:A2 10.815 
*END

*D_NET *822 0.000893937
*CONN
*I *4928:A2 I *D sky130_fd_sc_hd__o211a_2
*I *4926:X O *D sky130_fd_sc_hd__o21a_2
*CAP
1 *4928:A2 0.000315585
2 *4926:X 0.000315585
3 *4928:A2 *4927:A 2.65814e-06
4 *4928:A2 *4928:B1 2.60986e-05
5 *4928:A2 *5053:D 9.37731e-05
6 *4928:A2 *916:18 2.65814e-06
7 *4928:A2 *1007:12 0.000137578
*RES
1 *4926:X *4928:A2 11.7 
*END

*D_NET *823 0.000335176
*CONN
*I *4928:B1 I *D sky130_fd_sc_hd__o211a_2
*I *4927:X O *D sky130_fd_sc_hd__or2_2
*CAP
1 *4928:B1 0.000103903
2 *4927:X 0.000103903
3 *4928:B1 *1288:DIODE 0
4 *4928:B1 *5053:D 0.000101271
5 *4928:A2 *4928:B1 2.60986e-05
*RES
1 *4927:X *4928:B1 9.285 
*END

*D_NET *824 0.000351353
*CONN
*I *4932:A1 I *D sky130_fd_sc_hd__o21a_2
*I *4929:X O *D sky130_fd_sc_hd__and3_2
*CAP
1 *4932:A1 0.000130435
2 *4929:X 0.000130435
3 *4932:A1 *4929:C 4.21973e-05
4 *4932:A1 *925:14 4.82863e-05
*RES
1 *4929:X *4932:A1 5.375 
*END

*D_NET *825 0.000376992
*CONN
*I *4931:C I *D sky130_fd_sc_hd__nor3_2
*I *4930:Y O *D sky130_fd_sc_hd__a21oi_2
*CAP
1 *4931:C 7.35546e-05
2 *4930:Y 7.35546e-05
3 *4931:C *916:26 4.66108e-05
4 *4931:C *985:133 0.000118513
5 *711:23 *4931:C 6.47594e-05
*RES
1 *4930:Y *4931:C 9.03 
*END

*D_NET *826 0.00142854
*CONN
*I *4932:A2 I *D sky130_fd_sc_hd__o21a_2
*I *4931:Y O *D sky130_fd_sc_hd__nor3_2
*CAP
1 *4932:A2 0.00032647
2 *4931:Y 0.00032647
3 *4932:A2 *4923:C 2.49909e-05
4 *4932:A2 *4929:B 0
5 *4932:A2 *4933:A 1.70935e-05
6 *4932:A2 *1023:83 0.000385322
7 *4932:A2 *1124:100 4.9968e-05
8 *4932:A2 *1124:111 0.000139933
9 *4932:A2 *1124:124 0.00015829
*RES
1 *4931:Y *4932:A2 14.685 
*END

*D_NET *827 0.000669257
*CONN
*I *4934:A2 I *D sky130_fd_sc_hd__o211a_2
*I *4932:X O *D sky130_fd_sc_hd__o21a_2
*CAP
1 *4934:A2 0.000150191
2 *4932:X 0.000150191
3 *4934:A2 *1302:DIODE 0.000108279
4 *4934:A2 *4934:B1 0.00011504
5 *4934:A2 *965:36 3.6971e-05
6 *4934:A2 *983:105 0.000108585
*RES
1 *4932:X *4934:A2 11.07 
*END

*D_NET *828 0.00053987
*CONN
*I *4934:B1 I *D sky130_fd_sc_hd__o211a_2
*I *4933:X O *D sky130_fd_sc_hd__or2_2
*CAP
1 *4934:B1 0.000121512
2 *4933:X 0.000121512
3 *4934:B1 *1291:DIODE 2.60908e-05
4 *4934:B1 *965:36 6.83447e-05
5 *4934:B1 *1007:50 8.7371e-05
6 *4934:A2 *4934:B1 0.00011504
*RES
1 *4933:X *4934:B1 9.735 
*END

*D_NET *829 0.000534776
*CONN
*I *4938:A1 I *D sky130_fd_sc_hd__o21a_2
*I *4935:X O *D sky130_fd_sc_hd__and3_2
*CAP
1 *4938:A1 0.000105836
2 *4935:X 0.000105836
3 *4938:A1 *926:47 0.000136877
4 *4938:A1 *1124:100 5.17188e-05
5 *657:21 *4938:A1 0.000134509
*RES
1 *4935:X *4938:A1 9.63 
*END

*D_NET *830 0.000601989
*CONN
*I *4937:C_N I *D sky130_fd_sc_hd__nor3b_2
*I *4936:X O *D sky130_fd_sc_hd__or2_2
*CAP
1 *4937:C_N 9.45937e-05
2 *4936:X 9.45937e-05
3 *4937:C_N *4737:B1 5.99393e-05
4 *4937:C_N *4738:C 0.000118081
5 *4937:C_N *1023:83 5.12942e-05
6 *657:21 *4937:C_N 0.000136877
7 *663:8 *4937:C_N 4.66108e-05
*RES
1 *4936:X *4937:C_N 9.975 
*END

*D_NET *831 0.00104318
*CONN
*I *4938:A2 I *D sky130_fd_sc_hd__o21a_2
*I *4937:Y O *D sky130_fd_sc_hd__nor3b_2
*CAP
1 *4938:A2 0.000151889
2 *4937:Y 0.000151889
3 *4938:A2 *986:152 0.000399694
4 *4938:A2 *1124:73 6.31891e-05
5 *4938:A2 *1124:100 2.75145e-05
6 *4743:B *4938:A2 0.000218084
7 *663:12 *4938:A2 3.09233e-05
*RES
1 *4937:Y *4938:A2 12.345 
*END

*D_NET *832 0.000322386
*CONN
*I *4940:A2 I *D sky130_fd_sc_hd__o21ba_2
*I *4938:X O *D sky130_fd_sc_hd__o21a_2
*CAP
1 *4940:A2 9.51834e-05
2 *4938:X 9.51834e-05
3 *4940:A2 *4935:B 9.80032e-06
4 *4940:A2 *4940:A1 8.40213e-05
5 *4940:A2 *1118:23 3.23663e-05
6 *4940:A2 *1124:100 5.83121e-06
*RES
1 *4938:X *4940:A2 5.03 
*END

*D_NET *833 0.000246704
*CONN
*I *4940:B1_N I *D sky130_fd_sc_hd__o21ba_2
*I *4939:Y O *D sky130_fd_sc_hd__o21ai_2
*CAP
1 *4940:B1_N 3.28247e-05
2 *4939:Y 3.28247e-05
3 *4940:B1_N *954:12 0.000120186
4 *4940:B1_N *1118:23 4.05358e-05
5 *4940:B1_N *1119:118 2.03321e-05
*RES
1 *4939:Y *4940:B1_N 8.58 
*END

*D_NET *834 0.00152404
*CONN
*I *4942:B1 I *D sky130_fd_sc_hd__o21a_2
*I *4941:Y O *D sky130_fd_sc_hd__a21oi_2
*CAP
1 *4942:B1 0.000378102
2 *4941:Y 0.000378102
3 *4942:B1 *4323:B 4.21973e-05
4 *4942:B1 *5083:RESET_B 7.00889e-06
5 *4942:B1 *967:62 0.000136884
6 *4942:B1 *975:10 0.000220912
7 *4942:B1 *1013:173 5.05437e-05
8 *4323:C *4942:B1 7.73569e-05
9 *4941:A2 *4942:B1 7.00889e-06
10 *4941:B1 *4942:B1 4.66826e-05
11 *4942:A2 *4942:B1 7.60965e-05
12 *4949:B *4942:B1 3.52434e-05
13 *243:25 *4942:B1 6.78988e-05
*RES
1 *4941:Y *4942:B1 15.255 
*END

*D_NET *835 0.000363039
*CONN
*I *4945:A I *D sky130_fd_sc_hd__nor2_2
*I *4943:Y O *D sky130_fd_sc_hd__a21oi_2
*CAP
1 *4945:A 0.000112495
2 *4943:Y 0.000112495
3 *4945:A *1250:DIODE 4.82919e-05
4 *4945:A *4945:B 8.97564e-05
5 *4945:A *967:16 0
*RES
1 *4943:Y *4945:A 9.54 
*END

*D_NET *836 0.00140906
*CONN
*I *4945:B I *D sky130_fd_sc_hd__nor2_2
*I *4944:X O *D sky130_fd_sc_hd__a31o_2
*CAP
1 *4945:B 0.000326377
2 *4944:X 0.000326377
3 *4945:B *967:16 0
4 *4945:B *994:27 0.000206123
5 *4945:B *994:46 0.000306615
6 *4941:B1 *4945:B 0.000118081
7 *4943:A2 *4945:B 0
8 *4945:A *4945:B 8.97564e-05
9 *244:22 *4945:B 3.57349e-05
*RES
1 *4944:X *4945:B 14.655 
*END

*D_NET *837 0.000691894
*CONN
*I *4948:B I *D sky130_fd_sc_hd__and3_2
*I *4946:X O *D sky130_fd_sc_hd__a31o_2
*CAP
1 *4948:B 0.000241382
2 *4946:X 0.000241382
3 *4948:B *1335:DIODE 3.39151e-05
4 *4948:B *5085:D 4.85494e-05
5 *4948:B *971:29 3.39151e-05
6 *245:57 *4948:B 9.27495e-05
*RES
1 *4946:X *4948:B 10.845 
*END

*D_NET *838 0.00117671
*CONN
*I *4948:C I *D sky130_fd_sc_hd__and3_2
*I *4947:Y O *D sky130_fd_sc_hd__nand2_2
*CAP
1 *4948:C 0.00020838
2 *4947:Y 0.00020838
3 *4948:C *1335:DIODE 2.39187e-05
4 *4948:C *1000:51 0.000208431
5 *4317:B *4948:C 8.23457e-05
6 *4946:A3 *4948:C 3.05373e-05
7 *5148:A *4948:C 0.000206123
8 *240:18 *4948:C 7.06865e-05
9 *248:10 *4948:C 7.12228e-06
10 *248:12 *4948:C 4.84393e-05
11 *249:10 *4948:C 8.23457e-05
*RES
1 *4947:Y *4948:C 12.945 
*END

*D_NET *839 0.00405016
*CONN
*I *4965:A I *D sky130_fd_sc_hd__or3_2
*I *4950:Y O *D sky130_fd_sc_hd__nor2_2
*CAP
1 *4965:A 0.000921613
2 *4950:Y 0.000921613
3 *4965:A *1205:DIODE 0.000124007
4 *4965:A *1210:DIODE 0
5 *4965:A *4950:B 0.000155694
6 *4965:A *4987:A 0.000101188
7 *4965:A *5063:D 6.71803e-06
8 *4965:A *5143:A 6.7449e-05
9 *4965:A *964:10 0.000105841
10 *4965:A *964:42 0.000207542
11 *4965:A *985:29 0
12 *4965:A *987:8 4.15496e-05
13 *4965:A *987:14 0.000322117
14 *4965:A *1023:111 0
15 *1343:DIODE *4965:A 6.28765e-05
16 *1364:DIODE *4965:A 0.00013521
17 *4693:B1 *4965:A 0
18 *4721:A1 *4965:A 0
19 *653:52 *4965:A 3.23391e-05
20 *656:83 *4965:A 0.000844399
*RES
1 *4950:Y *4965:A 30.57 
*END

*D_NET *840 0.00030154
*CONN
*I *4967:D1 I *D sky130_fd_sc_hd__o2111ai_2
*I *4951:X O *D sky130_fd_sc_hd__o22a_2
*CAP
1 *4967:D1 4.12163e-05
2 *4951:X 4.12163e-05
3 *4967:D1 *990:189 0.000140912
4 *230:59 *4967:D1 7.81954e-05
*RES
1 *4951:X *4967:D1 8.835 
*END

*D_NET *841 0.00739294
*CONN
*I *4965:B I *D sky130_fd_sc_hd__or3_2
*I *4952:X O *D sky130_fd_sc_hd__xor2_2
*CAP
1 *4965:B 0.00343716
2 *4952:X 0.00343716
3 *4965:B *4973:D_N 9.97756e-05
4 *4965:B *5079:RESET_B 0
5 *4965:B *924:10 1.00941e-05
6 *4965:B *1127:66 5.15596e-05
7 *5302:A *4965:B 7.96104e-06
8 *1:10 *4965:B 0
9 *570:16 *4965:B 7.78114e-05
10 *653:52 *4965:B 0.000134096
11 *656:83 *4965:B 0.000137329
*RES
1 *4952:X *4965:B 15.4689 
*END

*D_NET *842 0.0011167
*CONN
*I *4981:B1 I *D sky130_fd_sc_hd__o2111ai_2
*I *4953:X O *D sky130_fd_sc_hd__xor2_2
*CAP
1 *4981:B1 0.000134758
2 *4953:X 0.000134758
3 *4981:B1 *4953:B 2.75229e-05
4 *4981:B1 *4985:D1 0.000335858
5 *4981:B1 *4987:B 0.000337524
6 *4981:B1 *908:31 8.40269e-05
7 *4981:B1 *909:30 1.56428e-05
8 *4981:A1 *4981:B1 4.66108e-05
*RES
1 *4953:X *4981:B1 12.375 
*END

*D_NET *843 0.0101729
*CONN
*I *4970:A I *D sky130_fd_sc_hd__or4_2
*I *4954:Y O *D sky130_fd_sc_hd__xnor2_2
*CAP
1 *4970:A 0.00477935
2 *4954:Y 0.00477935
3 *4970:A *4970:C 1.22676e-05
4 *4970:A *4985:D1 0.000119906
5 *4970:A *4987:B 3.12569e-05
6 *4970:A *935:33 0
7 *4970:A *966:191 0
8 *4970:A *987:88 0.000150321
9 *4970:A *987:92 3.05295e-05
10 *4899:A2 *4970:A 1.26626e-05
11 *567:12 *4970:A 0.000257284
*RES
1 *4954:Y *4970:A 21.3213 
*END

*D_NET *844 0.0078724
*CONN
*I *4967:C1 I *D sky130_fd_sc_hd__o2111ai_2
*I *4955:X O *D sky130_fd_sc_hd__xor2_2
*CAP
1 *4967:C1 0.00028636
2 *4955:X 0.00207604
3 *844:12 0.0023624
4 *844:12 *1260:DIODE 6.14689e-05
5 *844:12 *1335:DIODE 1.93834e-05
6 *844:12 *1357:DIODE 0.00151445
7 *844:12 *4874:A1 9.37731e-05
8 *844:12 *4876:A2 0
9 *844:12 *4891:A1 2.75145e-05
10 *844:12 *4891:A2 2.7441e-05
11 *844:12 *5074:RESET_B 0.000103974
12 *844:12 *5303:A 0
13 *844:12 *917:19 8.34505e-05
14 *844:12 *917:32 0.000230038
15 *844:12 *918:28 0
16 *844:12 *920:43 5.10737e-05
17 *844:12 *990:189 0
18 *844:12 *994:172 0
19 *844:12 *1009:23 0
20 *844:12 *1009:34 0
21 *844:12 *1009:51 0
22 *844:12 *1009:64 0.000223457
23 *844:12 *1009:79 4.19797e-05
24 *844:12 *1029:8 0.000281647
25 *4854:A2 *844:12 0
26 *4869:B1 *844:12 5.92849e-05
27 *4892:A2 *844:12 9.428e-05
28 *4892:B1 *844:12 4.82919e-05
29 *4971:A2 *844:12 0
30 *375:54 *844:12 0.000186099
31 *670:14 *844:12 0
32 *775:12 *844:12 0
33 *775:23 *844:12 0
34 *779:10 *844:12 0
*RES
1 *4955:X *844:12 48.57 
2 *844:12 *4967:C1 7.515 
*END

*D_NET *845 0.000840926
*CONN
*I *4967:A1 I *D sky130_fd_sc_hd__o2111ai_2
*I *4956:Y O *D sky130_fd_sc_hd__nor3_2
*CAP
1 *4967:A1 7.89036e-05
2 *4956:Y 7.89036e-05
3 *4967:A1 *4967:A2 0.000341559
4 *4967:A1 *960:31 0.000341559
*RES
1 *4956:Y *4967:A1 11.13 
*END

*D_NET *846 0.000974402
*CONN
*I *4967:A2 I *D sky130_fd_sc_hd__o2111ai_2
*I *4957:X O *D sky130_fd_sc_hd__o21a_2
*CAP
1 *4967:A2 0.000192601
2 *4957:X 0.000192601
3 *4967:A2 *4967:B1 4.18603e-06
4 *4967:A2 *960:31 0.000123268
5 *4956:C *4967:A2 0.000120186
6 *4967:A1 *4967:A2 0.000341559
7 *229:53 *4967:A2 0
*RES
1 *4957:X *4967:A2 12.66 
*END

*D_NET *847 0.00802122
*CONN
*I *4973:A I *D sky130_fd_sc_hd__or4b_2
*I *4958:Y O *D sky130_fd_sc_hd__xnor2_2
*CAP
1 *4973:A 0.000223779
2 *4958:Y 0.00172054
3 *847:12 0.00194432
4 *4973:A *4840:B 3.00381e-05
5 *847:12 *1356:DIODE 0.000141599
6 *847:12 *4840:B 0.000177897
7 *847:12 *4911:A1 0.00014077
8 *847:12 *4912:A2 0
9 *847:12 *4912:B1 9.78734e-05
10 *847:12 *4942:A1 0
11 *847:12 *4958:B 0.000169064
12 *847:12 *5051:RESET_B 0.000267591
13 *847:12 *5083:CLK 0.000166346
14 *847:12 *5083:D 0
15 *847:12 *5083:RESET_B 0
16 *847:12 *912:12 0.000136884
17 *847:12 *912:16 0.000149749
18 *847:12 *912:18 0.00019509
19 *847:12 *923:10 0
20 *847:12 *951:10 0.000105849
21 *847:12 *1013:10 0
22 *847:12 *1013:16 0
23 *847:12 *1013:106 0.000626477
24 *847:12 *1029:147 0.000266201
25 *847:12 *1029:169 0.000584524
26 *847:12 *1121:39 7.24779e-05
27 *847:12 *1124:203 0
28 *4841:B *4973:A 0.000163199
29 *4911:A2 *847:12 0
30 *4911:B1 *847:12 0.00016163
31 *4958:A *847:12 0.000279787
32 *748:16 *4973:A 0.000199541
*RES
1 *4958:Y *847:12 46.19 
2 *847:12 *4973:A 6.55 
*END

*D_NET *848 0.00202131
*CONN
*I *4985:B1 I *D sky130_fd_sc_hd__o2111ai_2
*I *4959:X O *D sky130_fd_sc_hd__a21o_2
*CAP
1 *4985:B1 0.000492269
2 *4959:X 0.000492269
3 *4985:B1 *4725:A1 5.19629e-05
4 *4985:B1 *4860:A2 0.000373911
5 *4985:B1 *4981:C1 0.000413348
6 *4985:B1 *988:66 3.99855e-05
7 *4985:B1 *1008:24 9.82856e-06
8 *4985:B1 *1008:40 2.75538e-05
9 *4979:A1 *4985:B1 0
10 *4979:B2 *4985:B1 0.000120186
*RES
1 *4959:X *4985:B1 20.43 
*END

*D_NET *849 0.000652233
*CONN
*I *4973:C I *D sky130_fd_sc_hd__or4b_2
*I *4960:Y O *D sky130_fd_sc_hd__xnor2_2
*CAP
1 *4973:C 0.00018537
2 *4960:Y 0.00018537
3 *4973:C *4960:B 0.000162311
4 *4973:C *5051:D 6.47594e-05
5 *4973:C *913:46 1.03423e-05
6 *4973:C *1013:16 4.40812e-05
*RES
1 *4960:Y *4973:C 10.41 
*END

*D_NET *850 0.00124145
*CONN
*I *4985:C1 I *D sky130_fd_sc_hd__o2111ai_2
*I *4961:Y O *D sky130_fd_sc_hd__nand3_2
*CAP
1 *4985:C1 0.000220884
2 *4961:Y 0.000220884
3 *4985:C1 *4981:C1 0.000485233
4 *4985:C1 *4985:D1 0
5 *4985:C1 *4987:B 0.000182545
6 *4985:C1 *4987:C 8.41307e-05
7 *374:49 *4985:C1 4.77719e-05
*RES
1 *4961:Y *4985:C1 13.71 
*END

*D_NET *851 0.00732171
*CONN
*I *4968:D1 I *D sky130_fd_sc_hd__a2111o_2
*I *4962:Y O *D sky130_fd_sc_hd__nor2_2
*CAP
1 *4968:D1 0
2 *4962:Y 0.00186602
3 *851:18 0.00186602
4 *851:18 *1224:DIODE 1.79536e-05
5 *851:18 *1232:DIODE 0
6 *851:18 *4725:A1 4.90071e-05
7 *851:18 *4725:C1 0
8 *851:18 *4726:A1 0.000159369
9 *851:18 *4726:A2 0.000179694
10 *851:18 *4738:A 0
11 *851:18 *4968:C1 0.000201508
12 *851:18 *4969:A2 5.02905e-05
13 *851:18 *4981:C1 0
14 *851:18 *4985:D1 0.00194476
15 *851:18 *938:10 0.000136467
16 *851:18 *963:13 0
17 *851:18 *992:86 0.000574724
18 *4450:A *851:18 0
19 *4738:B *851:18 0
20 *4961:B *851:18 0.000179213
21 *4962:B *851:18 8.65905e-05
22 *230:140 *851:18 1.00941e-05
23 *370:31 *851:18 0
*RES
1 *4962:Y *851:18 48.92 
2 *851:18 *4968:D1 1.6 
*END

*D_NET *852 0.00019551
*CONN
*I *4964:C1 I *D sky130_fd_sc_hd__a221o_2
*I *4963:X O *D sky130_fd_sc_hd__a2bb2o_2
*CAP
1 *4964:C1 4.57092e-05
2 *4963:X 4.57092e-05
3 *4963:A1_N *4964:C1 1.37328e-05
4 *5302:A *4964:C1 3.72916e-05
5 *430:8 *4964:C1 5.30673e-05
*RES
1 *4963:X *4964:C1 4.61 
*END

*D_NET *853 0.00267745
*CONN
*I *4965:C I *D sky130_fd_sc_hd__or3_2
*I *4964:X O *D sky130_fd_sc_hd__a221o_2
*CAP
1 *4965:C 0.000524044
2 *4964:X 0.000524044
3 *4965:C *1346:DIODE 0.000237249
4 *4965:C *4964:A2 0.000120655
5 *4851:C1 *4965:C 0.000108031
6 *5302:A *4965:C 0.000755769
7 *430:8 *4965:C 0.000407658
*RES
1 *4964:X *4965:C 18.86 
*END

*D_NET *854 0.00293618
*CONN
*I *4987:A I *D sky130_fd_sc_hd__nor3_2
*I *4965:X O *D sky130_fd_sc_hd__or3_2
*CAP
1 *4987:A 0.00065332
2 *4965:X 0.00065332
3 *4987:A *4981:C1 1.88602e-05
4 *4987:A *964:42 4.87268e-05
5 *4987:A *1120:23 0
6 *4987:A *1127:66 0.00114753
7 *4965:A *4987:A 0.000101188
8 *1:10 *4987:A 0.000313237
*RES
1 *4965:X *4987:A 11.4127 
*END

*D_NET *855 0.000422619
*CONN
*I *4967:B1 I *D sky130_fd_sc_hd__o2111ai_2
*I *4966:Y O *D sky130_fd_sc_hd__a22oi_2
*CAP
1 *4967:B1 7.56327e-05
2 *4966:Y 7.56327e-05
3 *4967:B1 *960:31 5.42019e-05
4 *4967:A2 *4967:B1 4.18603e-06
5 *229:53 *4967:B1 0.000164679
6 *375:16 *4967:B1 4.82863e-05
*RES
1 *4966:Y *4967:B1 9.54 
*END

*D_NET *856 0.00599614
*CONN
*I *4970:B I *D sky130_fd_sc_hd__or4_2
*I *4967:Y O *D sky130_fd_sc_hd__o2111ai_2
*CAP
1 *4970:B 0.00177481
2 *4967:Y 0.00177481
3 *4970:B *1306:DIODE 0.000268304
4 *4970:B *4756:A1 8.57322e-05
5 *4970:B *4756:C1 7.22329e-05
6 *4970:B *4978:A 6.1452e-05
7 *4970:B *5143:A 0.000916463
8 *4970:B *928:10 6.07575e-06
9 *4970:B *964:127 0.000467453
10 *4970:B *964:131 2.49909e-05
11 *4970:B *987:14 0.000155444
12 *4970:B *987:16 2.49909e-05
13 *4970:B *990:189 0.000148975
14 *4756:A2 *4970:B 4.82919e-05
15 *4758:A2 *4970:B 4.99619e-05
16 *230:59 *4970:B 0.000116158
*RES
1 *4967:Y *4970:B 38.55 
*END

*D_NET *857 0.00331804
*CONN
*I *4970:C I *D sky130_fd_sc_hd__or4_2
*I *4968:X O *D sky130_fd_sc_hd__a2111o_2
*CAP
1 *4970:C 0.000623998
2 *4968:X 0.000623998
3 *4970:C *4969:B1 1.88602e-05
4 *4970:C *4985:D1 0.00135752
5 *4970:C *935:10 0.000154304
6 *4970:C *935:33 1.7635e-05
7 *4970:C *987:92 0
8 *4970:C *987:112 0.000160635
9 *4970:C *1023:29 0
10 *4739:C *4970:C 4.05193e-05
11 *4798:C *4970:C 0.000137578
12 *4799:A1 *4970:C 7.36562e-05
13 *4970:A *4970:C 1.22676e-05
14 *698:37 *4970:C 9.70699e-05
*RES
1 *4968:X *4970:C 24.6 
*END

*D_NET *858 0.000257083
*CONN
*I *4970:D I *D sky130_fd_sc_hd__or4_2
*I *4969:X O *D sky130_fd_sc_hd__a2111o_2
*CAP
1 *4970:D 3.72531e-05
2 *4969:X 3.72531e-05
3 *4970:D *987:92 0.000117825
4 *4980:A *4970:D 6.47516e-05
*RES
1 *4969:X *4970:D 8.58 
*END

*D_NET *859 0.00242653
*CONN
*I *4987:B I *D sky130_fd_sc_hd__nor3_2
*I *4970:X O *D sky130_fd_sc_hd__or4_2
*CAP
1 *4987:B 0.000465663
2 *4970:X 0.000465663
3 *4987:B *4981:C1 1.52862e-05
4 *4987:B *4985:D1 0.000306555
5 *4987:B *4987:C 0.000290984
6 *4987:B *987:88 0
7 *4970:A *4987:B 3.12569e-05
8 *4981:A1 *4987:B 0.000331054
9 *4981:B1 *4987:B 0.000337524
10 *4985:C1 *4987:B 0.000182545
*RES
1 *4970:X *4987:B 21.075 
*END

*D_NET *860 0.00684055
*CONN
*I *4973:D_N I *D sky130_fd_sc_hd__or4b_2
*I *4971:X O *D sky130_fd_sc_hd__o32a_2
*CAP
1 *4973:D_N 0.00293975
2 *4971:X 0.00293975
3 *4973:D_N *1335:DIODE 0
4 *4973:D_N *4986:A 2.28415e-05
5 *4973:D_N *963:45 0
6 *4973:D_N *984:53 0.000145982
7 *4973:D_N *984:74 0.000673593
8 *4973:D_N *1127:66 0
9 *4964:B2 *4973:D_N 1.88656e-05
10 *4965:B *4973:D_N 9.97756e-05
11 *585:12 *4973:D_N 0
*RES
1 *4971:X *4973:D_N 14.9595 
*END

*D_NET *861 0.00101348
*CONN
*I *4973:B I *D sky130_fd_sc_hd__or4b_2
*I *4972:Y O *D sky130_fd_sc_hd__xnor2_2
*CAP
1 *4973:B 0.000217798
2 *4972:Y 0.000217798
3 *4973:B *4986:A 0.000132051
4 *4973:B *5051:D 0.000445837
*RES
1 *4972:Y *4973:B 11.94 
*END

*D_NET *862 0.00312236
*CONN
*I *4986:A I *D sky130_fd_sc_hd__or4_2
*I *4973:X O *D sky130_fd_sc_hd__or4b_2
*CAP
1 *4986:A 0.00138848
2 *4973:X 0.00138848
3 *4986:A *4691:A 0
4 *4986:A *4986:B 1.06418e-05
5 *4986:A *4986:C 3.26889e-05
6 *4986:A *4986:D 3.94592e-05
7 *4986:A *5051:D 5.44755e-05
8 *4986:A *910:81 0
9 *4986:A *963:11 0
10 *4986:A *963:45 0
11 *4986:A *1013:16 0
12 *4723:A1 *4986:A 0
13 *4973:B *4986:A 0.000132051
14 *4973:D_N *4986:A 2.28415e-05
15 *5120:A *4986:A 5.32291e-05
*RES
1 *4973:X *4986:A 25.425 
*END

*D_NET *863 0.00491927
*CONN
*I *4978:A I *D sky130_fd_sc_hd__nand4_2
*I *4974:Y O *D sky130_fd_sc_hd__xnor2_2
*CAP
1 *4978:A 0.000946584
2 *4974:Y 0.000946584
3 *4978:A *4715:B1 0
4 *4978:A *4975:B1 0.000152227
5 *4978:A *4978:B 0
6 *4978:A *929:10 0.000110683
7 *4978:A *929:14 0.00033655
8 *4978:A *956:12 0.000320834
9 *4978:A *960:31 0
10 *4978:A *990:189 0
11 *4713:B2 *4978:A 4.9968e-05
12 *4713:C1 *4978:A 1.53032e-05
13 *4715:C1 *4978:A 8.66864e-05
14 *4716:A1_N *4978:A 7.89112e-05
15 *4765:A1 *4978:A 0
16 *4956:B *4978:A 0.00013994
17 *4970:B *4978:A 6.1452e-05
18 *4971:B1 *4978:A 0
19 *4975:B2 *4978:A 0.000208683
20 *227:22 *4978:A 0.000112105
21 *227:44 *4978:A 9.34489e-05
22 *227:64 *4978:A 8.25803e-05
23 *229:53 *4978:A 0.00105188
24 *230:59 *4978:A 1.15688e-05
25 *622:44 *4978:A 8.65905e-05
26 *633:8 *4978:A 2.66935e-05
*RES
1 *4974:Y *4978:A 34.62 
*END

*D_NET *864 0.000698181
*CONN
*I *4978:B I *D sky130_fd_sc_hd__nand4_2
*I *4975:X O *D sky130_fd_sc_hd__o2bb2a_2
*CAP
1 *4978:B 0.000221934
2 *4975:X 0.000221934
3 *4978:B *4977:A2 0.000160068
4 *4966:B2 *4978:B 0
5 *4975:A1_N *4978:B 6.60615e-05
6 *4975:B2 *4978:B 2.81842e-05
7 *4978:A *4978:B 0
*RES
1 *4975:X *4978:B 11.46 
*END

*D_NET *865 0.000646057
*CONN
*I *4978:C I *D sky130_fd_sc_hd__nand4_2
*I *4976:X O *D sky130_fd_sc_hd__o2bb2a_2
*CAP
1 *4978:C 0.000205799
2 *4976:X 0.000205799
3 *4978:C *4977:A2 1.4389e-05
4 *4978:C *4986:B 0.00022007
5 *4966:B2 *4978:C 0
*RES
1 *4976:X *4978:C 10.965 
*END

*D_NET *866 0.000141987
*CONN
*I *4978:D I *D sky130_fd_sc_hd__nand4_2
*I *4977:X O *D sky130_fd_sc_hd__o22a_2
*CAP
1 *4978:D 2.87332e-05
2 *4977:X 2.87332e-05
3 *4978:D *4977:A2 3.45588e-05
4 *4978:D *4977:B1 4.99619e-05
*RES
1 *4977:X *4978:D 3.995 
*END

*D_NET *867 0.00737091
*CONN
*I *4986:B I *D sky130_fd_sc_hd__or4_2
*I *4978:Y O *D sky130_fd_sc_hd__nand4_2
*CAP
1 *4986:B 0.00239139
2 *4978:Y 0.00239139
3 *4986:B *1305:DIODE 1.16646e-05
4 *4986:B *1321:DIODE 0.000124929
5 *4986:B *1358:DIODE 0.000714655
6 *4986:B *1359:DIODE 2.97473e-05
7 *4986:B *4977:A2 8.88523e-06
8 *4986:B *4977:B1 0
9 *4986:B *4981:C1 0.000201707
10 *4986:B *4986:C 0
11 *4986:B *4986:D 8.8266e-05
12 *4986:B *4987:C 0.000349592
13 *4986:B *5163:A 0.000119756
14 *4986:B *1023:145 5.35969e-06
15 *4986:B *1123:165 0
16 *4693:B1 *4986:B 2.16917e-05
17 *4695:A_N *4986:B 0.000197264
18 *4695:D *4986:B 0.000120655
19 *4852:A2 *4986:B 8.40269e-05
20 *4978:C *4986:B 0.00022007
21 *4986:A *4986:B 1.06418e-05
22 *5120:A *4986:B 2.8696e-05
23 *1:32 *4986:B 2.09665e-05
24 *374:40 *4986:B 7.79931e-05
25 *374:49 *4986:B 0.00012657
26 *616:8 *4986:B 2.49909e-05
*RES
1 *4978:Y *4986:B 43.575 
*END

*D_NET *868 0.00402334
*CONN
*I *4981:C1 I *D sky130_fd_sc_hd__o2111ai_2
*I *4979:Y O *D sky130_fd_sc_hd__a32oi_2
*CAP
1 *4981:C1 0.00086592
2 *4979:Y 0.00086592
3 *4981:C1 *4692:A 5.65267e-05
4 *4981:C1 *4725:A1 4.90071e-05
5 *4981:C1 *4986:C 0
6 *4981:C1 *4986:D 0
7 *4981:C1 *987:88 0.000138257
8 *4981:C1 *1008:40 0
9 *4981:C1 *1125:80 0
10 *4450:A *4981:C1 0.00012994
11 *4979:A1 *4981:C1 6.05595e-05
12 *4979:A2 *4981:C1 0
13 *4979:B1 *4981:C1 1.5567e-05
14 *4979:B2 *4981:C1 0.000124351
15 *4981:A1 *4981:C1 0.000180121
16 *4985:B1 *4981:C1 0.000413348
17 *4985:C1 *4981:C1 0.000485233
18 *4986:B *4981:C1 0.000201707
19 *4987:A *4981:C1 1.88602e-05
20 *4987:B *4981:C1 1.52862e-05
21 *1:32 *4981:C1 3.18137e-05
22 *370:31 *4981:C1 0.000196271
23 *370:40 *4981:C1 0.000174649
24 *851:18 *4981:C1 0
*RES
1 *4979:Y *4981:C1 29.445 
*END

*D_NET *869 0.000669401
*CONN
*I *4981:D1 I *D sky130_fd_sc_hd__o2111ai_2
*I *4980:Y O *D sky130_fd_sc_hd__nand2_2
*CAP
1 *4981:D1 0.000174291
2 *4980:Y 0.000174291
3 *4981:D1 *4694:B2 4.39734e-05
4 *4981:D1 *4696:A1 6.36578e-05
5 *4981:D1 *4696:B2 0
6 *4981:D1 *4986:C 4.82919e-05
7 *4981:D1 *909:30 1.83847e-05
8 *4981:D1 *987:88 9.70786e-05
9 *4981:D1 *1013:38 0
10 *4722:A *4981:D1 0
11 *4953:A *4981:D1 4.94326e-05
*RES
1 *4980:Y *4981:D1 11.58 
*END

*D_NET *870 0.00142996
*CONN
*I *4986:C I *D sky130_fd_sc_hd__or4_2
*I *4981:Y O *D sky130_fd_sc_hd__o2111ai_2
*CAP
1 *4986:C 0.000416016
2 *4981:Y 0.000416016
3 *4986:C *4692:A 8.52172e-05
4 *4986:C *4694:B2 0.000331133
5 *4986:C *4986:D 1.76403e-05
6 *4986:C *909:30 2.50602e-05
7 *4986:C *987:88 0
8 *4986:C *1123:165 4.76647e-05
9 *4981:C1 *4986:C 0
10 *4981:D1 *4986:C 4.82919e-05
11 *4986:A *4986:C 3.26889e-05
12 *4986:B *4986:C 0
13 *5120:A *4986:C 1.02261e-05
*RES
1 *4981:Y *4986:C 15.315 
*END

*D_NET *871 0.00746074
*CONN
*I *4985:D1 I *D sky130_fd_sc_hd__o2111ai_2
*I *4982:X O *D sky130_fd_sc_hd__o22a_2
*CAP
1 *4985:D1 0.00131022
2 *4982:X 0.00131022
3 *4985:D1 *4968:A2 2.30292e-05
4 *4985:D1 *4968:B1 8.73389e-06
5 *4985:D1 *4968:C1 1.91597e-05
6 *4985:D1 *4969:A2 5.02905e-05
7 *4985:D1 *4980:B 8.49205e-05
8 *4985:D1 *4987:C 0.000290984
9 *4985:D1 *934:23 1.19928e-05
10 *4985:D1 *1008:24 3.45588e-05
11 *4985:D1 *1125:80 5.05437e-05
12 *4961:B *4985:D1 0.00018088
13 *4970:A *4985:D1 0.000119906
14 *4970:C *4985:D1 0.00135752
15 *4981:B1 *4985:D1 0.000335858
16 *4985:C1 *4985:D1 0
17 *4987:B *4985:D1 0.000306555
18 *698:37 *4985:D1 2.06083e-05
19 *851:18 *4985:D1 0.00194476
*RES
1 *4982:X *4985:D1 44.85 
*END

*D_NET *872 0.00241243
*CONN
*I *4985:A1 I *D sky130_fd_sc_hd__o2111ai_2
*I *4983:Y O *D sky130_fd_sc_hd__nor3_2
*CAP
1 *4985:A1 0.000407997
2 *4983:Y 0.000407997
3 *4985:A1 *4860:A2 1.07797e-05
4 *4985:A1 *4985:A2 0.00105432
5 *4985:A1 *4986:D 5.39961e-05
6 *4985:A1 *915:30 0.000137571
7 *4985:A1 *988:66 1.1392e-05
8 *4985:A1 *1123:165 0.000328371
*RES
1 *4983:Y *4985:A1 19.74 
*END

*D_NET *873 0.00342032
*CONN
*I *4985:A2 I *D sky130_fd_sc_hd__o2111ai_2
*I *4984:X O *D sky130_fd_sc_hd__o21a_2
*CAP
1 *4985:A2 0.000581507
2 *4984:X 0.000581507
3 *4985:A2 *4860:A2 0.000926865
4 *4985:A2 *988:66 6.0147e-06
5 *4985:A2 *1008:40 8.7442e-05
6 *4983:A *4985:A2 8.65961e-05
7 *4983:B *4985:A2 3.21634e-05
8 *4984:A2 *4985:A2 4.55186e-05
9 *4985:A1 *4985:A2 0.00105432
10 *766:25 *4985:A2 1.83847e-05
*RES
1 *4984:X *4985:A2 23.4 
*END

*D_NET *874 0.00115018
*CONN
*I *4986:D I *D sky130_fd_sc_hd__or4_2
*I *4985:Y O *D sky130_fd_sc_hd__o2111ai_2
*CAP
1 *4986:D 0.000334322
2 *4985:Y 0.000334322
3 *4986:D *1008:40 5.63169e-05
4 *4986:D *1123:165 0.000189065
5 *4986:D *1125:80 0
6 *4981:C1 *4986:D 0
7 *4985:A1 *4986:D 5.39961e-05
8 *4986:A *4986:D 3.94592e-05
9 *4986:B *4986:D 8.8266e-05
10 *4986:C *4986:D 1.76403e-05
11 *5120:A *4986:D 3.67957e-05
12 *1:32 *4986:D 0
*RES
1 *4985:Y *4986:D 14.28 
*END

*D_NET *875 0.00218027
*CONN
*I *4987:C I *D sky130_fd_sc_hd__nor3_2
*I *4986:X O *D sky130_fd_sc_hd__or4_2
*CAP
1 *4987:C 0.000491034
2 *4986:X 0.000491034
3 *4987:C *1123:165 6.95753e-05
4 *4987:C *1124:44 6.95753e-05
5 *4987:C *1124:56 8.53113e-06
6 *4985:C1 *4987:C 8.41307e-05
7 *4985:D1 *4987:C 0.000290984
8 *4986:B *4987:C 0.000349592
9 *4987:B *4987:C 0.000290984
10 *374:49 *4987:C 3.48309e-05
*RES
1 *4986:X *4987:C 20.425 
*END

*D_NET *876 0.00043165
*CONN
*I *5030:B I *D sky130_fd_sc_hd__and4b_2
*I *4989:B I *D sky130_fd_sc_hd__nand2_2
*I *4988:Y O *D sky130_fd_sc_hd__nor2_2
*CAP
1 *5030:B 9.12221e-05
2 *4989:B 6.91045e-05
3 *4988:Y 0.000160327
4 *4989:B *4988:B 4.05358e-05
5 *4989:B *5140:A 0
6 *4989:B *997:103 1.73877e-05
7 *5030:B *1002:22 5.30732e-05
*RES
1 *4988:Y *4989:B 8.58 
2 *4988:Y *5030:B 4.685 
*END

*D_NET *877 0.00515493
*CONN
*I *5019:A I *D sky130_fd_sc_hd__nor2_2
*I *4991:A I *D sky130_fd_sc_hd__nor2_2
*I *4989:Y O *D sky130_fd_sc_hd__nand2_2
*CAP
1 *5019:A 0.000101017
2 *4991:A 0.000298969
3 *4989:Y 0.000749422
4 *877:12 0.00114941
5 *4991:A *4990:A 4.91189e-05
6 *4991:A *4993:A 1.70935e-05
7 *4991:A *5001:B 5.53249e-06
8 *4991:A *5236:A 0
9 *4991:A *879:21 5.05521e-05
10 *4991:A *881:8 0.000120655
11 *4991:A *972:39 0
12 *4991:A *972:48 0
13 *4991:A *994:27 0
14 *5019:A *5019:B 4.95661e-05
15 *5019:A *5031:C1 9.72742e-06
16 *5019:A *879:21 0
17 *5019:A *881:8 4.66108e-05
18 *5019:A *1000:61 7.66388e-05
19 *877:12 *4993:A 0.000180682
20 *877:12 *4995:B 2.92496e-05
21 *877:12 *4996:B 0.000344697
22 *877:12 *4999:A3 0.000172158
23 *877:12 *881:19 8.45475e-05
24 *877:12 *881:30 4.21314e-05
25 *877:12 *883:8 6.5525e-05
26 *877:12 *888:10 2.05661e-05
27 *877:12 *972:65 0
28 *877:12 *973:41 0.000114492
29 *877:12 *1001:10 0
30 *877:12 *1001:86 0.00013493
31 *877:12 *1002:22 0.000141592
32 *877:12 *1002:28 0.00100582
33 *244:20 *4991:A 0
34 *244:20 *877:12 9.42224e-05
*RES
1 *4989:Y *877:12 25.475 
2 *877:12 *4991:A 11.18 
3 *877:12 *5019:A 3.79 
*END

*D_NET *878 0.000295738
*CONN
*I *4991:B I *D sky130_fd_sc_hd__nor2_2
*I *4990:X O *D sky130_fd_sc_hd__or4_2
*CAP
1 *4991:B 4.99018e-05
2 *4990:X 4.99018e-05
3 *4991:B *4990:A 6.92939e-05
4 *4991:B *5236:A 5.30673e-05
5 *253:16 *4991:B 7.35729e-05
*RES
1 *4990:X *4991:B 4.955 
*END

*D_NET *879 0.00134177
*CONN
*I *5000:B I *D sky130_fd_sc_hd__nand2_2
*I *4993:A I *D sky130_fd_sc_hd__inv_2
*I *4994:B I *D sky130_fd_sc_hd__or2_2
*I *4992:X O *D sky130_fd_sc_hd__or3_2
*CAP
1 *5000:B 0
2 *4993:A 0.000105276
3 *4994:B 0
4 *4992:X 7.28306e-05
5 *879:21 0.000304003
6 *879:8 0.000271558
7 *4993:A *4995:B 1.26548e-05
8 *4993:A *5001:B 0
9 *879:8 *4992:A 0
10 *879:8 *5000:A 0
11 *879:8 *994:27 2.65814e-06
12 *879:8 *1000:61 0.00012657
13 *879:21 *5000:A 0.000162113
14 *879:21 *5019:B 0
15 *879:21 *881:8 9.80032e-06
16 *879:21 *1000:61 2.59835e-05
17 *4991:A *4993:A 1.70935e-05
18 *4991:A *879:21 5.05521e-05
19 *5019:A *879:21 0
20 *877:12 *4993:A 0.000180682
*RES
1 *4992:X *879:8 3.355 
2 *879:8 *4994:B 1.6 
3 *879:8 *879:21 4.035 
4 *879:21 *4993:A 8 
5 *879:21 *5000:B 1.6 
*END

*D_NET *880 0.00265969
*CONN
*I *5048:C I *D sky130_fd_sc_hd__and4bb_2
*I *5031:A1 I *D sky130_fd_sc_hd__o211a_2
*I *4993:Y O *D sky130_fd_sc_hd__inv_2
*CAP
1 *5048:C 0.000227472
2 *5031:A1 5.53582e-05
3 *4993:Y 0.000262769
4 *880:10 0.0005456
5 *5031:A1 *4312:A 6.38291e-05
6 *5031:A1 *5028:A1 7.06865e-05
7 *5031:A1 *5031:A2 1.12643e-05
8 *5031:A1 *903:22 0.000136182
9 *5048:C *4312:A 0.000178314
10 *5048:C *5048:A_N 0.000234674
11 *5048:C *903:22 0.000171172
12 *880:10 *4999:B1 0.000349587
13 *880:10 *5001:A 4.66108e-05
14 *880:10 *5050:B 0.000229536
15 *880:10 *996:76 7.66388e-05
*RES
1 *4993:Y *880:10 9.24 
2 *880:10 *5031:A1 5.34375 
3 *880:10 *5048:C 7.92 
*END

*D_NET *881 0.00265695
*CONN
*I *4999:A3 I *D sky130_fd_sc_hd__o31a_2
*I *5001:A I *D sky130_fd_sc_hd__and2_2
*I *5050:B I *D sky130_fd_sc_hd__and3_2
*I *4995:B I *D sky130_fd_sc_hd__nor2_2
*I *4994:X O *D sky130_fd_sc_hd__or2_2
*CAP
1 *4999:A3 5.45011e-05
2 *5001:A 0.000136884
3 *5050:B 0.000170812
4 *4995:B 1.65939e-05
5 *4994:X 5.96991e-05
6 *881:30 0.000208031
7 *881:19 0.000218866
8 *881:8 0.000107701
9 *5001:A *996:76 0.000190451
10 *881:8 *5000:A 5.77162e-05
11 *881:8 *1000:61 0.000270409
12 *4991:A *881:8 0.000120655
13 *4993:A *4995:B 1.26548e-05
14 *5019:A *881:8 4.66108e-05
15 *244:20 *4995:B 5.16348e-05
16 *244:20 *4999:A3 0.000178321
17 *244:20 *881:19 9.14049e-05
18 *244:20 *881:30 4.9968e-05
19 *877:12 *4995:B 2.92496e-05
20 *877:12 *4999:A3 0.000172158
21 *877:12 *881:19 8.45475e-05
22 *877:12 *881:30 4.21314e-05
23 *879:21 *881:8 9.80032e-06
24 *880:10 *5001:A 4.66108e-05
25 *880:10 *5050:B 0.000229536
*RES
1 *4994:X *881:8 6.12 
2 *881:8 *4995:B 4.215 
3 *881:8 *881:19 1.125 
4 *881:19 *5050:B 5.775 
5 *881:19 *881:30 0.615 
6 *881:30 *5001:A 6.465 
7 *881:30 *4999:A3 5.745 
*END

*D_NET *882 0.00337668
*CONN
*I *5019:B I *D sky130_fd_sc_hd__nor2_2
*I *4996:B I *D sky130_fd_sc_hd__nor2_2
*I *4995:Y O *D sky130_fd_sc_hd__nor2_2
*CAP
1 *5019:B 0.000129777
2 *4996:B 0.000567581
3 *4995:Y 0
4 *882:4 0.000697359
5 *4996:B *4312:B 0.000412716
6 *4996:B *4990:B 5.33085e-05
7 *4996:B *5030:D 3.64998e-06
8 *4996:B *5046:A 0.000153441
9 *4996:B *889:10 0
10 *4996:B *973:45 0.000214289
11 *4996:B *997:25 8.65905e-05
12 *4996:B *1001:10 5.65627e-05
13 *5019:B *5031:C1 9.53428e-06
14 *5019:B *1000:61 2.50702e-05
15 *5019:A *5019:B 4.95661e-05
16 *244:20 *4996:B 0.000572532
17 *877:12 *4996:B 0.000344697
18 *879:21 *5019:B 0
*RES
1 *4995:Y *882:4 1.6 
2 *882:4 *4996:B 23.33 
3 *882:4 *5019:B 3.805 
*END

*D_NET *883 0.00139708
*CONN
*I *4997:B I *D sky130_fd_sc_hd__and2_2
*I *5030:C I *D sky130_fd_sc_hd__and4b_2
*I *4996:Y O *D sky130_fd_sc_hd__nor2_2
*CAP
1 *4997:B 0.000138966
2 *5030:C 0
3 *4996:Y 9.00087e-05
4 *883:8 0.000228974
5 *4997:B *5009:C 8.40213e-05
6 *4997:B *5030:D 3.09164e-05
7 *4997:B *5141:A 9.3062e-06
8 *4997:B *5242:A 0
9 *4997:B *968:10 0.000103948
10 *4997:B *999:114 0.00023973
11 *883:8 *5030:D 0.000249234
12 *883:8 *999:114 0.000114492
13 *883:8 *1001:10 2.03321e-05
14 *883:8 *1002:22 2.16306e-05
15 *877:12 *883:8 6.5525e-05
*RES
1 *4996:Y *883:8 7.02 
2 *883:8 *5030:C 3.6 
3 *883:8 *4997:B 7.305 
*END

*D_NET *884 0.00731481
*CONN
*I *5014:C I *D sky130_fd_sc_hd__nand3b_2
*I *5021:B I *D sky130_fd_sc_hd__nand3b_2
*I *4998:B I *D sky130_fd_sc_hd__nand2_2
*I *5027:C I *D sky130_fd_sc_hd__and4_2
*I *5046:C I *D sky130_fd_sc_hd__and4_2
*I *4997:X O *D sky130_fd_sc_hd__and2_2
*CAP
1 *5014:C 1.94807e-05
2 *5021:B 6.6534e-05
3 *4998:B 0
4 *5027:C 6.04804e-05
5 *5046:C 0.000344255
6 *4997:X 0.000269706
7 *884:53 0.000293058
8 *884:16 0.00063153
9 *884:14 0.000438135
10 *884:12 0.000688089
11 *5014:C *5238:A 2.30292e-05
12 *5021:B *5021:C 7.24866e-05
13 *5021:B *5253:A 0
14 *5021:B *904:79 0.000210151
15 *5021:B *997:58 4.43871e-06
16 *5027:C *5027:A 0.000123225
17 *5046:C *5262:A 0
18 *5046:C *903:20 2.66935e-05
19 *5046:C *903:44 0.000382752
20 *884:12 *5009:D_N 4.65515e-05
21 *884:12 *894:12 2.66586e-05
22 *884:12 *968:10 0.000123225
23 *884:12 *969:42 0.000273872
24 *884:14 *5011:B 0.000298442
25 *884:14 *5034:B 0.00015995
26 *884:14 *5245:A 0
27 *884:14 *892:27 0.000652979
28 *884:14 *896:10 9.3062e-06
29 *884:14 *969:42 3.23391e-05
30 *884:14 *998:36 7.21296e-06
31 *884:16 *5034:B 5.16418e-05
32 *884:16 *5037:A 0
33 *884:16 *5045:A 4.5783e-05
34 *884:16 *891:87 0.00015829
35 *884:16 *891:104 0.000118682
36 *884:16 *892:27 0.000134516
37 *884:16 *896:10 4.24292e-06
38 *884:53 *5014:B 0.000210969
39 *884:53 *5025:B 3.00381e-05
40 *884:53 *5238:A 0.00023468
41 *884:53 *892:27 0.000153801
42 *884:53 *897:10 9.80032e-06
43 *884:53 *998:36 2.75538e-05
44 *5008:A *5046:C 1.71013e-05
45 *5008:A *884:16 3.13459e-05
46 *5035:B *884:16 7.23533e-05
47 *236:40 *5027:C 0.000161529
48 *238:23 *884:16 0.000255719
49 *248:46 *5027:C 0.000312182
*RES
1 *4997:X *884:12 8.655 
2 *884:12 *884:14 7.755 
3 *884:14 *884:16 6.48 
4 *884:16 *5046:C 8.535 
5 *884:16 *5027:C 6.465 
6 *884:14 *4998:B 3.6 
7 *884:12 *884:53 7.475 
8 *884:53 *5021:B 8 
9 *884:53 *5014:C 2.05 
*END

*D_NET *885 0.00102598
*CONN
*I *5034:A I *D sky130_fd_sc_hd__nor2_2
*I *5002:B_N I *D sky130_fd_sc_hd__and4bb_2
*I *4998:Y O *D sky130_fd_sc_hd__nand2_2
*CAP
1 *5034:A 7.64287e-05
2 *5002:B_N 5.13779e-05
3 *4998:Y 0.000121548
4 *885:6 0.000249354
5 *5002:B_N *5247:A 9.14035e-05
6 *5002:B_N *1001:27 0.000122331
7 *5034:A *4312:B 2.92496e-05
8 *5034:A *891:104 0
9 *5034:A *1001:10 0.000116165
10 *885:6 *5033:A 4.82919e-05
11 *885:6 *5247:A 7.15377e-05
12 *4998:A *885:6 4.82919e-05
*RES
1 *4998:Y *885:6 3.775 
2 *885:6 *5002:B_N 3.085 
3 *885:6 *5034:A 7.235 
*END

*D_NET *886 0.00319815
*CONN
*I *5002:C I *D sky130_fd_sc_hd__and4bb_2
*I *5004:B I *D sky130_fd_sc_hd__nand2_2
*I *5003:B I *D sky130_fd_sc_hd__and2_2
*I *5005:B I *D sky130_fd_sc_hd__and3_2
*I *5047:C I *D sky130_fd_sc_hd__and3_2
*I *4999:X O *D sky130_fd_sc_hd__o31a_2
*CAP
1 *5002:C 0.00013229
2 *5004:B 0
3 *5003:B 9.54152e-05
4 *5005:B 9.36289e-05
5 *5047:C 4.58667e-05
6 *4999:X 0.00013271
7 *886:43 0.000172879
8 *886:32 0.000179396
9 *886:21 0.000168132
10 *886:10 0.000209687
11 *5002:C *5002:A_N 9.42145e-05
12 *5002:C *5002:D 0.000148679
13 *5002:C *5247:A 3.83194e-05
14 *5002:C *997:21 9.37731e-05
15 *5002:C *999:39 0
16 *5002:C *1001:27 0.00015639
17 *5005:B *5259:A 0.000118081
18 *886:10 *888:10 0.000136305
19 *886:10 *888:21 6.34101e-06
20 *886:10 *973:31 0.000170068
21 *886:21 *973:31 4.76659e-05
22 *886:32 *5002:A_N 4.39734e-05
23 *886:32 *973:31 3.31204e-05
24 *886:43 *5002:A_N 8.87475e-05
25 *5004:A *5002:C 9.50342e-06
26 *5004:A *886:32 2.14129e-05
27 *5004:A *886:43 0.000164686
28 *240:29 *5047:C 0.000237243
29 *240:33 *886:10 8.53113e-06
30 *240:33 *886:21 9.37731e-05
31 *240:33 *886:32 0.00011852
32 *248:46 *5047:C 0.000138799
*RES
1 *4999:X *886:10 7.215 
2 *886:10 *5047:C 5.775 
3 *886:10 *886:21 1.125 
4 *886:21 *5005:B 4.74 
5 *886:21 *886:32 1.635 
6 *886:32 *5003:B 4.74 
7 *886:32 *886:43 1.89 
8 *886:43 *5004:B 3.6 
9 *886:43 *5002:C 7.74 
*END

*D_NET *887 0.000299692
*CONN
*I *5001:B I *D sky130_fd_sc_hd__and2_2
*I *5000:Y O *D sky130_fd_sc_hd__nand2_2
*CAP
1 *5001:B 0.000108301
2 *5000:Y 0.000108301
3 *5001:B *972:48 2.97004e-06
4 *5001:B *972:65 7.45881e-05
5 *4991:A *5001:B 5.53249e-06
6 *4993:A *5001:B 0
*RES
1 *5000:Y *5001:B 9.345 
*END

*D_NET *888 0.00472921
*CONN
*I *5002:D I *D sky130_fd_sc_hd__and4bb_2
*I *5033:A I *D sky130_fd_sc_hd__or2_2
*I *5006:A I *D sky130_fd_sc_hd__nand2_2
*I *5032:A I *D sky130_fd_sc_hd__nor2_2
*I *5005:C I *D sky130_fd_sc_hd__and3_2
*I *5001:X O *D sky130_fd_sc_hd__and2_2
*CAP
1 *5002:D 9.67308e-05
2 *5033:A 0.000113879
3 *5006:A 0.000109853
4 *5032:A 0
5 *5005:C 4.16082e-05
6 *5001:X 0.000203565
7 *888:32 0.000236879
8 *888:25 0.000175596
9 *888:21 0.00036771
10 *888:10 0.000353705
11 *5002:D *5247:A 0.000119762
12 *5002:D *997:21 7.23602e-05
13 *5002:D *1001:27 2.16917e-05
14 *5002:D *1002:28 0.000202095
15 *5006:A *5006:B 4.66108e-05
16 *5006:A *5032:B 3.25635e-05
17 *5006:A *5045:C 0.000155497
18 *5006:A *5262:A 6.00111e-05
19 *5006:A *903:14 4.66108e-05
20 *5033:A *4312:B 1.53032e-05
21 *5033:A *5013:A 0
22 *5033:A *5033:B 0.000159269
23 *5033:A *5247:A 4.82919e-05
24 *5033:A *5262:A 1.52184e-05
25 *888:10 *972:65 0
26 *888:10 *973:31 0
27 *888:10 *973:41 0.000114492
28 *888:10 *996:76 4.99619e-05
29 *888:10 *1002:28 0.000272994
30 *888:21 *1002:28 0.000402743
31 *888:25 *890:6 0.000308724
32 *888:32 *5032:B 3.66286e-05
33 *888:32 *890:6 1.16578e-05
34 *4998:A *5033:A 4.92096e-05
35 *5002:C *5002:D 0.000148679
36 *5004:A *888:21 0.000187071
37 *238:15 *5006:A 7.67415e-06
38 *238:15 *888:25 1.19928e-05
39 *240:33 *888:21 0.000205422
40 *248:46 *5005:C 1.56428e-05
41 *877:12 *888:10 2.05661e-05
42 *885:6 *5033:A 4.82919e-05
43 *886:10 *888:10 0.000136305
44 *886:10 *888:21 6.34101e-06
*RES
1 *5001:X *888:10 9 
2 *888:10 *5005:C 4.05 
3 *888:10 *888:21 4.695 
4 *888:21 *888:25 5.21 
5 *888:25 *5032:A 1.6 
6 *888:25 *888:32 0.45 
7 *888:32 *5006:A 4.495 
8 *888:32 *5033:A 8.45 
9 *888:21 *5002:D 7.14 
*END

*D_NET *889 0.00260945
*CONN
*I *5006:B I *D sky130_fd_sc_hd__nand2_2
*I *5048:D I *D sky130_fd_sc_hd__and4bb_2
*I *5050:C I *D sky130_fd_sc_hd__and3_2
*I *5003:X O *D sky130_fd_sc_hd__and2_2
*CAP
1 *5006:B 0.000153938
2 *5048:D 0
3 *5050:C 8.29006e-05
4 *5003:X 0.000243033
5 *889:10 0.000299604
6 *889:6 0.000613675
7 *5006:B *5013:A 0.000124116
8 *5006:B *5013:B 4.82919e-05
9 *5006:B *5262:A 0.000160408
10 *5050:C *4999:B1 8.39849e-05
11 *5050:C *5262:A 6.28843e-05
12 *889:10 *4312:B 0.000162361
13 *889:10 *5046:A 5.93674e-05
14 *889:10 *5262:A 0.000172198
15 *889:10 *903:14 0.000296074
16 *4996:B *889:10 0
17 *5006:A *5006:B 4.66108e-05
*RES
1 *5003:X *889:6 4.12 
2 *889:6 *889:10 8.99 
3 *889:10 *5050:C 5.43 
4 *889:10 *5048:D 3.6 
5 *889:6 *5006:B 8.57 
*END

*D_NET *890 0.00123181
*CONN
*I *5032:B I *D sky130_fd_sc_hd__nor2_2
*I *5033:B I *D sky130_fd_sc_hd__or2_2
*I *5004:Y O *D sky130_fd_sc_hd__nand2_2
*CAP
1 *5032:B 3.4372e-05
2 *5033:B 7.89648e-05
3 *5004:Y 7.1818e-05
4 *890:6 0.000185155
5 *5033:B *4312:B 8.63188e-05
6 *5006:A *5032:B 3.25635e-05
7 *5033:A *5033:B 0.000159269
8 *238:15 *5032:B 4.92062e-05
9 *238:15 *890:6 0.000177136
10 *238:23 *5033:B 0
11 *888:25 *890:6 0.000308724
12 *888:32 *5032:B 3.66286e-05
13 *888:32 *890:6 1.16578e-05
*RES
1 *5004:Y *890:6 4.465 
2 *890:6 *5033:B 7.85 
3 *890:6 *5032:B 2.755 
*END

*D_NET *891 0.0125326
*CONN
*I *5026:B I *D sky130_fd_sc_hd__and3_2
*I *5016:C I *D sky130_fd_sc_hd__and3b_2
*I *5030:D I *D sky130_fd_sc_hd__and4b_2
*I *5008:C I *D sky130_fd_sc_hd__and3_2
*I *5027:D I *D sky130_fd_sc_hd__and4_2
*I *5023:B I *D sky130_fd_sc_hd__and3_2
*I *5029:D I *D sky130_fd_sc_hd__and4_2
*I *5020:B I *D sky130_fd_sc_hd__and3_2
*I *5031:C1 I *D sky130_fd_sc_hd__o211a_2
*I *5005:X O *D sky130_fd_sc_hd__and3_2
*CAP
1 *5026:B 0
2 *5016:C 0.000408636
3 *5030:D 0.000380425
4 *5008:C 1.37168e-05
5 *5027:D 9.73191e-06
6 *5023:B 0
7 *5029:D 0.000250231
8 *5020:B 0.00026198
9 *5031:C1 0.000299662
10 *5005:X 0.000350272
11 *891:104 0.00110421
12 *891:87 0.000383122
13 *891:54 0.000369926
14 *891:24 0.00064225
15 *891:22 0.000475281
16 *891:14 0.00050017
17 *891:6 0.000619987
18 *5008:C *5013:B 4.66108e-05
19 *5008:C *5259:A 4.60518e-05
20 *5016:C *5012:B 4.66108e-05
21 *5016:C *5016:A_N 0.000122598
22 *5016:C *5026:C 1.47347e-05
23 *5016:C *5034:B 6.33103e-05
24 *5016:C *5239:A 0.000347029
25 *5016:C *5264:A 1.61831e-05
26 *5016:C *895:12 0.000120655
27 *5016:C *997:29 7.67415e-06
28 *5016:C *997:33 1.91597e-05
29 *5020:B *4999:B1 0
30 *5020:B *5020:C 3.64998e-06
31 *5020:B *5043:B 0
32 *5020:B *5261:A 0
33 *5020:B *5268:A 0.000136884
34 *5020:B *893:12 0.000116853
35 *5020:B *981:44 9.37731e-05
36 *5020:B *995:39 7.21296e-06
37 *5020:B *995:104 0
38 *5027:D *5027:A 4.82863e-05
39 *5029:D *5237:A 0
40 *5029:D *5261:A 0.000141999
41 *5030:D *5034:B 6.32751e-05
42 *5030:D *5141:A 7.81876e-05
43 *5030:D *5244:A 0
44 *5030:D *997:25 6.51498e-05
45 *5030:D *1001:10 3.86607e-05
46 *5031:C1 *5028:A2 4.66108e-05
47 *5031:C1 *5031:A2 0.000177476
48 *5031:C1 *899:8 0.000248901
49 *5031:C1 *1000:61 0.000308713
50 *891:6 *5259:A 0.000380189
51 *891:14 *5037:B 2.15594e-05
52 *891:14 *5240:A 4.82863e-05
53 *891:14 *5245:A 4.99619e-05
54 *891:14 *998:75 4.9968e-05
55 *891:22 *5028:A2 0.00015829
56 *891:22 *5037:B 0.000459256
57 *891:22 *5243:A 0
58 *891:22 *893:12 0
59 *891:22 *998:75 4.14369e-05
60 *891:22 *998:81 9.48658e-05
61 *891:22 *998:83 0.00032734
62 *891:24 *5028:A2 0.000114024
63 *891:54 *5028:A2 3.66286e-05
64 *891:54 *5261:A 3.65279e-05
65 *891:104 *4312:B 0
66 *891:104 *5013:A 0.00017565
67 *891:104 *5244:A 0
68 *891:104 *892:27 0.000347124
69 *891:104 *1001:10 0
70 gpio_out[4] *5016:C 0.000136325
71 *4996:B *5030:D 3.64998e-06
72 *4997:B *5030:D 3.09164e-05
73 *4998:A *891:104 6.46783e-05
74 *5008:A *891:87 0.000157602
75 *5016:B *5016:C 0.000156871
76 *5019:A *5031:C1 9.72742e-06
77 *5019:B *5031:C1 9.53428e-06
78 *5029:C *5029:D 7.00223e-05
79 *5034:A *891:104 0
80 *236:12 *891:22 0
81 *248:46 *5027:D 4.82863e-05
82 *248:46 *891:6 5.82176e-05
83 *248:46 *891:14 0.000423637
84 *883:8 *5030:D 0.000249234
85 *884:16 *891:87 0.00015829
86 *884:16 *891:104 0.000118682
*RES
1 *5005:X *891:6 6.19 
2 *891:6 *891:14 6.875 
3 *891:14 *891:22 10.055 
4 *891:22 *891:24 1.14 
5 *891:24 *5031:C1 8.41 
6 *891:24 *5020:B 10.235 
7 *891:22 *891:54 1.485 
8 *891:54 *5029:D 10.025 
9 *891:54 *5023:B 1.6 
10 *891:14 *5027:D 4.05 
11 *891:6 *891:87 3.89 
12 *891:87 *5008:C 4.05 
13 *891:87 *891:104 9.035 
14 *891:104 *5030:D 12.32 
15 *891:104 *5016:C 11.3538 
16 *891:104 *5026:B 1.6 
*END

*D_NET *892 0.00546852
*CONN
*I *5022:A I *D sky130_fd_sc_hd__nor2_2
*I *5015:A I *D sky130_fd_sc_hd__nor2_2
*I *5010:A I *D sky130_fd_sc_hd__nor2_2
*I *5018:A I *D sky130_fd_sc_hd__nor2_2
*I *5025:A I *D sky130_fd_sc_hd__nor2_2
*I *5013:A I *D sky130_fd_sc_hd__nor2_2
*I *5006:Y O *D sky130_fd_sc_hd__nand2_2
*CAP
1 *5022:A 7.14632e-05
2 *5015:A 4.51573e-05
3 *5010:A 0
4 *5018:A 0.000175097
5 *5025:A 0
6 *5013:A 0.000232096
7 *5006:Y 0
8 *892:68 0.0002109
9 *892:59 0.000112737
10 *892:36 0.000263048
11 *892:27 0.000529292
12 *892:4 0.000691894
13 *5013:A *5013:B 2.8694e-05
14 *5013:A *5259:A 7.58604e-05
15 *5013:A *5262:A 2.9463e-05
16 *5013:A *5264:A 4.82919e-05
17 *5015:A *5015:B 5.4155e-06
18 *5015:A *5021:A_N 1.7386e-05
19 *5018:A *5015:B 8.49205e-05
20 *5018:A *5018:B 0.000110072
21 *5018:A *5021:A_N 0.000158072
22 *5018:A *5022:B 0.000115773
23 *5018:A *5201:A 6.01037e-05
24 *5018:A *5263:A 1.48096e-05
25 *5022:A *5044:A 3.19009e-05
26 *5022:A *5242:A 0
27 *5022:A *5265:A 7.4027e-05
28 *892:27 *5014:B 2.03321e-05
29 *892:27 *5141:A 0
30 *892:27 *5244:A 0
31 *892:27 *894:12 0.00011852
32 *892:27 *968:10 0
33 *892:27 *969:32 0
34 *892:27 *969:42 0
35 *892:27 *1002:57 0
36 *892:36 *5014:B 4.18603e-06
37 *892:36 *5018:B 0
38 *892:36 *5201:A 3.16707e-06
39 *892:36 *894:12 0.000148778
40 *892:36 *897:10 6.12062e-05
41 *892:59 *5038:A 1.26626e-05
42 *892:59 *894:12 4.38051e-05
43 *892:59 *897:10 1.52184e-05
44 *892:68 *5010:B 4.43467e-05
45 *892:68 *5015:B 6.98393e-05
46 *892:68 *5021:A_N 9.27255e-06
47 *4998:A *5013:A 8.53113e-06
48 *5006:B *5013:A 0.000124116
49 *5008:A *5013:A 4.9968e-05
50 *5033:A *5013:A 0
51 *238:23 *5013:A 4.66108e-05
52 *238:23 *892:27 3.74161e-05
53 *884:14 *892:27 0.000652979
54 *884:16 *892:27 0.000134516
55 *884:53 *892:27 0.000153801
56 *891:104 *5013:A 0.00017565
57 *891:104 *892:27 0.000347124
*RES
1 *5006:Y *892:4 1.6 
2 *892:4 *5013:A 10.46 
3 *892:4 *892:27 14.03 
4 *892:27 *5025:A 3.6 
5 *892:27 *892:36 1.89 
6 *892:36 *5018:A 12.04 
7 *892:36 *892:59 2.615 
8 *892:59 *5010:A 1.6 
9 *892:59 *892:68 1.845 
10 *892:68 *5015:A 2.41 
11 *892:68 *5022:A 7.235 
*END

*D_NET *893 0.00211156
*CONN
*I *5023:C I *D sky130_fd_sc_hd__and3_2
*I *5043:B I *D sky130_fd_sc_hd__and3_2
*I *5007:X O *D sky130_fd_sc_hd__and2b_2
*CAP
1 *5023:C 0
2 *5043:B 0.000339897
3 *5007:X 0.000306558
4 *893:12 0.000646455
5 *5043:B *5212:A 0.000183043
6 *5043:B *5254:A 0.000148194
7 *5043:B *5268:A 0
8 *5043:B *981:44 0
9 *5043:B *995:78 7.23533e-05
10 *5043:B *1062:8 0
11 *893:12 *4999:B1 3.38895e-05
12 *893:12 *5028:B1 0.000131761
13 *893:12 *5031:A2 2.54522e-05
14 *893:12 *5243:A 5.13155e-05
15 *893:12 *5261:A 1.91597e-05
16 *893:12 *995:82 3.66286e-05
17 gpio_out[8] *5043:B 0
18 *5020:B *5043:B 0
19 *5020:B *893:12 0.000116853
20 *891:22 *893:12 0
*RES
1 *5007:X *893:12 10.61 
2 *893:12 *5043:B 12.59 
3 *893:12 *5023:C 1.6 
*END

*D_NET *894 0.00367262
*CONN
*I *5036:A I *D sky130_fd_sc_hd__nor2_2
*I *5010:B I *D sky130_fd_sc_hd__nor2_2
*I *5009:X O *D sky130_fd_sc_hd__or4b_2
*CAP
1 *5036:A 0.000956052
2 *5010:B 6.83266e-05
3 *5009:X 0.000254197
4 *894:12 0.00127858
5 *5010:B *5015:B 1.47347e-05
6 *5010:B *5021:A_N 0
7 *5010:B *5038:A 9.82856e-06
8 *5036:A *5038:A 7.27323e-05
9 *5036:A *5044:A 7.7448e-05
10 *5036:A *5201:A 2.03321e-05
11 *5036:A *5242:A 0
12 *5036:A *5246:A 5.83121e-06
13 *5036:A *5269:A 0.000229029
14 *5036:A *904:109 0
15 *894:12 *5009:D_N 4.99619e-05
16 *894:12 *5024:B 0
17 *894:12 *5038:A 1.32017e-05
18 *894:12 *5044:A 0.000240262
19 *894:12 *969:32 0
20 *884:12 *894:12 2.66586e-05
21 *892:27 *894:12 0.00011852
22 *892:36 *894:12 0.000148778
23 *892:59 *894:12 4.38051e-05
24 *892:68 *5010:B 4.43467e-05
*RES
1 *5009:X *894:12 9.5025 
2 *894:12 *5010:B 4.8975 
3 *894:12 *5036:A 20.3625 
*END

*D_NET *895 0.00189439
*CONN
*I *5026:C I *D sky130_fd_sc_hd__and3_2
*I *5045:B I *D sky130_fd_sc_hd__and3_2
*I *5012:B I *D sky130_fd_sc_hd__nand2b_2
*I *5011:X O *D sky130_fd_sc_hd__and3b_2
*CAP
1 *5026:C 5.65193e-05
2 *5045:B 9.0454e-05
3 *5012:B 7.01727e-05
4 *5011:X 6.69279e-05
5 *895:12 0.000171035
6 *5012:B *997:33 4.66108e-05
7 *5026:C *5034:B 0.000118081
8 *5026:C *997:29 0.000155497
9 *5026:C *997:33 3.26889e-05
10 *5045:B *5245:A 0.000312083
11 *5045:B *5264:A 0.000272313
12 *5045:B *904:60 0
13 *5045:B *997:43 1.52184e-05
14 *895:12 *5239:A 7.23602e-05
15 *895:12 *5264:A 2.30292e-05
16 *895:12 *904:60 2.15594e-05
17 *895:12 *997:33 7.40446e-05
18 *895:12 *997:43 0.000113797
19 *5016:C *5012:B 4.66108e-05
20 *5016:C *5026:C 1.47347e-05
21 *5016:C *895:12 0.000120655
*RES
1 *5011:X *895:12 8.12 
2 *895:12 *5012:B 2.05 
3 *895:12 *5045:B 9.275 
4 *5012:B *5026:C 5.045 
*END

*D_NET *896 0.00493515
*CONN
*I *5037:A I *D sky130_fd_sc_hd__nor2_2
*I *5013:B I *D sky130_fd_sc_hd__nor2_2
*I *5012:Y O *D sky130_fd_sc_hd__nand2b_2
*CAP
1 *5037:A 0.000789944
2 *5013:B 0.000221674
3 *5012:Y 0.00019222
4 *896:10 0.00120384
5 *5013:B *5258:A 4.82863e-05
6 *5013:B *5259:A 0.000182874
7 *5037:A *5037:B 0.000204001
8 *5037:A *5237:A 0.000195865
9 *5037:A *5243:A 0.00015896
10 *5037:A *5245:A 0.00015829
11 *5037:A *5258:A 8.23457e-05
12 *5037:A *5259:A 3.66286e-05
13 *5037:A *5260:A 5.90938e-05
14 *5037:A *5264:A 7.1496e-05
15 *896:10 *5034:B 0.000109433
16 *896:10 *5045:A 0.000160658
17 *896:10 *5245:A 0.000505654
18 gpio_out[16] *5037:A 0
19 *5006:B *5013:B 4.82919e-05
20 *5008:C *5013:B 4.66108e-05
21 *5013:A *5013:B 2.8694e-05
22 *236:12 *5037:A 0.000159964
23 *236:40 *5037:A 0.000202095
24 *238:23 *896:10 5.46877e-05
25 *884:14 *896:10 9.3062e-06
26 *884:16 *5037:A 0
27 *884:16 *896:10 4.24292e-06
*RES
1 *5012:Y *896:10 11.57 
2 *896:10 *5013:B 5.755 
3 *896:10 *5037:A 25.335 
*END

*D_NET *897 0.00193075
*CONN
*I *5038:A I *D sky130_fd_sc_hd__nor2_2
*I *5015:B I *D sky130_fd_sc_hd__nor2_2
*I *5014:Y O *D sky130_fd_sc_hd__nand3b_2
*CAP
1 *5038:A 0.000181213
2 *5015:B 8.43404e-05
3 *5014:Y 0.000124033
4 *897:10 0.000389586
5 *5015:B *5021:A_N 6.00027e-05
6 *5015:B *5263:A 3.64998e-06
7 *5038:A *5201:A 0.000335163
8 *5038:A *5242:A 7.22588e-05
9 *5038:A *5269:A 0.000114492
10 *897:10 *5014:B 5.05521e-05
11 *897:10 *5025:B 1.16578e-05
12 *897:10 *5201:A 0.000134242
13 *5010:B *5015:B 1.47347e-05
14 *5010:B *5038:A 9.82856e-06
15 *5015:A *5015:B 5.4155e-06
16 *5018:A *5015:B 8.49205e-05
17 *5036:A *5038:A 7.27323e-05
18 *884:53 *897:10 9.80032e-06
19 *892:36 *897:10 6.12062e-05
20 *892:59 *5038:A 1.26626e-05
21 *892:59 *897:10 1.52184e-05
22 *892:68 *5015:B 6.98393e-05
23 *894:12 *5038:A 1.32017e-05
*RES
1 *5014:Y *897:10 6.375 
2 *897:10 *5015:B 5.79 
3 *897:10 *5038:A 8.7 
*END

*D_NET *898 0.00190365
*CONN
*I *5018:B I *D sky130_fd_sc_hd__nor2_2
*I *5040:A I *D sky130_fd_sc_hd__nor2_2
*I *5017:X O *D sky130_fd_sc_hd__or4b_2
*CAP
1 *5018:B 0.000248803
2 *5040:A 5.0385e-05
3 *5017:X 0.000123933
4 *898:10 0.000423122
5 *5018:B *5201:A 0
6 *5018:B *904:79 0.000484922
7 *5040:A *5009:D_N 0
8 *5040:A *5040:B 4.50892e-05
9 *5040:A *5245:A 4.82863e-05
10 *5040:A *5251:A 0.000123225
11 *898:10 *5245:A 0.000185398
12 *898:10 *904:79 5.23362e-05
13 *898:10 *997:58 0
14 *898:10 *998:36 8.08153e-06
15 *5018:A *5018:B 0.000110072
16 *892:36 *5018:B 0
*RES
1 *5017:X *898:10 6.2025 
2 *898:10 *5040:A 5.1 
3 *898:10 *5018:B 9.315 
*END

*D_NET *899 0.00224664
*CONN
*I *5031:B1 I *D sky130_fd_sc_hd__o211a_2
*I *5049:D I *D sky130_fd_sc_hd__and4bb_2
*I *5041:B I *D sky130_fd_sc_hd__and3_2
*I *5020:C I *D sky130_fd_sc_hd__and3_2
*I *5019:Y O *D sky130_fd_sc_hd__nor2_2
*CAP
1 *5031:B1 0
2 *5049:D 7.64824e-05
3 *5041:B 0
4 *5020:C 0.000190398
5 *5019:Y 5.78646e-05
6 *899:18 0.000275768
7 *899:12 0.000202794
8 *899:8 9.88052e-05
9 *5020:C *4990:D 0.000132759
10 *5049:D *5049:C 8.65961e-05
11 *5049:D *5261:A 0.000200615
12 *5049:D *995:35 0.000106006
13 *5049:D *995:65 2.30292e-05
14 *899:8 *5031:A2 3.26889e-05
15 *899:12 *5236:A 7.34364e-05
16 *899:12 *903:22 0.000141606
17 *899:18 *4990:D 1.25995e-05
18 *899:18 *5236:A 5.03222e-05
19 *899:18 *903:22 0.00015829
20 *899:18 *995:10 7.4027e-05
21 *5020:B *5020:C 3.64998e-06
22 *5031:C1 *899:8 0.000248901
*RES
1 *5019:Y *899:8 3.445 
2 *899:8 *899:12 3.635 
3 *899:12 *899:18 4.34 
4 *899:18 *5020:C 5.005 
5 *899:18 *5041:B 1.6 
6 *899:12 *5049:D 6.12 
7 *899:8 *5031:B1 1.6 
*END

*D_NET *900 0.00312166
*CONN
*I *5042:A I *D sky130_fd_sc_hd__nor2_2
*I *5022:B I *D sky130_fd_sc_hd__nor2_2
*I *5021:Y O *D sky130_fd_sc_hd__nand3b_2
*CAP
1 *5042:A 0.000397359
2 *5022:B 0.000228899
3 *5021:Y 0
4 *900:4 0.000626258
5 *5022:B *5021:A_N 1.33293e-05
6 *5022:B *5021:C 0.000109377
7 *5022:B *5044:A 4.66108e-05
8 *5022:B *5044:B 2.49909e-05
9 *5022:B *5201:A 0.00011379
10 *5022:B *5263:A 0.000307043
11 *5022:B *5265:A 0.00022786
12 *5022:B *5269:A 2.94604e-05
13 *5042:A *5253:A 0.000717707
14 *5042:A *5255:A 0
15 *5042:A *5269:A 0
16 *5042:A *904:79 0
17 *5042:A *904:109 0.000163204
18 *5018:A *5022:B 0.000115773
*RES
1 *5021:Y *900:4 1.6 
2 *900:4 *5022:B 12.38 
3 *900:4 *5042:A 15.095 
*END

*D_NET *901 0.0014502
*CONN
*I *5025:B I *D sky130_fd_sc_hd__nor2_2
*I *5044:A I *D sky130_fd_sc_hd__nor2_2
*I *5024:X O *D sky130_fd_sc_hd__or4bb_2
*CAP
1 *5025:B 0.000116413
2 *5044:A 0.000241718
3 *5024:X 0.000101824
4 *901:8 0.000459955
5 *5044:A *5024:B 0
6 *5044:A *5242:A 0
7 *5044:A *5265:A 6.73839e-05
8 *5044:A *5269:A 2.49909e-05
9 *5022:A *5044:A 3.19009e-05
10 *5022:B *5044:A 4.66108e-05
11 *5036:A *5044:A 7.7448e-05
12 *884:53 *5025:B 3.00381e-05
13 *894:12 *5044:A 0.000240262
14 *897:10 *5025:B 1.16578e-05
*RES
1 *5024:X *901:8 3.1 
2 *901:8 *5044:A 10.535 
3 *901:8 *5025:B 3.445 
*END

*D_NET *902 0.000857147
*CONN
*I *5031:A2 I *D sky130_fd_sc_hd__o211a_2
*I *5028:X O *D sky130_fd_sc_hd__o21a_2
*CAP
1 *5031:A2 0.000119517
2 *5028:X 0.000119517
3 *5031:A2 *5028:A1 0.000122331
4 *5031:A2 *5028:A2 0.000160635
5 *5031:A2 *5028:B1 8.8266e-05
6 *5031:A1 *5031:A2 1.12643e-05
7 *5031:C1 *5031:A2 0.000177476
8 *893:12 *5031:A2 2.54522e-05
9 *899:8 *5031:A2 3.26889e-05
*RES
1 *5028:X *5031:A2 7.115 
*END

*D_NET *903 0.00831564
*CONN
*I *5045:C I *D sky130_fd_sc_hd__and3_2
*I *5035:C I *D sky130_fd_sc_hd__and3_2
*I *5039:C I *D sky130_fd_sc_hd__and3b_2
*I *5046:D I *D sky130_fd_sc_hd__and4_2
*I *5041:C I *D sky130_fd_sc_hd__and3_2
*I *5043:C I *D sky130_fd_sc_hd__and3_2
*I *5032:Y O *D sky130_fd_sc_hd__nor2_2
*CAP
1 *5045:C 0.000286435
2 *5035:C 0.000105244
3 *5039:C 0.000242227
4 *5046:D 0
5 *5041:C 0
6 *5043:C 0.000540428
7 *5032:Y 0
8 *903:44 0.000389256
9 *903:22 0.00108952
10 *903:20 0.000803823
11 *903:14 0.000475252
12 *903:4 0.000548746
13 *5039:C *5039:A_N 0.000158072
14 *5039:C *5257:A 4.82863e-05
15 *5043:C *4331:C 2.87433e-05
16 *5043:C *5043:A 0.000233849
17 *5043:C *5153:A 0
18 *5043:C *5252:A 4.50017e-05
19 *5043:C *1017:17 7.66908e-05
20 *5043:C *1018:14 1.95461e-05
21 *5043:C *1019:12 0.000197397
22 *5043:C *1019:21 9.80943e-06
23 *5043:C *1019:38 2.8185e-05
24 *5043:C *1073:12 0
25 *5045:C *5045:A 4.82863e-05
26 *5045:C *5262:A 6.19801e-05
27 *903:14 *4312:B 0
28 *903:14 *5262:A 0.000354215
29 *903:20 *5262:A 5.2089e-05
30 *903:22 *4312:A 0.000120329
31 *903:22 *4990:D 8.08153e-06
32 *903:22 *4999:B1 5.7266e-05
33 *903:22 *5236:A 6.78785e-05
34 *903:22 *5252:A 5.53249e-06
35 *903:22 *5262:A 0
36 *903:22 *981:12 1.94805e-05
37 *903:22 *995:10 4.92206e-05
38 *903:22 *995:39 0
39 *903:44 *4312:B 0.000163204
40 *903:44 *5046:A 5.6361e-05
41 *903:44 *5046:B 4.66108e-05
42 *5006:A *5045:C 0.000155497
43 *5006:A *903:14 4.66108e-05
44 *5008:A *5035:C 4.99619e-05
45 *5031:A1 *903:22 0.000136182
46 *5039:B *5039:C 4.23784e-05
47 *5046:C *903:20 2.66935e-05
48 *5046:C *903:44 0.000382752
49 *5048:C *903:22 0.000171172
50 *5147:A *5043:C 0.000140041
51 *236:40 *5035:C 7.40446e-05
52 *236:40 *903:20 0
53 *236:40 *903:22 0
54 *248:46 *5035:C 1.34594e-05
55 *248:46 *903:14 4.38278e-05
56 *889:10 *903:14 0.000296074
57 *899:12 *903:22 0.000141606
58 *899:18 *903:22 0.00015829
*RES
1 *5032:Y *903:4 1.6 
2 *903:4 *903:14 9.775 
3 *903:14 *903:20 3.92 
4 *903:20 *903:22 11.325 
5 *903:22 *5043:C 12.72 
6 *903:22 *5041:C 3.6 
7 *903:20 *903:44 6.245 
8 *903:44 *5046:D 1.6 
9 *903:44 *5039:C 5.53375 
10 *903:14 *5035:C 3.085 
11 *903:4 *5045:C 5.155 
*END

*D_NET *904 0.0120547
*CONN
*I *5036:B I *D sky130_fd_sc_hd__nor2_2
*I *5042:B I *D sky130_fd_sc_hd__nor2_2
*I *5038:B I *D sky130_fd_sc_hd__nor2_2
*I *5044:B I *D sky130_fd_sc_hd__nor2_2
*I *5040:B I *D sky130_fd_sc_hd__nor2_2
*I *5037:B I *D sky130_fd_sc_hd__nor2_2
*I *5034:B I *D sky130_fd_sc_hd__nor2_2
*I *5033:X O *D sky130_fd_sc_hd__or2_2
*CAP
1 *5036:B 0.000199643
2 *5042:B 2.08101e-05
3 *5038:B 1.65033e-05
4 *5044:B 4.95149e-05
5 *5040:B 0.000126821
6 *5037:B 0.000725446
7 *5034:B 0.000142506
8 *5033:X 4.75305e-05
9 *904:109 0.000770549
10 *904:94 0.000607922
11 *904:79 0.000470456
12 *904:60 0.00106768
13 *904:21 0.00145363
14 *904:6 0.000356982
15 *5034:B *997:25 8.8266e-05
16 *5034:B *997:29 3.77036e-05
17 *5036:B *5246:A 4.70326e-05
18 *5037:B *5007:A_N 8.23457e-05
19 *5037:B *5029:A 5.30732e-05
20 *5037:B *5029:B 0.000245298
21 *5037:B *5240:A 0.000297747
22 *5037:B *5248:A 0.0001005
23 *5037:B *5256:A 9.54399e-05
24 *5037:B *5264:A 0.00013532
25 *5037:B *998:75 5.12017e-06
26 *5038:B *5242:A 4.66108e-05
27 *5038:B *5249:A 2.49909e-05
28 *5040:B *5009:D_N 3.00381e-05
29 *5040:B *5245:A 4.82863e-05
30 *5040:B *5251:A 2.17931e-05
31 *5040:B *969:42 2.75145e-05
32 *5044:B *5201:A 5.16418e-05
33 *5044:B *5255:A 7.58604e-05
34 *5044:B *5265:A 1.37328e-05
35 *904:6 *5045:A 0.000193806
36 *904:6 *5247:A 0.000192125
37 *904:21 *5045:A 3.66286e-05
38 *904:21 *5247:A 0.000120655
39 *904:21 *5256:A 2.49909e-05
40 *904:60 *5239:A 0.00027529
41 *904:60 *5245:A 0
42 *904:60 *5248:A 0
43 *904:60 *5251:A 1.70993e-05
44 *904:60 *5256:A 6.54163e-05
45 *904:60 *5264:A 0
46 *904:60 *997:43 7.21296e-06
47 *904:60 *997:58 0.000116853
48 *904:60 *998:75 0.000246643
49 *904:79 *5201:A 0
50 *904:79 *5253:A 0
51 *904:79 *5255:A 5.67938e-05
52 *904:79 *5265:A 5.34064e-05
53 *904:79 *997:58 6.44959e-05
54 *904:94 *5201:A 0.000127373
55 *904:94 *5255:A 0.000137571
56 *904:109 *5201:A 0.000149766
57 *904:109 *5253:A 4.85494e-05
58 *904:109 *5255:A 8.53113e-06
59 *904:109 *5269:A 5.65627e-05
60 gpio_out[1] *5037:B 4.34365e-05
61 *5016:C *5034:B 6.33103e-05
62 *5018:B *904:79 0.000484922
63 *5021:B *904:79 0.000210151
64 *5022:B *5044:B 2.49909e-05
65 *5026:C *5034:B 0.000118081
66 *5029:C *5037:B 0.000174443
67 *5030:D *5034:B 6.32751e-05
68 *5036:A *904:109 0
69 *5037:A *5037:B 0.000204001
70 *5040:A *5040:B 4.50892e-05
71 *5042:A *904:79 0
72 *5042:A *904:109 0.000163204
73 *5045:B *904:60 0
74 *236:12 *5037:B 0
75 *884:14 *5034:B 0.00015995
76 *884:16 *5034:B 5.16418e-05
77 *891:14 *5037:B 2.15594e-05
78 *891:22 *5037:B 0.000459256
79 *895:12 *904:60 2.15594e-05
80 *896:10 *5034:B 0.000109433
81 *898:10 *904:79 5.23362e-05
*RES
1 *5033:X *904:6 3.43 
2 *904:6 *5034:B 10.52 
3 *904:6 *904:21 2.52 
4 *904:21 *5037:B 24.95 
5 *904:21 *904:60 15.46 
6 *904:60 *5040:B 4.135 
7 *904:60 *904:79 14.475 
8 *904:79 *5044:B 5.025 
9 *904:79 *904:94 1.635 
10 *904:94 *5038:B 4.05 
11 *904:94 *904:109 11.72 
12 *904:109 *5042:B 1.96 
13 *904:109 *5036:B 8.72 
*END

*D_NET *905 0.00385324
*CONN
*I *4924:A I *D sky130_fd_sc_hd__xnor2_2
*I *4930:A1 I *D sky130_fd_sc_hd__a21oi_2
*I *4742:B I *D sky130_fd_sc_hd__and3_2
*I *4296:A I *D sky130_fd_sc_hd__inv_2
*I *4737:C1 I *D sky130_fd_sc_hd__a211o_2
*I *5052:Q O *D sky130_fd_sc_hd__dfrtp_2
*CAP
1 *4924:A 0
2 *4930:A1 1.88809e-05
3 *4742:B 2.08101e-05
4 *4296:A 0
5 *4737:C1 6.54783e-05
6 *5052:Q 0.000382211
7 *905:24 0.000270238
8 *905:20 0.000373207
9 *905:16 0.000302999
10 *905:10 0.000518693
11 *4737:C1 *4737:B1 0.000274654
12 *4737:C1 *4795:B 0.000119631
13 *4930:A1 *4930:A2 5.4155e-06
14 *905:10 *983:105 0.000104287
15 *905:16 *1282:DIODE 6.58339e-05
16 *905:16 *4924:B 0
17 *905:16 *916:20 2.75229e-05
18 *905:16 *916:26 3.96653e-05
19 *905:16 *983:105 0.00018305
20 *905:20 *1282:DIODE 0.00020268
21 *905:20 *4737:B1 1.70733e-05
22 *905:20 *4930:B1 0.000158066
23 *905:20 *916:26 0.000225264
24 *905:24 *4737:B1 0.000353571
25 *4926:A2 *905:10 0
26 *4926:A2 *905:16 0
27 *220:10 *905:24 0.000124007
*RES
1 *5052:Q *905:10 8.19 
2 *905:10 *905:16 5.285 
3 *905:16 *905:20 4.605 
4 *905:20 *905:24 4.515 
5 *905:24 *4737:C1 4.12 
6 *905:24 *4296:A 1.6 
7 *905:20 *4742:B 1.96 
8 *905:16 *4930:A1 1.96 
9 *905:10 *4924:A 3.6 
*END

*D_NET *906 0.00685045
*CONN
*I *4791:A I *D sky130_fd_sc_hd__nand2_2
*I *4793:A1 I *D sky130_fd_sc_hd__o21ai_2
*I *4797:B I *D sky130_fd_sc_hd__and3_2
*I *4796:A1 I *D sky130_fd_sc_hd__a21oi_2
*I *4698:A I *D sky130_fd_sc_hd__and2_2
*I *4702:A1 I *D sky130_fd_sc_hd__o22ai_2
*I *4789:A I *D sky130_fd_sc_hd__xnor2_2
*I *5062:Q O *D sky130_fd_sc_hd__dfrtp_2
*CAP
1 *4791:A 0.000119212
2 *4793:A1 0
3 *4797:B 0.000279455
4 *4796:A1 0
5 *4698:A 0
6 *4702:A1 0.000121315
7 *4789:A 2.00583e-05
8 *5062:Q 0
9 *906:63 0.000416801
10 *906:43 0.000466712
11 *906:35 0.00087409
12 *906:23 0.000680185
13 *906:10 0.000532365
14 *906:4 0.000342682
15 *4789:A *987:227 5.05437e-05
16 *4789:A *1122:254 5.05437e-05
17 *4791:A *1218:DIODE 9.30717e-05
18 *4791:A *4791:B 5.4003e-05
19 *4791:A *5062:RESET_B 3.00381e-05
20 *4791:A *965:53 6.55328e-05
21 *4791:A *965:55 2.96334e-05
22 *4797:B *4797:A 1.4389e-05
23 *906:10 *1311:DIODE 0
24 *906:10 *1355:DIODE 2.97004e-06
25 *906:10 *5062:D 0
26 *906:10 *5062:RESET_B 7.25921e-05
27 *906:10 *965:55 3.21052e-05
28 *906:23 *1355:DIODE 5.12946e-05
29 *906:23 *5062:RESET_B 0
30 *906:23 *965:53 0
31 *906:23 *1007:56 0
32 *906:35 *1220:DIODE 4.35348e-05
33 *906:35 *4794:A1 0.000271303
34 *906:35 *934:23 0.000339886
35 *906:35 *992:139 6.73424e-05
36 *906:35 *992:205 6.1357e-05
37 *906:35 *1023:29 0.000467259
38 *906:43 *4968:A2 0.000159741
39 *906:43 *4980:B 9.37731e-05
40 *906:43 *4982:A2 9.92397e-05
41 *906:63 *4980:B 0.000229897
42 *4698:B *4702:A1 0
43 *4792:A2 *906:23 0
44 *4794:B1 *906:35 8.8266e-05
45 *4796:A2 *4797:B 3.8858e-05
46 *4980:A *906:35 0.000122331
47 *4980:A *906:43 2.37321e-05
48 *4980:A *906:63 8.08153e-06
49 *380:32 *4702:A1 0.000125055
50 *380:40 *4702:A1 3.23663e-05
51 *380:40 *906:43 0.000151309
52 *627:10 *4702:A1 2.75229e-05
53 *698:37 *906:23 0
*RES
1 *5062:Q *906:4 1.6 
2 *906:4 *906:10 5.975 
3 *906:10 *4789:A 4.395 
4 *906:10 *906:23 6.44 
5 *906:23 *906:35 16.155 
6 *906:35 *906:43 9.11 
7 *906:43 *4702:A1 4.48 
8 *906:43 *4698:A 1.6 
9 *906:35 *906:63 5.105 
10 *906:63 *4796:A1 1.6 
11 *906:63 *4797:B 4.99 
12 *906:23 *4793:A1 1.6 
13 *906:4 *4791:A 8.885 
*END

*D_NET *907 0.00645721
*CONN
*I *4800:A I *D sky130_fd_sc_hd__or2_2
*I *4795:A I *D sky130_fd_sc_hd__and3_2
*I *4796:B1 I *D sky130_fd_sc_hd__a21oi_2
*I *4797:A I *D sky130_fd_sc_hd__and3_2
*I *4697:A I *D sky130_fd_sc_hd__nand2_2
*I *4699:A I *D sky130_fd_sc_hd__or2_2
*I *4718:A1 I *D sky130_fd_sc_hd__a221o_2
*I *5063:Q O *D sky130_fd_sc_hd__dfrtp_2
*CAP
1 *4800:A 0
2 *4795:A 0
3 *4796:B1 0
4 *4797:A 4.18852e-05
5 *4697:A 0.000168733
6 *4699:A 2.73208e-05
7 *4718:A1 0.000295084
8 *5063:Q 0.000125558
9 *907:69 0.00014435
10 *907:63 0.000210576
11 *907:24 0.000350337
12 *907:22 0.000537234
13 *907:14 0.000679214
14 *907:10 0.000356091
15 *4697:A *1205:DIODE 0.000111285
16 *4697:A *1210:DIODE 0
17 *4697:A *4950:B 1.16578e-05
18 *4699:A *4737:A1 1.47256e-05
19 *907:10 *1203:DIODE 0.000165488
20 *907:10 *1314:DIODE 8.57406e-05
21 *907:10 *1315:DIODE 4.82863e-05
22 *907:10 *4800:B 9.22606e-05
23 *907:10 *4980:B 6.71803e-06
24 *907:10 *5063:RESET_B 6.77417e-05
25 *907:10 *992:107 2.10433e-05
26 *907:10 *1012:42 8.49205e-05
27 *907:14 *4980:B 0.00018863
28 *907:22 *4737:A1 0.000444949
29 *907:63 *4795:C 4.66108e-05
30 *907:69 *992:139 0.000306389
31 *4699:B *4697:A 3.16057e-06
32 *4699:B *907:24 1.02692e-05
33 *4708:A *4718:A1 0.00011852
34 *4708:C *4718:A1 0.000143266
35 *4709:B *907:22 4.66108e-05
36 *4717:B *4718:A1 0
37 *4718:A2 *4697:A 7.96104e-06
38 *4718:A2 *4718:A1 0.000179649
39 *4718:A2 *907:24 2.33395e-05
40 *4718:B1 *4718:A1 4.82863e-05
41 *4719:A1 *907:22 5.16724e-05
42 *4719:A2 *907:22 2.64128e-05
43 *4739:A *907:22 8.49205e-05
44 *4739:B *907:14 0
45 *4739:C *907:22 0.000201503
46 *4739:C *907:63 0.000230435
47 *4740:C *907:10 0
48 *4740:C *907:14 0
49 *4796:A2 *4797:A 8.09753e-05
50 *4797:B *4797:A 1.4389e-05
51 *4798:B *907:69 0.000157595
52 *4799:A2 *907:69 9.21068e-05
53 *4980:A *907:69 3.21271e-05
54 *378:55 *4697:A 6.48713e-05
55 *378:63 *4697:A 0.000158023
56 *380:28 *4718:A1 0
57 *620:6 *907:22 4.82863e-05
58 *635:12 *4718:A1 0
*RES
1 *5063:Q *907:10 7.83 
2 *907:10 *907:14 6.185 
3 *907:14 *907:22 9.725 
4 *907:22 *907:24 0.615 
5 *907:24 *4718:A1 9.96 
6 *907:24 *4699:A 4.05 
7 *907:22 *4697:A 7.785 
8 *907:14 *907:63 2.175 
9 *907:63 *907:69 7.675 
10 *907:69 *4797:A 2.665 
11 *907:69 *4796:B1 1.6 
12 *907:63 *4795:A 1.6 
13 *907:10 *4800:A 3.6 
*END

*D_NET *908 0.00922108
*CONN
*I *4808:A1 I *D sky130_fd_sc_hd__o21ai_2
*I *4805:A I *D sky130_fd_sc_hd__nand2_2
*I *4802:A I *D sky130_fd_sc_hd__nor2_2
*I *4696:B2 I *D sky130_fd_sc_hd__a22o_2
*I *4720:A I *D sky130_fd_sc_hd__or2_2
*I *4803:A I *D sky130_fd_sc_hd__and2_2
*I *5064:Q O *D sky130_fd_sc_hd__dfrtp_2
*CAP
1 *4808:A1 8.9461e-05
2 *4805:A 2.36109e-05
3 *4802:A 0
4 *4696:B2 5.63674e-05
5 *4720:A 0.000309916
6 *4803:A 4.52815e-05
7 *5064:Q 0.000246187
8 *908:31 0.00192168
9 *908:16 0.00170087
10 *908:12 0.00036592
11 *908:8 0.000585041
12 *908:6 0.000631341
13 *4696:B2 *1013:38 3.25831e-05
14 *4803:A *987:112 0.000122331
15 *4808:A1 *1284:DIODE 0.000367688
16 *4808:A1 *5064:RESET_B 0.000320834
17 *4808:A1 *1007:12 0
18 *908:8 *4969:C1 0.000148977
19 *908:8 *5064:CLK 4.82919e-05
20 *908:8 *965:161 3.23663e-05
21 *908:12 *1225:DIODE 8.65905e-05
22 *908:12 *4919:A2 0
23 *908:12 *4969:C1 0.000647435
24 *908:16 *1024:44 0.000187759
25 *908:31 *4953:B 0.000477487
26 *908:31 *4980:B 2.75145e-05
27 *908:31 *1024:44 0.000225175
28 *4721:A2 *4720:A 5.05437e-05
29 *4722:A *4696:B2 0.000116158
30 *4722:A *4720:A 6.97118e-05
31 *4722:B *4720:A 3.10443e-05
32 *4722:C_N *4720:A 3.94299e-05
33 *4740:B *4720:A 1.83756e-05
34 *4803:B *4803:A 4.66108e-05
35 *4807:A2 *908:8 2.75229e-05
36 *4980:A *908:31 1.83756e-05
37 *4981:B1 *908:31 8.40269e-05
38 *4981:D1 *4696:B2 0
39 *376:16 *4720:A 1.85674e-05
40 *657:21 *908:16 0
41 *657:21 *908:31 0
*RES
1 *5064:Q *908:6 5.155 
2 *908:6 *908:8 5.28 
3 *908:8 *908:12 6.33 
4 *908:12 *908:16 4.145 
5 *908:16 *4803:A 4.74 
6 *908:16 *908:31 22.01 
7 *908:31 *4720:A 6.835 
8 *908:31 *4696:B2 6.98 
9 *908:12 *4802:A 1.6 
10 *908:8 *4805:A 1.96 
11 *908:6 *4808:A1 9.785 
*END

*D_NET *909 0.0110562
*CONN
*I *4816:A1 I *D sky130_fd_sc_hd__o21ai_2
*I *4813:A I *D sky130_fd_sc_hd__nand2_2
*I *4825:C I *D sky130_fd_sc_hd__and4_2
*I *4824:A2 I *D sky130_fd_sc_hd__a31oi_2
*I *4810:A I *D sky130_fd_sc_hd__or2_2
*I *4811:A I *D sky130_fd_sc_hd__nand2_2
*I *4694:B2 I *D sky130_fd_sc_hd__o22a_2
*I *4696:A1 I *D sky130_fd_sc_hd__a22o_2
*I *5065:Q O *D sky130_fd_sc_hd__dfrtp_2
*CAP
1 *4816:A1 0.000140006
2 *4813:A 0
3 *4825:C 0.000127726
4 *4824:A2 8.05439e-05
5 *4810:A 0
6 *4811:A 1.77753e-05
7 *4694:B2 0.00012463
8 *4696:A1 0.000245593
9 *5065:Q 0.000387567
10 *909:72 0.000460942
11 *909:63 0.000324162
12 *909:30 0.00168085
13 *909:22 0.00143367
14 *909:20 0.000479233
15 *909:16 0.000609603
16 *909:6 0.000834705
17 *4694:B2 *987:88 0
18 *4696:A1 *1013:38 0.00011964
19 *4816:A1 *4816:A2 2.49909e-05
20 *4816:A1 *5065:D 2.66935e-05
21 *4816:A1 *992:30 0.000289698
22 *4816:A1 *1006:14 0
23 *4824:A2 *4824:A1 2.16917e-05
24 *4825:C *4824:B1 0.000139231
25 *4825:C *4972:B 0.000130445
26 *4825:C *911:34 2.07184e-05
27 *4825:C *911:49 0.000276984
28 *909:6 *5065:RESET_B 3.11906e-05
29 *909:16 *5065:CLK 4.82863e-05
30 *909:16 *5065:D 2.49909e-05
31 *909:16 *5065:RESET_B 4.82919e-05
32 *909:16 *965:165 4.85795e-05
33 *909:16 *965:167 6.65725e-05
34 *909:20 *4814:A1 1.12643e-05
35 *909:20 *965:167 0.000189297
36 *909:22 *5066:RESET_B 2.75145e-05
37 *909:22 *965:167 5.21706e-05
38 *909:30 *4981:A2 4.92062e-05
39 *909:30 *5066:CLK 4.84364e-05
40 *909:30 *5066:D 8.82557e-05
41 *909:30 *5066:RESET_B 6.11193e-05
42 *909:72 *987:136 0
43 *909:72 *987:159 0
44 *4694:B1 *4694:B2 0.000398713
45 *4721:B1 *4696:A1 0
46 *4723:A2 *4696:A1 2.75229e-05
47 *4812:A *909:63 8.53244e-05
48 *4812:A *909:72 5.53249e-06
49 *4815:A2 *909:16 4.99619e-05
50 *4817:B1 *4816:A1 0.000124344
51 *4821:A2 *909:30 0.00023713
52 *4824:A3 *4824:A2 4.82863e-05
53 *4825:D *4825:C 4.82863e-05
54 *4826:B *4825:C 1.15688e-05
55 *4826:B *909:72 4.43871e-06
56 *4953:A *4696:A1 3.52525e-05
57 *4981:A1 *909:30 2.70804e-05
58 *4981:B1 *909:30 1.56428e-05
59 *4981:D1 *4694:B2 4.39734e-05
60 *4981:D1 *4696:A1 6.36578e-05
61 *4981:D1 *909:30 1.83847e-05
62 *4986:C *4694:B2 0.000331133
63 *4986:C *909:30 2.50602e-05
64 *5131:A *4825:C 0.000172838
65 *5131:A *909:72 0.000155928
66 *5162:A *4824:A2 0.000234674
67 *376:30 *4696:A1 2.75229e-05
68 *716:25 *909:63 1.22762e-05
69 *716:36 *909:63 5.12842e-05
70 *716:36 *909:72 8.08153e-06
71 *716:42 *909:72 0
*RES
1 *5065:Q *909:6 5.845 
2 *909:6 *909:16 5.52 
3 *909:16 *909:20 5.295 
4 *909:20 *909:22 1.83 
5 *909:22 *909:30 18.005 
6 *909:30 *4696:A1 8.55 
7 *909:30 *4694:B2 8.55 
8 *909:22 *4811:A 1.96 
9 *909:20 *909:63 3.89 
10 *909:63 *4810:A 3.6 
11 *909:63 *909:72 4.44 
12 *909:72 *4824:A2 5.775 
13 *909:72 *4825:C 8.625 
14 *909:16 *4813:A 1.6 
15 *909:6 *4816:A1 9.47 
*END

*D_NET *910 0.00631164
*CONN
*I *4824:A1 I *D sky130_fd_sc_hd__a31oi_2
*I *4825:B I *D sky130_fd_sc_hd__and4_2
*I *4820:A1 I *D sky130_fd_sc_hd__a21bo_2
*I *4822:A1 I *D sky130_fd_sc_hd__o21a_2
*I *4694:A1 I *D sky130_fd_sc_hd__o22a_2
*I *4692:A I *D sky130_fd_sc_hd__nand2_2
*I *4818:A I *D sky130_fd_sc_hd__xnor2_2
*I *5066:Q O *D sky130_fd_sc_hd__dfrtp_2
*CAP
1 *4824:A1 0.000102122
2 *4825:B 0.00010691
3 *4820:A1 3.05742e-05
4 *4822:A1 2.91778e-05
5 *4694:A1 0
6 *4692:A 0.000170177
7 *4818:A 8.72241e-05
8 *5066:Q 0
9 *910:81 0.000512738
10 *910:33 0.000586902
11 *910:27 0.000644645
12 *910:21 0.000229316
13 *910:19 0.000425945
14 *910:6 0.000209463
15 *4692:A *1231:DIODE 0.00022786
16 *4692:A *987:88 0.000152752
17 *4692:A *1124:56 2.16833e-05
18 *4818:A *990:16 0.000163985
19 *4818:A *1013:16 0.000210611
20 *4820:A1 *1235:DIODE 9.53428e-06
21 *4820:A1 *990:10 3.57349e-05
22 *4820:A1 *1123:249 3.95698e-05
23 *4822:A1 *4820:B1_N 0
24 *4822:A1 *963:11 1.64319e-05
25 *4825:B *1013:16 0
26 *910:19 *990:10 0.000160658
27 *910:19 *990:16 0.000163706
28 *910:19 *1013:16 0.000348409
29 *910:27 *4822:A2 7.59904e-05
30 *910:27 *963:11 9.5799e-06
31 *910:27 *990:10 4.66108e-05
32 *910:27 *992:76 4.82919e-05
33 *910:27 *1123:249 0.000239807
34 *910:33 *937:14 0.000134633
35 *910:33 *1120:23 0.000290616
36 *910:81 *4820:B1_N 5.64768e-05
37 *910:81 *1013:16 0.000245886
38 *4821:A3 *910:27 8.65961e-05
39 *4824:A2 *4824:A1 2.16917e-05
40 *4824:A3 *4824:A1 8.65905e-05
41 *4825:D *4825:B 6.44307e-05
42 *4981:C1 *4692:A 5.65267e-05
43 *4986:A *910:81 0
44 *4986:C *4692:A 8.52172e-05
45 *5162:A *4824:A1 1.12578e-05
46 *5162:A *910:81 3.23663e-05
47 *613:8 *4692:A 5.4155e-06
48 *657:34 *910:81 2.75229e-05
*RES
1 *5066:Q *910:6 3.6 
2 *910:6 *4818:A 6.285 
3 *910:6 *910:19 4.185 
4 *910:19 *910:21 2 
5 *910:21 *910:27 6.4775 
6 *910:27 *910:33 2.14507 
7 *910:33 *4692:A 8.37 
8 *910:33 *4694:A1 3.6 
9 *910:27 *4822:A1 4.0875 
10 *910:21 *4820:A1 2.41 
11 *910:19 *910:81 7.43 
12 *910:81 *4825:B 7.49 
13 *910:81 *4824:A1 3.445 
*END

*D_NET *911 0.00863428
*CONN
*I *4827:A I *D sky130_fd_sc_hd__nand2_2
*I *4825:A I *D sky130_fd_sc_hd__and4_2
*I *4690:A I *D sky130_fd_sc_hd__nor2_2
*I *4691:A I *D sky130_fd_sc_hd__nand2_2
*I *4824:B1 I *D sky130_fd_sc_hd__a31oi_2
*I *4830:A1 I *D sky130_fd_sc_hd__o21ai_2
*I *5067:Q O *D sky130_fd_sc_hd__dfrtp_2
*CAP
1 *4827:A 0
2 *4825:A 0
3 *4690:A 0
4 *4691:A 0.000126872
5 *4824:B1 3.96172e-05
6 *4830:A1 0.000389442
7 *5067:Q 0.000167352
8 *911:67 0.000785453
9 *911:49 0.000836012
10 *911:34 0.000550281
11 *911:26 0.000555323
12 *4830:A1 *4830:B1 4.82863e-05
13 *4830:A1 *994:85 4.40812e-05
14 *911:26 *4830:B1 2.30292e-05
15 *911:26 *4831:A1 8.65905e-05
16 *911:26 *1008:24 0.00045601
17 *911:34 *4827:B 4.99619e-05
18 *911:34 *987:159 0.000156614
19 *911:34 *1008:24 0.000112046
20 *911:34 *1125:80 0.000120655
21 *911:49 *4972:B 5.14357e-05
22 *911:67 *4972:B 0.000129299
23 *911:67 *5051:D 0.000690878
24 *911:67 *1125:80 0.000495112
25 *4723:A1 *4691:A 8.00018e-05
26 *4740:B *4691:A 2.17728e-05
27 *4740:C *4691:A 9.6042e-05
28 *4825:C *4824:B1 0.000139231
29 *4825:C *911:34 2.07184e-05
30 *4825:C *911:49 0.000276984
31 *4826:B *4824:B1 0.000118513
32 *4826:B *911:49 0.000196364
33 *4828:C1 *4824:B1 1.07797e-05
34 *4828:C1 *911:34 1.15688e-05
35 *4831:A2 *911:26 0.000163204
36 *4831:B1 *911:26 0.000198051
37 *4972:A *911:49 0
38 *4972:A *911:67 0.00104946
39 *4986:A *4691:A 0
40 *5131:A *911:34 7.82371e-05
41 *373:40 *911:67 0.000120655
42 *611:10 *4691:A 0.00013834
*RES
1 *5067:Q *4830:A1 10.065 
2 *4830:A1 *911:26 8.965 
3 *911:26 *911:34 8.75 
4 *911:34 *4824:B1 5.235 
5 *911:34 *911:49 6.26 
6 *911:49 *911:67 19.47 
7 *911:67 *4691:A 8.9 
8 *911:67 *4690:A 1.6 
9 *911:49 *4825:A 1.6 
10 *911:26 *4827:A 1.6 
*END

*D_NET *912 0.00558304
*CONN
*I *4832:A I *D sky130_fd_sc_hd__xnor2_2
*I *4834:A I *D sky130_fd_sc_hd__nand2_2
*I *4836:A I *D sky130_fd_sc_hd__nor2_2
*I *4687:A I *D sky130_fd_sc_hd__xnor2_2
*I *4725:C1 I *D sky130_fd_sc_hd__o211a_2
*I *4839:A1 I *D sky130_fd_sc_hd__a21oi_2
*I *4840:B I *D sky130_fd_sc_hd__and3_2
*I *5068:Q O *D sky130_fd_sc_hd__dfrtp_2
*CAP
1 *4832:A 8.12594e-06
2 *4834:A 9.52232e-05
3 *4836:A 0.000216849
4 *4687:A 0
5 *4725:C1 0.000111102
6 *4839:A1 0
7 *4840:B 0.000152508
8 *5068:Q 9.53669e-05
9 *912:42 0.000599518
10 *912:40 0.00104933
11 *912:38 0.000439292
12 *912:18 0.000223005
13 *912:16 0.000140874
14 *912:12 0.00017387
15 *4725:C1 *4725:A1 1.44524e-05
16 *4725:C1 *4726:A1 2.99518e-06
17 *4832:A *1011:8 3.74161e-05
18 *4834:A *1238:DIODE 8.57024e-05
19 *4834:A *1241:DIODE 3.83041e-05
20 *4834:A *4834:B 4.82863e-05
21 *4836:A *1320:DIODE 0
22 *4836:A *5051:D 0.000519232
23 *4836:A *963:45 0
24 *4836:A *966:96 0.000141606
25 *4840:B *1013:16 0
26 *912:12 *1011:8 8.40213e-05
27 *912:12 *1013:10 0
28 *4450:A *4725:C1 1.72991e-05
29 *4832:B *912:16 8.1737e-05
30 *4832:B *912:18 9.54329e-05
31 *4837:A2 *4832:A 4.82919e-05
32 *4837:A2 *912:12 8.23457e-05
33 *4841:B *4840:B 1.34503e-05
34 *4973:A *4840:B 3.00381e-05
35 *370:31 *4725:C1 4.55864e-06
36 *370:40 *4725:C1 0.000100749
37 *735:26 *4840:B 6.36578e-05
38 *735:37 *4840:B 5.46944e-05
39 *735:37 *912:18 1.5431e-05
40 *746:26 *4836:A 3.86529e-05
41 *847:12 *4840:B 0.000177897
42 *847:12 *912:12 0.000136884
43 *847:12 *912:16 0.000149749
44 *847:12 *912:18 0.00019509
45 *851:18 *4725:C1 0
*RES
1 *5068:Q *912:12 8.03 
2 *912:12 *912:16 3.89 
3 *912:16 *912:18 2.4 
4 *912:18 *4840:B 7.05 
5 *912:18 *4839:A1 3.6 
6 *912:16 *912:38 2 
7 *912:38 *912:40 4.935 
8 *912:40 *912:42 7.005 
9 *912:42 *4725:C1 8 
10 *912:42 *4687:A 1.6 
11 *912:40 *4836:A 11.57 
12 *912:38 *4834:A 3.805 
13 *912:12 *4832:A 2.05 
*END

*D_NET *913 0.00701095
*CONN
*I *4845:A1 I *D sky130_fd_sc_hd__o21ai_2
*I *4842:A I *D sky130_fd_sc_hd__nand2_2
*I *4688:A I *D sky130_fd_sc_hd__xnor2_2
*I *4725:A1 I *D sky130_fd_sc_hd__o211a_2
*I *4726:A1 I *D sky130_fd_sc_hd__a21oi_2
*I *4839:B1 I *D sky130_fd_sc_hd__a21oi_2
*I *4840:A I *D sky130_fd_sc_hd__and3_2
*I *5069:Q O *D sky130_fd_sc_hd__dfrtp_2
*CAP
1 *4845:A1 8.41673e-05
2 *4842:A 2.08101e-05
3 *4688:A 0
4 *4725:A1 0.000191274
5 *4726:A1 8.82519e-05
6 *4839:B1 0
7 *4840:A 9.86197e-05
8 *5069:Q 7.03278e-05
9 *913:50 0.000430618
10 *913:46 0.000812012
11 *913:33 0.000718483
12 *913:16 0.000488615
13 *913:10 0.00117532
14 *913:6 0.000976573
15 *4725:A1 *989:10 5.7875e-05
16 *4725:A1 *989:19 0.000232214
17 *4845:A1 *994:81 3.68682e-05
18 *4845:A1 *1012:10 0
19 *913:16 *4842:B 4.66108e-05
20 *913:46 *4843:A2 0
21 *913:46 *4960:A 0.000168213
22 *913:46 *4960:B 0.000153469
23 *913:50 *4688:B 7.57202e-05
24 *913:50 *989:19 8.23457e-05
25 *4725:C1 *4725:A1 1.44524e-05
26 *4725:C1 *4726:A1 2.99518e-06
27 *4726:B1 *4725:A1 1.20741e-05
28 *4726:B1 *4726:A1 0
29 *4839:A2 *913:46 0.000158066
30 *4840:C *4840:A 8.49205e-05
31 *4841:A *913:33 9.71067e-05
32 *4841:B *4840:A 4.82919e-05
33 *4843:C1 *913:33 0.00013812
34 *4844:A2 *913:10 8.40213e-05
35 *4973:C *913:46 1.03423e-05
36 *4981:C1 *4725:A1 4.90071e-05
37 *4985:B1 *4725:A1 5.19629e-05
38 *5131:A *913:33 1.15688e-05
39 *735:26 *913:33 1.07797e-05
40 *735:37 *913:33 2.04724e-05
41 *748:16 *4840:A 0
42 *851:18 *4725:A1 4.90071e-05
43 *851:18 *4726:A1 0.000159369
*RES
1 *5069:Q *913:6 2.395 
2 *913:6 *913:10 9.09 
3 *913:10 *913:16 4.71 
4 *913:16 *4840:A 3.55 
5 *913:16 *913:33 5.89 
6 *913:33 *4839:B1 1.6 
7 *913:33 *913:46 11.1 
8 *913:46 *913:50 4.52 
9 *913:50 *4726:A1 5.49 
10 *913:50 *4725:A1 11.4587 
11 *913:46 *4688:A 1.6 
12 *913:10 *4842:A 1.96 
13 *913:6 *4845:A1 6.98 
*END

*D_NET *914 0.00523191
*CONN
*I *4685:A I *D sky130_fd_sc_hd__nor2_2
*I *4684:A I *D sky130_fd_sc_hd__nand2_2
*I *4683:A I *D sky130_fd_sc_hd__and2_2
*I *4848:A I *D sky130_fd_sc_hd__and2_2
*I *4847:A I *D sky130_fd_sc_hd__nor2_2
*I *4850:A I *D sky130_fd_sc_hd__nand2_2
*I *4853:A1 I *D sky130_fd_sc_hd__o21ai_2
*I *5070:Q O *D sky130_fd_sc_hd__dfrtp_2
*CAP
1 *4685:A 0.000238873
2 *4684:A 0.000119361
3 *4683:A 1.43384e-05
4 *4848:A 2.38814e-05
5 *4847:A 2.27504e-05
6 *4850:A 0.000230417
7 *4853:A1 0
8 *5070:Q 9.75068e-05
9 *914:64 0.000243734
10 *914:60 0.000582817
11 *914:49 0.000357271
12 *914:32 0.000319128
13 *914:21 0.000480421
14 *914:12 0.000150614
15 *4685:A *4686:A1 0.000116158
16 *4685:A *915:52 5.83121e-06
17 *4685:A *915:58 6.45236e-05
18 *4685:A *986:88 6.69354e-05
19 *4848:A *4851:A1 7.33759e-05
20 *4850:A *1246:DIODE 0
21 *4850:A *4850:B 5.53249e-06
22 *4850:A *4852:A1 3.79595e-05
23 *914:12 *1245:DIODE 0.000131304
24 *914:12 *1246:DIODE 0.000134249
25 *914:12 *4852:C1 4.05674e-06
26 *914:12 *5070:RESET_B 1.17309e-05
27 *914:21 *1246:DIODE 4.66108e-05
28 *914:21 *4853:A2 0.000198945
29 *914:21 *1008:40 4.35348e-05
30 *914:32 *4851:A1 0
31 *914:32 *1125:59 0
32 *914:60 *4851:A1 0.000100429
33 *4684:B *4683:A 4.87465e-06
34 *4684:B *4684:A 4.7072e-05
35 *4684:B *914:64 2.75145e-05
36 *4685:B *4685:A 0
37 *4686:B1 *4685:A 4.05358e-05
38 *4686:C1 *4685:A 1.17735e-05
39 *4732:A2 *914:60 0
40 *4847:B *914:49 5.05437e-05
41 *4849:A *914:32 0.000157918
42 *4849:B *914:32 0.000136877
43 *4852:A2 *4850:A 0.000155863
44 *4852:B1 *4850:A 8.69005e-05
45 *4854:A2 *914:12 0.000122331
46 *5129:A *4850:A 0
47 *5129:A *914:12 7.21296e-06
48 *5129:A *914:32 0
49 *5130:A *914:32 0
50 *370:31 *4847:A 4.66108e-05
51 *370:31 *914:49 9.80943e-06
52 *373:31 *914:21 0.000213622
53 *429:36 *914:64 6.0115e-05
54 *429:38 *4683:A 9.03508e-06
55 *653:52 *4850:A 0
56 *653:52 *914:60 0
57 *755:23 *4685:A 0
58 *755:23 *914:32 6.97124e-05
59 *755:23 *914:49 4.54719e-05
60 *755:23 *914:60 0
61 *768:12 *4685:A 5.83121e-06
*RES
1 *5070:Q *914:12 8.63 
2 *914:12 *4853:A1 1.6 
3 *914:12 *914:21 4.52 
4 *914:21 *4850:A 7.785 
5 *914:21 *914:32 4.185 
6 *914:32 *4847:A 4.05 
7 *914:32 *914:49 5.755 
8 *914:49 *4848:A 4.47 
9 *914:49 *914:60 3.93 
10 *914:60 *914:64 3.83 
11 *914:64 *4683:A 1.96 
12 *914:64 *4684:A 3.445 
13 *914:60 *4685:A 8.325 
*END

*D_NET *915 0.00680155
*CONN
*I *4858:A1 I *D sky130_fd_sc_hd__a32o_2
*I *4855:A I *D sky130_fd_sc_hd__or2_2
*I *4856:A I *D sky130_fd_sc_hd__nand2_2
*I *4862:A1 I *D sky130_fd_sc_hd__a21oi_2
*I *4863:B I *D sky130_fd_sc_hd__and3_2
*I *4686:A1 I *D sky130_fd_sc_hd__a211o_2
*I *4682:A I *D sky130_fd_sc_hd__nand2_2
*I *4681:A I *D sky130_fd_sc_hd__nor2_2
*I *4860:A1 I *D sky130_fd_sc_hd__o21ai_2
*I *5071:Q O *D sky130_fd_sc_hd__dfrtp_2
*CAP
1 *4858:A1 0.000133801
2 *4855:A 0.000125317
3 *4856:A 5.68943e-05
4 *4862:A1 7.00831e-05
5 *4863:B 8.58169e-05
6 *4686:A1 0.000123066
7 *4682:A 1.85694e-05
8 *4681:A 0
9 *4860:A1 0.000580443
10 *5071:Q 0.000253909
11 *915:108 0.00036089
12 *915:93 0.000277095
13 *915:82 0.00025517
14 *915:58 0.000301311
15 *915:52 0.000610537
16 *915:39 0.000635474
17 *915:30 0.000491986
18 *4686:A1 *990:239 0.00015639
19 *4856:A *1120:87 0.00015896
20 *4856:A *1123:24 1.19928e-05
21 *4860:A1 *4860:A2 8.53113e-06
22 *4860:A1 *5071:RESET_B 4.4133e-05
23 *4860:A1 *1123:165 0
24 *4862:A1 *988:66 2.86876e-05
25 *4863:B *986:88 0.000122325
26 *915:30 *4860:A2 7.88397e-05
27 *915:30 *1123:165 0.000118438
28 *915:52 *986:88 0.000198398
29 *915:108 *4858:A3 2.46089e-05
30 *4685:A *4686:A1 0.000116158
31 *4685:A *915:52 5.83121e-06
32 *4685:A *915:58 6.45236e-05
33 *4685:B *915:58 1.58946e-05
34 *4686:B1 *4686:A1 2.32594e-05
35 *4686:C1 *4686:A1 0.000114492
36 *4686:C1 *915:58 2.92496e-05
37 *4732:A2 *4856:A 3.00399e-05
38 *4732:A2 *915:58 1.73877e-05
39 *4732:A2 *915:82 4.49498e-05
40 *4732:A2 *915:93 6.65887e-05
41 *4732:A2 *915:108 1.0183e-05
42 *4741:C *4855:A 0.000149822
43 *4741:C *4858:A1 0.000194694
44 *4855:B *915:108 0
45 *4856:B *4856:A 8.65961e-05
46 *4862:A2 *4862:A1 8.8266e-05
47 *4985:A1 *915:30 0.000137571
48 *567:12 *4860:A1 0
49 *601:31 *4682:A 9.53428e-06
50 *601:31 *915:39 1.61831e-05
51 *601:31 *915:52 9.27255e-06
52 *601:38 *915:39 0.000124895
53 *755:23 *915:58 0
54 *755:34 *915:82 0
55 *755:34 *915:93 0
56 *755:45 *915:93 0
57 *755:45 *915:108 0
58 *766:25 *915:30 0.000114492
*RES
1 *5071:Q *4860:A1 10.41 
2 *4860:A1 *915:30 12.395 
3 *915:30 *4681:A 1.6 
4 *915:30 *915:39 2.88 
5 *915:39 *4682:A 1.96 
6 *915:39 *915:52 7.64 
7 *915:52 *915:58 1.935 
8 *915:58 *4686:A1 6.825 
9 *915:58 *4863:B 4.74 
10 *915:52 *915:82 1.38 
11 *915:82 *4862:A1 5.085 
12 *915:82 *915:93 2.145 
13 *915:93 *4856:A 5.445 
14 *915:93 *915:108 3.635 
15 *915:108 *4855:A 3.445 
16 *915:108 *4858:A1 3.43 
*END

*D_NET *916 0.00622598
*CONN
*I *4927:A I *D sky130_fd_sc_hd__or2_2
*I *4923:A I *D sky130_fd_sc_hd__and3_2
*I *4924:B I *D sky130_fd_sc_hd__xnor2_2
*I *4930:A2 I *D sky130_fd_sc_hd__a21oi_2
*I *4742:C I *D sky130_fd_sc_hd__and3_2
*I *4737:B1 I *D sky130_fd_sc_hd__a211o_2
*I *5053:Q O *D sky130_fd_sc_hd__dfrtp_2
*CAP
1 *4927:A 7.01711e-05
2 *4923:A 0
3 *4924:B 0.000137104
4 *4930:A2 1.88809e-05
5 *4742:C 1.16891e-05
6 *4737:B1 0.000293288
7 *5053:Q 0.00046895
8 *916:26 0.000559707
9 *916:20 0.000374672
10 *916:18 0.000409743
11 *916:10 0.000338799
12 *916:6 0.000706343
13 *4737:B1 *4737:A1 5.4155e-06
14 *4737:B1 *4738:C 0.000114955
15 *4737:B1 *4795:B 1.61831e-05
16 *4742:C *4742:A 5.4155e-06
17 *4924:B *965:20 4.82863e-05
18 *4924:B *983:105 0
19 *4924:B *1118:62 0
20 *4924:B *1122:183 2.75145e-05
21 *4927:A *5053:D 9.37731e-05
22 *4927:A *1007:18 9.71067e-05
23 *916:6 *5053:RESET_B 0.0002062
24 *916:10 *1300:DIODE 4.82919e-05
25 *916:10 *5053:CLK 7.60965e-05
26 *916:10 *5053:RESET_B 3.73232e-05
27 *916:10 *1023:83 4.43682e-05
28 *916:18 *4926:B1 9.2741e-05
29 *916:18 *965:22 8.59365e-05
30 *916:18 *965:28 3.09233e-05
31 *916:18 *1118:62 0.00011852
32 *916:20 *1282:DIODE 4.7662e-05
33 *916:20 *4926:B1 5.83121e-06
34 *916:26 *4738:C 4.35348e-05
35 *916:26 *4742:A 9.53428e-06
36 *916:26 *4930:B1 0.000159741
37 *916:26 *925:36 3.00355e-05
38 *4737:C1 *4737:B1 0.000274654
39 *4926:A1 *4924:B 3.09233e-05
40 *4926:A2 *4924:B 7.36562e-05
41 *4928:A2 *4927:A 2.65814e-06
42 *4928:A2 *916:18 2.65814e-06
43 *4930:A1 *4930:A2 5.4155e-06
44 *4931:C *916:26 4.66108e-05
45 *4937:C_N *4737:B1 5.99393e-05
46 *663:8 *4737:B1 0.000231628
47 *905:16 *4924:B 0
48 *905:16 *916:20 2.75229e-05
49 *905:16 *916:26 3.96653e-05
50 *905:20 *4737:B1 1.70733e-05
51 *905:20 *916:26 0.000225264
52 *905:24 *4737:B1 0.000353571
*RES
1 *5053:Q *916:6 7.57 
2 *916:6 *916:10 3.225 
3 *916:10 *916:18 7.555 
4 *916:18 *916:20 1.83 
5 *916:20 *916:26 5.4 
6 *916:26 *4737:B1 9.805 
7 *916:26 *4742:C 1.96 
8 *916:20 *4930:A2 1.96 
9 *916:18 *4924:B 8.45 
10 *916:10 *4923:A 1.6 
11 *916:6 *4927:A 7.175 
*END

*D_NET *917 0.00667481
*CONN
*I *4862:B1 I *D sky130_fd_sc_hd__a21oi_2
*I *4863:A I *D sky130_fd_sc_hd__and3_2
*I *4676:A I *D sky130_fd_sc_hd__xnor2_2
*I *4675:A I *D sky130_fd_sc_hd__nand2_2
*I *4865:A I *D sky130_fd_sc_hd__nand2_2
*I *4868:A1 I *D sky130_fd_sc_hd__o21ai_2
*I *5072:Q O *D sky130_fd_sc_hd__dfrtp_2
*CAP
1 *4862:B1 0
2 *4863:A 7.91539e-05
3 *4676:A 0
4 *4675:A 0.000354336
5 *4865:A 0.00013787
6 *4868:A1 1.88809e-05
7 *5072:Q 0.000147895
8 *917:58 0.000574286
9 *917:36 0.000821509
10 *917:32 0.0011894
11 *917:19 0.00051439
12 *917:6 0.000316201
13 *4863:A *986:88 3.03684e-05
14 *4863:A *988:58 0.000159957
15 *4863:A *994:156 2.68721e-05
16 *4865:A *994:156 8.8266e-05
17 *4865:A *994:162 4.82919e-05
18 *4868:A1 *4868:A2 5.4155e-06
19 *917:6 *1325:DIODE 8.8266e-05
20 *917:19 *1335:DIODE 7.9642e-06
21 *917:19 *4868:A2 1.16578e-05
22 *917:19 *1009:51 0
23 *917:32 *1255:DIODE 9.21068e-05
24 *917:32 *1335:DIODE 9.98943e-06
25 *917:32 *4874:A1 9.37731e-05
26 *917:32 *1009:51 0
27 *917:36 *4871:A 2.49909e-05
28 *917:36 *918:32 0.000170734
29 *917:58 *4871:A 4.21757e-05
30 *4675:B *4675:A 0.000201503
31 *4676:B *4675:A 0.000188957
32 *4864:A *917:58 3.18568e-05
33 *4866:C1 *4863:A 0.000115464
34 *4874:B1 *917:32 7.81876e-05
35 *4875:A2 *917:32 0.000118527
36 *429:36 *4865:A 0.000107415
37 *768:12 *4863:A 8.23457e-05
38 *768:14 *917:58 0.000168781
39 *775:8 *917:58 0.000201269
40 *775:12 *917:32 1.22676e-05
41 *844:12 *917:19 8.34505e-05
42 *844:12 *917:32 0.000230038
*RES
1 *5072:Q *917:6 3.775 
2 *917:6 *4868:A1 1.96 
3 *917:6 *917:19 4.685 
4 *917:19 *4865:A 6.465 
5 *917:19 *917:32 8.225 
6 *917:32 *917:36 7.365 
7 *917:36 *4675:A 7.6 
8 *917:36 *4676:A 1.6 
9 *917:32 *917:58 8.07 
10 *917:58 *4863:A 8.285 
11 *917:58 *4862:B1 1.6 
*END

*D_NET *918 0.00356527
*CONN
*I *4310:A I *D sky130_fd_sc_hd__inv_2
*I *4871:A I *D sky130_fd_sc_hd__and2_2
*I *4874:A1 I *D sky130_fd_sc_hd__a32o_2
*I *4870:A I *D sky130_fd_sc_hd__or2_2
*I *5073:Q O *D sky130_fd_sc_hd__dfrtp_2
*CAP
1 *4310:A 0
2 *4871:A 0.000127434
3 *4874:A1 0.000275387
4 *4870:A 0.000220684
5 *5073:Q 0.000398234
6 *918:32 0.000606516
7 *918:28 0.000381244
8 *4870:A *1256:DIODE 8.58968e-05
9 *4870:A *4875:A1 0.00011357
10 *4870:A *5303:A 4.82863e-05
11 *4870:A *986:88 0.0001243
12 *4870:A *990:189 2.30292e-05
13 *4870:A *990:239 6.83659e-05
14 *918:28 *4876:B1 0.000116165
15 *918:28 *5303:A 9.5152e-05
16 *918:28 *966:31 0
17 *4870:B *4870:A 4.66108e-05
18 *4874:B1 *4874:A1 1.34594e-05
19 *4874:B2 *4874:A1 0.000159741
20 *4875:A2 *4870:A 4.82919e-05
21 *4876:A1 *918:28 9.47454e-05
22 *234:21 *918:28 5.56629e-05
23 *775:8 *4871:A 3.70488e-05
24 *780:12 *918:28 0
25 *844:12 *4874:A1 9.37731e-05
26 *844:12 *918:28 0
27 *917:32 *4874:A1 9.37731e-05
28 *917:36 *4871:A 2.49909e-05
29 *917:36 *918:32 0.000170734
30 *917:58 *4871:A 4.21757e-05
*RES
1 *5073:Q *4870:A 8.6 
2 *5073:Q *918:28 9.47 
3 *918:28 *918:32 3.225 
4 *918:32 *4874:A1 9.59 
5 *918:32 *4871:A 3.79 
6 *918:28 *4310:A 1.6 
*END

*D_NET *919 0.00341177
*CONN
*I *4879:A I *D sky130_fd_sc_hd__xnor2_2
*I *4309:A I *D sky130_fd_sc_hd__inv_2
*I *4666:A I *D sky130_fd_sc_hd__nand2_2
*I *4885:A1 I *D sky130_fd_sc_hd__a21oi_2
*I *4886:B I *D sky130_fd_sc_hd__and3_2
*I *4880:A I *D sky130_fd_sc_hd__nand2_2
*I *5074:Q O *D sky130_fd_sc_hd__dfrtp_2
*CAP
1 *4879:A 0
2 *4309:A 0
3 *4666:A 7.98254e-05
4 *4885:A1 0
5 *4886:B 4.04815e-05
6 *4880:A 0.000123275
7 *5074:Q 0.000201845
8 *919:49 0.000480079
9 *919:38 0.00054669
10 *919:23 0.000377007
11 *919:10 0.000313364
12 *919:8 0.000201845
13 *4880:A *4880:B 9.50342e-06
14 *4880:A *1009:51 0
15 *4880:A *1120:61 3.42142e-05
16 *4886:B *991:34 1.56428e-05
17 *919:8 *966:12 4.58166e-05
18 *919:8 *966:14 7.67345e-05
19 *919:23 *4890:A1 5.92191e-05
20 *919:23 *988:223 0
21 *919:23 *1009:51 0
22 *919:38 *4885:B1 7.71016e-05
23 *919:38 *4890:A1 0.000225175
24 *919:38 *988:223 0
25 *4729:A2 *4666:A 4.99619e-05
26 *4879:B *919:8 8.40269e-05
27 *4882:A2 *4880:A 0.000139245
28 *4882:A2 *919:23 0.00016163
29 *233:10 *4666:A 6.90876e-05
*RES
1 *5074:Q *919:8 5.515 
2 *919:8 *919:10 2 
3 *919:10 *4880:A 6 
4 *919:10 *919:23 3.87 
5 *919:23 *4886:B 4.05 
6 *919:23 *919:38 5.45 
7 *919:38 *4885:A1 1.6 
8 *919:38 *919:49 6 
9 *919:49 *4666:A 3.43 
10 *919:49 *4309:A 1.6 
11 *919:8 *4879:A 1.6 
*END

*D_NET *920 0.00733732
*CONN
*I *4662:B1_N I *D sky130_fd_sc_hd__a21bo_2
*I *4661:B1 I *D sky130_fd_sc_hd__a21oi_2
*I *4668:A1 I *D sky130_fd_sc_hd__a311o_2
*I *4885:B1 I *D sky130_fd_sc_hd__a21oi_2
*I *4886:A I *D sky130_fd_sc_hd__and3_2
*I *4891:A1 I *D sky130_fd_sc_hd__o21ai_2
*I *4888:A I *D sky130_fd_sc_hd__nand2_2
*I *5075:Q O *D sky130_fd_sc_hd__dfrtp_2
*CAP
1 *4662:B1_N 1.93165e-05
2 *4661:B1 0
3 *4668:A1 0.000102407
4 *4885:B1 0.000108759
5 *4886:A 0
6 *4891:A1 0.000472492
7 *4888:A 0.000105452
8 *5075:Q 0.000186908
9 *920:79 0.000387136
10 *920:55 0.000684969
11 *920:45 0.000998178
12 *920:43 0.000535186
13 *920:10 0.000386221
14 *4885:B1 *991:34 0.000186388
15 *4888:A *1009:64 1.22676e-05
16 *4888:A *1009:79 6.52906e-05
17 *4891:A1 *1263:DIODE 5.05437e-05
18 *4891:A1 *4891:A2 6.12198e-05
19 *4891:A1 *4891:B1 8.65905e-05
20 *4891:A1 *4918:A2 4.43682e-05
21 *920:10 *5075:CLK 0.000163204
22 *920:10 *1009:79 2.46007e-05
23 *920:43 *4891:A2 0
24 *920:43 *4955:B 9.88385e-05
25 *920:55 *4883:B1 9.80032e-06
26 *920:55 *991:34 0.000423642
27 *4660:A *920:43 2.14129e-05
28 *4660:A *920:45 0.000164686
29 *4666:B *920:55 0
30 *4666:B *920:79 0.000161529
31 *4668:A2 *4668:A1 6.74079e-05
32 *4668:A3 *4668:A1 0
33 *4729:A2 *920:55 9.30717e-05
34 *4729:B1 *920:45 0.000165076
35 *4729:B1 *920:55 6.9117e-05
36 *4883:A1 *920:55 0.00043044
37 *4886:C *4885:B1 8.65905e-05
38 *4886:C *920:55 4.82919e-05
39 *4955:A *920:43 0.000113577
40 *4955:A *920:45 1.82476e-05
41 *233:10 *920:79 6.05513e-05
42 *553:16 *920:10 0.000163204
43 *576:31 *4668:A1 7.89689e-05
44 *577:8 *4668:A1 5.53249e-06
45 *582:10 *4668:A1 2.75145e-05
46 *582:10 *920:79 2.8185e-05
47 *788:12 *4885:B1 0.000164445
48 *844:12 *4891:A1 2.75145e-05
49 *844:12 *920:43 5.10737e-05
50 *919:38 *4885:B1 7.71016e-05
*RES
1 *5075:Q *920:10 7.74 
2 *920:10 *4888:A 5.745 
3 *920:10 *4891:A1 6.12 
4 *4891:A1 *920:43 10.455 
5 *920:43 *920:45 3.93 
6 *920:45 *920:55 12.14 
7 *920:55 *4886:A 1.6 
8 *920:55 *4885:B1 9.065 
9 *920:45 *920:79 7.295 
10 *920:79 *4668:A1 8.03 
11 *920:79 *4661:B1 1.6 
12 *920:43 *4662:B1_N 3.8325 
*END

*D_NET *921 0.00520527
*CONN
*I *4650:A I *D sky130_fd_sc_hd__nand2_2
*I *4895:A I *D sky130_fd_sc_hd__nor2_2
*I *4894:A I *D sky130_fd_sc_hd__and2_2
*I *4893:A I *D sky130_fd_sc_hd__and3_2
*I *4651:A I *D sky130_fd_sc_hd__or2_2
*I *4898:A1 I *D sky130_fd_sc_hd__o21ai_2
*I *5076:Q O *D sky130_fd_sc_hd__dfrtp_2
*CAP
1 *4650:A 5.80542e-05
2 *4895:A 4.09428e-05
3 *4894:A 0
4 *4893:A 0.000122104
5 *4651:A 9.72073e-05
6 *4898:A1 0.000590327
7 *5076:Q 0.000305939
8 *921:39 0.000183176
9 *921:37 0.000185652
10 *921:35 0.000141691
11 *921:24 0.000381596
12 *4893:A *4893:C 7.66083e-05
13 *4893:A *966:191 0
14 *4893:A *1123:139 0.000163204
15 *4898:A1 *5076:RESET_B 0.000120741
16 *1276:DIODE *4651:A 0.000152136
17 *1276:DIODE *921:24 0.000722362
18 *4651:B *4650:A 0.00018305
19 *4651:B *4651:A 0.000196376
20 *4651:B *921:24 1.91597e-05
21 *4651:B *921:37 4.9968e-05
22 *4895:B *4893:A 9.50342e-06
23 *4895:B *4895:A 0.000122331
24 *4895:B *921:39 0.000184703
25 *4899:B1 *4898:A1 0.000120186
26 *4910:A1 *4893:A 0.000122155
27 *4917:A1 *4895:A 0.000160641
28 *5126:A *4893:A 0.000136877
29 *232:39 *4898:A1 0.000164294
30 *565:8 *4650:A 9.42302e-05
31 *565:8 *921:37 9.42302e-05
32 *565:8 *921:39 0.000109533
33 *574:19 *4893:A 1.47256e-05
34 *656:24 *921:37 7.00066e-05
35 *656:24 *921:39 1.1561e-05
*RES
1 *5076:Q *4898:A1 12.795 
2 *4898:A1 *921:24 8.26 
3 *921:24 *4651:A 4.48 
4 *921:24 *921:35 2 
5 *921:35 *921:37 2.145 
6 *921:37 *921:39 2.4 
7 *921:39 *4893:A 7.41 
8 *921:39 *4894:A 3.6 
9 *921:37 *4895:A 5.085 
10 *921:35 *4650:A 5.745 
*END

*D_NET *922 0.00354691
*CONN
*I *4907:B I *D sky130_fd_sc_hd__and3_2
*I *4308:A I *D sky130_fd_sc_hd__inv_2
*I *4906:A1 I *D sky130_fd_sc_hd__a21oi_2
*I *4900:A I *D sky130_fd_sc_hd__xnor2_2
*I *4901:A I *D sky130_fd_sc_hd__nand2_2
*I *5077:Q O *D sky130_fd_sc_hd__dfrtp_2
*CAP
1 *4907:B 0
2 *4308:A 0.000206609
3 *4906:A1 2.21603e-05
4 *4900:A 2.44059e-05
5 *4901:A 8.45517e-05
6 *5077:Q 0.000107691
7 *922:47 0.000456172
8 *922:32 0.000368723
9 *922:21 0.000378314
10 *922:8 0.000449153
11 *4900:A *4912:A2 4.66742e-05
12 *4901:A *5051:D 1.44259e-05
13 *4901:A *963:45 0
14 *4901:A *966:88 3.09164e-05
15 *4906:A1 *4907:A 8.40213e-05
16 *922:8 *1338:DIODE 0.000160635
17 *922:21 *1011:45 0
18 *922:21 *1027:39 0.000355889
19 *922:32 *923:22 4.43871e-06
20 *922:32 *1011:45 0
21 *922:32 *1027:39 0.000147397
22 *922:47 *923:22 3.67779e-05
23 *922:47 *1027:39 1.79098e-05
24 *1266:DIODE *4308:A 0
25 *1266:DIODE *4901:A 4.75576e-05
26 *1266:DIODE *922:21 2.54523e-05
27 *4904:A1 *4308:A 0
28 *4909:A *922:47 7.58604e-05
29 *4909:B *4308:A 9.50342e-06
30 *4910:A1 *4900:A 8.40213e-05
31 *4910:A2 *922:21 0
32 *4910:A2 *922:32 0
33 *653:84 *922:21 0
34 *656:47 *4308:A 4.82919e-05
35 *656:47 *4906:A1 8.23457e-05
36 *656:47 *922:47 0.000177015
*RES
1 *5077:Q *922:8 5.085 
2 *922:8 *4901:A 5.235 
3 *922:8 *922:21 5.4 
4 *922:21 *4900:A 4.395 
5 *922:21 *922:32 1.89 
6 *922:32 *4906:A1 4.395 
7 *922:32 *922:47 5.735 
8 *922:47 *4308:A 8.06 
9 *922:47 *4907:B 1.6 
*END

*D_NET *923 0.00375384
*CONN
*I *4307:A I *D sky130_fd_sc_hd__inv_2
*I *4908:A I *D sky130_fd_sc_hd__nand2_2
*I *4906:B1 I *D sky130_fd_sc_hd__a21oi_2
*I *4907:A I *D sky130_fd_sc_hd__and3_2
*I *5078:Q O *D sky130_fd_sc_hd__dfrtp_2
*CAP
1 *4307:A 0
2 *4908:A 7.92258e-05
3 *4906:B1 0
4 *4907:A 0.000180199
5 *5078:Q 0.000443963
6 *923:22 0.000396268
7 *923:14 0.000339219
8 *923:10 0.000487886
9 *4908:A *1270:DIODE 1.91597e-05
10 *4908:A *4908:B 8.8266e-05
11 *923:10 *4912:A2 0.000143266
12 *923:10 *4912:B1 0
13 *923:10 *4913:A1 1.46216e-05
14 *923:10 *5078:RESET_B 1.23706e-05
15 *923:10 *951:10 0
16 *923:10 *1011:62 1.15399e-05
17 *923:14 *4912:A2 0.000210846
18 *923:14 *1011:62 0.000210846
19 *923:22 *1270:DIODE 5.83121e-06
20 *923:22 *4898:A2 0.000123225
21 *923:22 *1011:45 5.93674e-05
22 *923:22 *1011:62 7.21296e-06
23 *4906:A1 *4907:A 8.40213e-05
24 *4906:A2 *4907:A 8.8266e-05
25 *4909:A *923:22 4.70999e-05
26 *4910:A2 *4907:A 5.4155e-06
27 *4910:B1 *4907:A 0
28 *4910:C1 *923:22 3.76596e-05
29 *4913:A2 *923:22 0.000162332
30 *231:8 *923:10 0.00011852
31 *231:23 *923:10 0.000139933
32 *431:16 *923:22 0.000116158
33 *656:47 *4907:A 7.99093e-05
34 *847:12 *923:10 0
35 *922:32 *923:22 4.43871e-06
36 *922:47 *923:22 3.67779e-05
*RES
1 *5078:Q *923:10 10.575 
2 *923:10 *923:14 4.4 
3 *923:14 *923:22 9.67 
4 *923:22 *4907:A 4.825 
5 *923:22 *4906:B1 1.6 
6 *923:14 *4908:A 3.085 
7 *923:10 *4307:A 3.6 
*END

*D_NET *924 0.00336307
*CONN
*I *4642:B1 I *D sky130_fd_sc_hd__a21o_2
*I *4641:A I *D sky130_fd_sc_hd__and3_2
*I *4916:A1 I *D sky130_fd_sc_hd__a31o_2
*I *4914:A I *D sky130_fd_sc_hd__xor2_2
*I *4918:A1 I *D sky130_fd_sc_hd__o211a_2
*I *5079:Q O *D sky130_fd_sc_hd__dfrtp_2
*CAP
1 *4642:B1 0.000153443
2 *4641:A 0
3 *4916:A1 0
4 *4914:A 0.00020021
5 *4918:A1 0.00027329
6 *5079:Q 0
7 *924:47 0.000297446
8 *924:27 0.00046101
9 *924:10 0.000782597
10 *924:6 0.00039251
11 *4914:A *4916:A2 0.000183745
12 *4914:A *1123:105 0.000105068
13 *4914:A *1123:116 2.97561e-05
14 *4918:A1 *1263:DIODE 4.82863e-05
15 *4918:A1 *4918:A2 4.38881e-05
16 *924:10 *5079:RESET_B 0
17 *924:10 *1029:27 0
18 *924:27 *1123:116 6.00003e-05
19 *924:47 *5079:RESET_B 0
20 *1276:DIODE *924:27 0
21 *4641:C *4642:B1 0.000162251
22 *4641:C *924:47 5.53249e-06
23 *4646:B *924:10 0
24 *4918:B1 *924:10 0
25 *4918:B1 *924:27 0
26 *4918:C1 *4918:A1 3.00381e-05
27 *4965:B *924:10 1.00941e-05
28 *566:14 *924:10 0
29 *566:14 *924:47 0
30 *788:29 *4914:A 0.000123902
*RES
1 *5079:Q *924:6 3.6 
2 *924:6 *924:10 5.93 
3 *924:10 *4918:A1 6.1525 
4 *924:10 *924:27 6.305 
5 *924:27 *4914:A 8.43 
6 *924:27 *4916:A1 3.6 
7 *924:6 *924:47 2.4 
8 *924:47 *4641:A 3.6 
9 *924:47 *4642:B1 6.705 
*END

*D_NET *925 0.00600557
*CONN
*I *4930:B1 I *D sky130_fd_sc_hd__a21oi_2
*I *4742:A I *D sky130_fd_sc_hd__and3_2
*I *4738:C I *D sky130_fd_sc_hd__or4b_2
*I *4929:A I *D sky130_fd_sc_hd__and3_2
*I *4933:A I *D sky130_fd_sc_hd__or2_2
*I *5054:Q O *D sky130_fd_sc_hd__dfrtp_2
*CAP
1 *4930:B1 9.64473e-05
2 *4742:A 1.66402e-05
3 *4738:C 0.000478347
4 *4929:A 0
5 *4933:A 0.000123617
6 *5054:Q 0.000149675
7 *925:36 0.0005271
8 *925:32 0.000310862
9 *925:14 0.000480412
10 *925:10 0.000688772
11 *4738:C *4795:B 1.07797e-05
12 *4738:C *4798:A 0.000163199
13 *4738:C *4936:A 4.82919e-05
14 *4738:C *4937:A 4.82919e-05
15 *4738:C *1119:141 0.000245212
16 *4738:C *1124:73 7.26579e-05
17 *4930:B1 *1023:83 3.88358e-05
18 *4930:B1 *1024:44 3.50599e-05
19 *4933:A *1302:DIODE 5.51245e-05
20 *4933:A *4929:B 5.47453e-05
21 *4933:A *4932:B1 0
22 *4933:A *965:28 0
23 *4933:A *965:36 1.0183e-05
24 *4933:A *1007:18 0
25 *925:10 *4968:B1 7.22354e-05
26 *925:10 *990:93 0.000157595
27 *925:10 *1024:44 8.25609e-05
28 *925:14 *4929:C 0.000120655
29 *925:14 *4932:B1 8.49205e-05
30 *925:14 *1124:100 0.00033791
31 *925:32 *990:93 0.000155176
32 *925:32 *1023:83 0.000158297
33 *925:32 *1024:44 0.000241323
34 *4737:B1 *4738:C 0.000114955
35 *4742:C *4742:A 5.4155e-06
36 *4932:A1 *925:14 4.82863e-05
37 *4932:A2 *4933:A 1.70935e-05
38 *4937:C_N *4738:C 0.000118081
39 *657:21 *925:32 0
40 *663:8 *4738:C 5.68717e-05
41 *664:18 *4738:C 0.000179027
42 *905:20 *4930:B1 0.000158066
43 *916:26 *4738:C 4.35348e-05
44 *916:26 *4742:A 9.53428e-06
45 *916:26 *4930:B1 0.000159741
46 *916:26 *925:36 3.00355e-05
*RES
1 *5054:Q *925:10 6.63 
2 *925:10 *925:14 8.66 
3 *925:14 *4933:A 8.255 
4 *925:14 *4929:A 1.6 
5 *925:10 *925:32 5.205 
6 *925:32 *925:36 2.45 
7 *925:36 *4738:C 14.78 
8 *925:36 *4742:A 1.96 
9 *925:32 *4930:B1 6.255 
*END

*D_NET *926 0.00468196
*CONN
*I *4936:A I *D sky130_fd_sc_hd__or2_2
*I *4743:A I *D sky130_fd_sc_hd__and2_2
*I *4935:A I *D sky130_fd_sc_hd__and3_2
*I *4738:A I *D sky130_fd_sc_hd__or4b_2
*I *4939:A1 I *D sky130_fd_sc_hd__o21ai_2
*I *5055:Q O *D sky130_fd_sc_hd__dfrtp_2
*CAP
1 *4936:A 0.00017811
2 *4743:A 0
3 *4935:A 0
4 *4738:A 0.00038815
5 *4939:A1 0
6 *5055:Q 0.000101473
7 *926:47 0.000335567
8 *926:22 0.000788754
9 *926:12 0.000430564
10 *926:8 0.000288889
11 *4738:A *4798:A 4.66108e-05
12 *4738:A *954:12 0
13 *4738:A *1007:50 2.42236e-05
14 *4738:A *1007:56 5.53249e-06
15 *4738:A *1119:118 0
16 *4936:A *986:152 0.000175001
17 *4936:A *990:63 0.000310417
18 *926:12 *4935:C 7.66083e-05
19 *926:12 *1007:50 0.000124895
20 *926:22 *4935:C 4.99619e-05
21 *926:22 *4939:B1 6.82941e-05
22 *926:22 *4968:B1 0.000227737
23 *926:22 *1007:50 0.000318091
24 *926:22 *1007:56 2.7881e-05
25 *926:47 *1286:DIODE 2.1163e-05
26 *926:47 *1290:DIODE 0
27 *926:47 *4935:B 2.16389e-05
28 *926:47 *986:152 0.000109371
29 *4738:B *4738:A 7.47215e-05
30 *4738:C *4936:A 4.82919e-05
31 *4938:A1 *926:47 0.000136877
32 *657:21 *4936:A 1.26548e-05
33 *657:21 *926:8 8.26602e-05
34 *657:21 *926:47 0.000134538
35 *663:8 *4936:A 4.82919e-05
36 *664:18 *4738:A 2.49909e-05
37 *698:37 *4738:A 0
38 *698:37 *926:22 0
39 *851:18 *4738:A 0
*RES
1 *5055:Q *926:8 5.49 
2 *926:8 *926:12 3.14 
3 *926:12 *926:22 9.05 
4 *926:22 *4939:A1 3.6 
5 *926:22 *4738:A 10.53 
6 *926:12 *4935:A 1.6 
7 *926:8 *926:47 4.44 
8 *926:47 *4743:A 3.6 
9 *926:47 *4936:A 8.43 
*END

*D_NET *927 0.0131812
*CONN
*I *4745:A I *D sky130_fd_sc_hd__nand2_2
*I *4744:A I *D sky130_fd_sc_hd__xnor2_2
*I *4751:A1 I *D sky130_fd_sc_hd__a21oi_2
*I *4737:A1 I *D sky130_fd_sc_hd__a211o_2
*I *4752:A I *D sky130_fd_sc_hd__and3_2
*I *4713:A1 I *D sky130_fd_sc_hd__o221a_2
*I *4748:A I *D sky130_fd_sc_hd__nor2_2
*I *5056:Q O *D sky130_fd_sc_hd__dfrtp_2
*CAP
1 *4745:A 0.000283385
2 *4744:A 0
3 *4751:A1 3.74867e-05
4 *4737:A1 0.000945141
5 *4752:A 0
6 *4713:A1 0.000834315
7 *4748:A 0.000160636
8 *5056:Q 0.000150077
9 *927:45 0.000878117
10 *927:43 0.00107342
11 *927:39 0.000499458
12 *927:25 0.000410061
13 *927:23 0.000700795
14 *927:10 0.000695554
15 *4713:A1 *1210:DIODE 3.62955e-05
16 *4713:A1 *4759:A 4.21973e-05
17 *4713:A1 *929:29 0
18 *4713:A1 *929:40 0.000328706
19 *4737:A1 *4795:B 0.000500239
20 *4745:A *964:27 0.000264257
21 *4745:A *987:57 0.000340209
22 *4745:A *1013:38 4.75576e-05
23 *4745:A *1122:12 3.69338e-05
24 *4745:A *1122:30 6.45236e-05
25 *4751:A1 *1205:DIODE 0.000119756
26 *927:10 *1208:DIODE 0.000119221
27 *927:10 *1003:12 4.83612e-05
28 *927:10 *1003:25 8.08153e-06
29 *927:10 *1013:42 0.000137571
30 *927:10 *1023:131 0.000135213
31 *927:23 *4746:A1 4.45565e-05
32 *927:23 *4746:A2 8.40213e-05
33 *927:23 *983:6 0.000107205
34 *927:25 *964:27 0.000118513
35 *927:25 *983:23 6.80757e-06
36 *927:25 *1122:30 9.37731e-05
37 *927:39 *1210:DIODE 4.10253e-05
38 *927:39 *964:16 0.00022448
39 *927:39 *964:27 0.000128353
40 *927:39 *983:23 0.000176002
41 *927:39 *983:35 1.07797e-05
42 *927:39 *985:48 0.000319168
43 *927:43 *985:48 8.20028e-05
44 *927:45 *1210:DIODE 6.60257e-06
45 *927:45 *985:48 2.10582e-05
46 *4699:A *4737:A1 1.47256e-05
47 *4714:C1 *4713:A1 4.82863e-05
48 *4721:A1 *4737:A1 4.99619e-05
49 *4737:A2 *4737:A1 0.000163204
50 *4737:B1 *4737:A1 5.4155e-06
51 *4739:A *4737:A1 8.49205e-05
52 *4739:C *4737:A1 0.000530842
53 *4740:C *4737:A1 3.4687e-05
54 *4744:B *927:39 0.000123828
55 *4744:B *927:43 4.6813e-05
56 *4747:A2 *4745:A 0.000115714
57 *4751:A2 *4751:A1 8.40213e-05
58 *4760:A *4713:A1 0.000169435
59 *5127:A *4745:A 0.00012083
60 *5167:A *4745:A 0.00015806
61 *375:54 *4748:A 5.85534e-05
62 *375:54 *927:23 0.000101266
63 *378:23 *927:39 0
64 *380:28 *4713:A1 9.93865e-05
65 *635:12 *4737:A1 0.0001947
66 *664:18 *4713:A1 7.81556e-05
67 *664:27 *4713:A1 4.55864e-06
68 *664:27 *927:43 5.85304e-05
69 *664:27 *927:45 2.84757e-05
70 *670:14 *927:10 0
71 *907:22 *4737:A1 0.000444949
*RES
1 *5056:Q *927:10 9.785 
2 *927:10 *4748:A 3.7 
3 *927:10 *927:23 6.935 
4 *927:23 *927:25 1.38 
5 *927:25 *927:39 9.17667 
6 *927:39 *927:43 2.34 
7 *927:43 *927:45 0.87 
8 *927:45 *4713:A1 16.695 
9 *927:45 *4752:A 3.6 
10 *927:43 *4737:A1 23.16 
11 *927:39 *4751:A1 4.74 
12 *927:25 *4744:A 3.6 
13 *927:23 *4745:A 11.715 
*END

*D_NET *928 0.00596478
*CONN
*I *4754:A I *D sky130_fd_sc_hd__nand2_2
*I *4757:A1 I *D sky130_fd_sc_hd__o21ai_2
*I *4752:B I *D sky130_fd_sc_hd__and3_2
*I *4751:B1 I *D sky130_fd_sc_hd__a21oi_2
*I *4711:B I *D sky130_fd_sc_hd__xnor2_2
*I *4715:B1 I *D sky130_fd_sc_hd__o211ai_2
*I *5057:Q O *D sky130_fd_sc_hd__dfrtp_2
*CAP
1 *4754:A 0
2 *4757:A1 0.000116661
3 *4752:B 0.000126617
4 *4751:B1 0
5 *4711:B 0
6 *4715:B1 5.56333e-05
7 *5057:Q 0.000163375
8 *928:58 0.000116661
9 *928:20 0.000858254
10 *928:14 0.00109594
11 *928:10 0.000330078
12 *4715:B1 *960:31 0.000163985
13 *4752:B *1205:DIODE 1.91597e-05
14 *4757:A1 *1201:DIODE 4.99619e-05
15 *4757:A1 *1203:DIODE 9.72523e-05
16 *4757:A1 *1208:DIODE 9.4087e-05
17 *4757:A1 *4757:A2 8.65961e-05
18 *4757:A1 *1126:28 0.000197264
19 *928:10 *4756:A1 4.66108e-05
20 *928:10 *5057:RESET_B 4.99619e-05
21 *928:10 *964:127 1.34503e-05
22 *928:10 *1119:74 0.000106648
23 *928:10 *1126:20 0
24 *928:14 *1119:74 0.000374246
25 *928:20 *1205:DIODE 0.000145127
26 *928:20 *1309:DIODE 0.000275553
27 *928:20 *4311:A 8.65961e-05
28 *928:20 *4761:A 0.000122337
29 *928:20 *960:31 0.000174219
30 *4715:C1 *4715:B1 4.70343e-05
31 *4715:C1 *928:20 1.80031e-05
32 *4744:B *4752:B 1.64436e-05
33 *4744:B *928:14 0
34 *4753:B *928:14 6.92253e-05
35 *4755:C1 *928:10 4.18603e-06
36 *4755:C1 *928:14 5.04256e-05
37 *4756:A2 *928:10 4.94326e-05
38 *4761:B *928:20 4.82863e-05
39 *4762:C1 *928:20 6.71882e-05
40 *4970:B *928:10 6.07575e-06
41 *4978:A *4715:B1 0
42 *228:108 *4715:B1 9.50342e-06
43 *229:53 *928:20 5.15287e-05
44 *635:12 *4752:B 2.75145e-05
45 *664:27 *4752:B 9.54399e-05
46 *672:8 *4752:B 0.00011852
47 *672:8 *928:14 1.52184e-05
48 *672:12 *4752:B 8.49205e-05
49 *672:12 *928:20 0.000219559
*RES
1 *5057:Q *928:10 6.465 
2 *928:10 *928:14 6.44 
3 *928:14 *928:20 17.705 
4 *928:20 *4715:B1 5.49 
5 *928:20 *4711:B 3.6 
6 *928:14 *4751:B1 1.6 
7 *928:14 *4752:B 8.57 
8 *928:10 *928:58 2 
9 *928:58 *4757:A1 5.515 
10 *928:58 *4754:A 1.6 
*END

*D_NET *929 0.00466089
*CONN
*I *4311:A I *D sky130_fd_sc_hd__inv_2
*I *4759:A I *D sky130_fd_sc_hd__and2_2
*I *4761:A I *D sky130_fd_sc_hd__or2_2
*I *4763:A1 I *D sky130_fd_sc_hd__a32o_2
*I *4713:B1 I *D sky130_fd_sc_hd__o221a_2
*I *4715:A2 I *D sky130_fd_sc_hd__o211ai_2
*I *5058:Q O *D sky130_fd_sc_hd__dfrtp_2
*CAP
1 *4311:A 3.63983e-05
2 *4759:A 3.38697e-05
3 *4761:A 0.000167704
4 *4763:A1 6.52939e-05
5 *4713:B1 0
6 *4715:A2 8.60825e-05
7 *5058:Q 0.000176934
8 *929:44 0.000310271
9 *929:40 0.000285124
10 *929:29 0.000240643
11 *929:14 0.000260467
12 *929:10 0.000321055
13 *4761:A *1205:DIODE 0.000122337
14 *4761:A *1005:31 0.000103272
15 *4761:A *1084:18 0
16 *929:10 *5058:CLK 3.21052e-05
17 *929:10 *5058:RESET_B 0.000118178
18 *929:44 *1005:31 3.57924e-05
19 *929:44 *1084:18 0
20 *4712:B1 *929:14 4.70982e-05
21 *4713:A1 *4759:A 4.21973e-05
22 *4713:A1 *929:29 0
23 *4713:A1 *929:40 0.000328706
24 *4713:A2 *929:40 3.95698e-05
25 *4713:B2 *929:29 3.3367e-05
26 *4713:B2 *929:40 2.56486e-05
27 *4713:C1 *4715:A2 4.3375e-05
28 *4713:C1 *929:29 3.00399e-05
29 *4713:C1 *929:40 0
30 *4714:C1 *929:14 2.68721e-05
31 *4714:C1 *929:29 2.82065e-05
32 *4714:C1 *929:40 8.09546e-05
33 *4715:A1 *4715:A2 4.66108e-05
34 *4715:C1 *4715:A2 1.16578e-05
35 *4760:A *4759:A 4.66108e-05
36 *4763:B1 *4761:A 4.88568e-05
37 *4763:B1 *929:44 7.23533e-05
38 *4763:B2 *4763:A1 8.23457e-05
39 *4764:A2 *4761:A 0
40 *4765:A1 *929:10 4.49498e-05
41 *4765:A1 *929:14 2.54606e-05
42 *4978:A *929:10 0.000110683
43 *4978:A *929:14 0.00033655
44 *227:64 *929:14 9.54469e-05
45 *380:28 *4759:A 6.26945e-05
46 *380:28 *929:40 0.000346179
47 *928:20 *4311:A 8.65961e-05
48 *928:20 *4761:A 0.000122337
*RES
1 *5058:Q *929:10 6.81 
2 *929:10 *929:14 5.93 
3 *929:14 *4715:A2 3.1 
4 *929:14 *929:29 1.53375 
5 *929:29 *4713:B1 1.6 
6 *929:29 *929:40 6.85125 
7 *929:40 *929:44 3.635 
8 *929:44 *4763:A1 4.395 
9 *929:44 *4761:A 7.65 
10 *929:40 *4759:A 2.74 
11 *929:10 *4311:A 4.395 
*END

*D_NET *930 0.00640213
*CONN
*I *4767:A I *D sky130_fd_sc_hd__xnor2_2
*I *4768:A I *D sky130_fd_sc_hd__nand2_2
*I *4774:A1 I *D sky130_fd_sc_hd__a21oi_2
*I *4773:B I *D sky130_fd_sc_hd__and3_2
*I *4714:A2 I *D sky130_fd_sc_hd__o211a_2
*I *4716:B1 I *D sky130_fd_sc_hd__o2bb2a_2
*I *4712:A2_N I *D sky130_fd_sc_hd__o2bb2a_2
*I *4771:A1 I *D sky130_fd_sc_hd__o21ai_2
*I *5059:Q O *D sky130_fd_sc_hd__dfrtp_2
*CAP
1 *4767:A 2.10144e-05
2 *4768:A 0
3 *4774:A1 0
4 *4773:B 9.73347e-05
5 *4714:A2 0.00014839
6 *4716:B1 5.10476e-05
7 *4712:A2_N 0.00021387
8 *4771:A1 0.000129001
9 *5059:Q 0.000143928
10 *930:73 0.000570834
11 *930:61 0.000567373
12 *930:55 0.000243888
13 *930:28 0.000249229
14 *930:17 0.000382387
15 *930:8 0.000262654
16 *4712:A2_N *4712:B2 1.17409e-05
17 *4714:A2 *964:139 2.24708e-05
18 *4773:B *4773:A 0.000133164
19 *4773:B *4785:B1 4.82863e-05
20 *930:8 *1005:33 8.26614e-05
21 *930:8 *1005:35 7.89689e-05
22 *930:17 *964:139 7.33465e-05
23 *930:17 *1005:31 3.76596e-05
24 *930:17 *1005:33 5.53249e-06
25 *930:28 *964:139 4.49498e-05
26 *930:55 *4770:A1 1.47256e-05
27 *930:55 *4771:B1 0.000123225
28 *930:61 *987:182 9.50342e-06
29 *930:61 *987:188 0.000159269
30 *930:61 *1119:44 0
31 *930:61 *1122:87 9.50342e-06
32 *930:73 *4769:A1 0
33 *930:73 *4773:A 8.7152e-06
34 *930:73 *4785:A1 0.000160635
35 *930:73 *931:46 0.000276514
36 *930:73 *985:65 0.000184718
37 *930:73 *1122:83 3.54109e-05
38 *1191:DIODE *4712:A2_N 1.16578e-05
39 *1192:DIODE *4716:B1 4.82863e-05
40 *4712:B1 *4714:A2 0.000187663
41 *4712:B1 *930:17 3.05295e-05
42 *4712:B1 *930:28 5.65627e-05
43 *4717:B *4716:B1 2.8185e-05
44 *4770:B1 *930:73 2.16833e-05
45 *4772:A2 *930:8 4.11194e-05
46 *4772:A2 *930:55 2.67184e-05
47 *4773:C *4773:B 6.20952e-05
48 *227:22 *930:8 0
49 *227:22 *930:17 0
50 *227:26 *4712:A2_N 0.000122331
51 *230:117 *4714:A2 0.000112123
52 *230:117 *4716:B1 2.75145e-05
53 *230:140 *4714:A2 0.000183698
54 *622:44 *4767:A 6.77501e-05
55 *622:44 *930:55 0.000427876
56 *626:14 *4767:A 0.0001249
57 *626:14 *930:55 5.74791e-05
58 *678:12 *4773:B 1.56477e-05
59 *678:12 *930:73 0.000146357
*RES
1 *5059:Q *930:8 7.02 
2 *930:8 *4771:A1 3.6 
3 *930:8 *930:17 2.91 
4 *930:17 *4712:A2_N 6.12 
5 *930:17 *930:28 1.38 
6 *930:28 *4716:B1 4.74 
7 *930:28 *4714:A2 7.785 
8 *4771:A1 *930:55 5.86 
9 *930:55 *930:61 5.89 
10 *930:61 *930:73 10.745 
11 *930:73 *4773:B 5.685 
12 *930:73 *4774:A1 3.6 
13 *930:61 *4768:A 1.6 
14 *930:55 *4767:A 2.74 
*END

*D_NET *931 0.00639895
*CONN
*I *4707:A I *D sky130_fd_sc_hd__nor2_2
*I *4706:B2 I *D sky130_fd_sc_hd__a22o_2
*I *4774:B1 I *D sky130_fd_sc_hd__a21oi_2
*I *4773:A I *D sky130_fd_sc_hd__and3_2
*I *4779:A1 I *D sky130_fd_sc_hd__o21ai_2
*I *4777:A I *D sky130_fd_sc_hd__nand2_2
*I *5060:Q O *D sky130_fd_sc_hd__dfrtp_2
*CAP
1 *4707:A 1.88809e-05
2 *4706:B2 6.37456e-05
3 *4774:B1 2.87229e-05
4 *4773:A 0.000125429
5 *4779:A1 0.000138074
6 *4777:A 9.71884e-06
7 *5060:Q 0.000337772
8 *931:46 0.000280115
9 *931:44 0.000322778
10 *931:40 0.000322465
11 *931:21 0.000538509
12 *931:10 0.000577411
13 *4706:B2 *985:63 0.000172845
14 *4706:B2 *1126:51 5.23362e-05
15 *4773:A *987:203 8.65905e-05
16 *4773:A *1126:51 0.000152595
17 *4774:B1 *932:30 0.000122331
18 *4774:B1 *983:60 2.63406e-05
19 *4777:A *1122:254 4.82919e-05
20 *4779:A1 *992:151 0.000235332
21 *931:10 *1354:DIODE 0
22 *931:10 *5060:RESET_B 0
23 *931:21 *4776:A1 0
24 *931:21 *4778:A1 1.88602e-05
25 *931:21 *4778:C1 8.27743e-05
26 *931:40 *4776:A1 0
27 *931:40 *985:95 2.05056e-05
28 *931:40 *985:116 0.000117116
29 *931:44 *985:95 0.000439363
30 *931:44 *1126:51 2.49909e-05
31 *931:46 *985:63 9.50342e-06
32 *931:46 *1126:51 0.000325441
33 *4773:B *4773:A 0.000133164
34 *4773:C *4773:A 8.38112e-05
35 *4778:A2 *931:21 6.74281e-05
36 *4780:A2 *931:21 0.00011504
37 *4780:B1 *4779:A1 3.54536e-05
38 *4785:C1 *4774:B1 8.23457e-05
39 *626:22 *4706:B2 5.92269e-05
40 *626:22 *931:44 0.000583656
41 *626:31 *4707:A 5.4155e-06
42 *626:31 *931:40 0.000142661
43 *626:31 *931:44 4.60584e-05
44 *678:12 *931:46 1.23331e-05
45 *698:31 *4777:A 4.82919e-05
46 *930:73 *4773:A 8.7152e-06
47 *930:73 *931:46 0.000276514
*RES
1 *5060:Q *931:10 8.16 
2 *931:10 *4777:A 4.05 
3 *931:10 *931:21 4.44 
4 *931:21 *4779:A1 6.93 
5 *931:21 *931:40 6.065 
6 *931:40 *931:44 8.66 
7 *931:44 *931:46 3.93 
8 *931:46 *4773:A 7.29375 
9 *931:46 *4774:B1 4.74 
10 *931:44 *4706:B2 5.745 
11 *931:40 *4707:A 1.96 
*END

*D_NET *932 0.00479311
*CONN
*I *4782:A I *D sky130_fd_sc_hd__and2_2
*I *4702:B2 I *D sky130_fd_sc_hd__o22ai_2
*I *4706:A1 I *D sky130_fd_sc_hd__a22o_2
*I *4781:A I *D sky130_fd_sc_hd__nor2_2
*I *4784:A I *D sky130_fd_sc_hd__nand2_2
*I *4787:A1 I *D sky130_fd_sc_hd__o21ai_2
*I *5061:Q O *D sky130_fd_sc_hd__dfrtp_2
*CAP
1 *4782:A 0
2 *4702:B2 0.000125957
3 *4706:A1 5.92781e-05
4 *4781:A 0.000177152
5 *4784:A 0
6 *4787:A1 5.73407e-05
7 *5061:Q 0
8 *932:49 0.000564025
9 *932:32 0.000555942
10 *932:30 0.00047206
11 *932:19 0.000626814
12 *932:4 0.000212095
13 *4781:A *1084:10 3.09164e-05
14 *4781:A *1126:51 0
15 *4787:A1 *1005:39 0.000161637
16 *4787:A1 *1084:18 6.35622e-05
17 *932:19 *1312:DIODE 4.60584e-05
18 *932:19 *5061:CLK 7.00889e-06
19 *932:19 *5061:RESET_B 0.000204034
20 *932:30 *4784:B 8.49205e-05
21 *932:30 *4785:A1 1.12643e-05
22 *932:30 *4785:A2 1.34594e-05
23 *932:30 *4785:B1 4.60584e-05
24 *932:30 *5061:RESET_B 5.45262e-05
25 *932:30 *983:60 4.35348e-05
26 *932:49 *1126:51 0
27 *4702:B1 *4702:B2 0.0001249
28 *4702:B1 *4706:A1 7.2851e-05
29 *4773:C *4781:A 0
30 *4774:B1 *932:30 0.000122331
31 *4775:A *932:49 0.00012441
32 *4775:B *932:49 3.23981e-05
33 *4781:B *4781:A 0.000116158
34 *4785:C1 *4781:A 3.90349e-05
35 *4785:C1 *932:30 0.000193581
36 *380:32 *4702:B2 1.37328e-05
37 *622:44 *4706:A1 5.20437e-05
38 *626:22 *932:49 0
39 *627:10 *4702:B2 3.99879e-05
40 *690:19 *4781:A 0.000235323
41 *690:19 *932:49 8.7152e-06
*RES
1 *5061:Q *932:4 1.6 
2 *932:4 *4787:A1 7.49 
3 *932:4 *932:19 3.57 
4 *932:19 *4784:A 1.6 
5 *932:19 *932:30 8.07 
6 *932:30 *932:32 2 
7 *932:32 *4781:A 7.785 
8 *932:32 *932:49 8.27 
9 *932:49 *4706:A1 2.74 
10 *932:49 *4702:B2 4.135 
11 *932:30 *4782:A 1.6 
*END

*D_NET *933 0.00195127
*CONN
*I *4969:B1 I *D sky130_fd_sc_hd__a2111o_2
*I *5052:D I *D sky130_fd_sc_hd__dfrtp_2
*I *4922:Y O *D sky130_fd_sc_hd__a21oi_2
*CAP
1 *4969:B1 0.000360117
2 *5052:D 0.000244678
3 *4922:Y 5.89478e-05
4 *933:10 0.000663743
5 *4969:B1 *1298:DIODE 0.000212746
6 *4969:B1 *935:33 2.38557e-05
7 *4969:B1 *987:92 0
8 *5052:D *1298:DIODE 1.88602e-05
9 *5052:D *5052:CLK 8.8266e-05
10 *5052:D *5052:RESET_B 0.000111285
11 *5052:D *963:11 5.87536e-05
12 *5052:D *963:13 1.22676e-05
13 *5052:D *1119:141 0
14 *933:10 *963:11 6.41825e-07
15 *933:10 *1012:30 0
16 *933:10 *1124:56 2.99555e-05
17 *933:10 *1124:65 4.82919e-05
18 *4970:C *4969:B1 1.88602e-05
*RES
1 *4922:Y *933:10 4.5375 
2 *933:10 *5052:D 8.3925 
3 *933:10 *4969:B1 5.68623 
*END

*D_NET *934 0.00610809
*CONN
*I *4980:B I *D sky130_fd_sc_hd__nand2_2
*I *4982:B1 I *D sky130_fd_sc_hd__o22a_2
*I *5062:D I *D sky130_fd_sc_hd__dfrtp_2
*I *4794:Y O *D sky130_fd_sc_hd__a21oi_2
*CAP
1 *4980:B 0.000889021
2 *4982:B1 7.14007e-05
3 *5062:D 0.000335148
4 *4794:Y 0
5 *934:23 0.00111002
6 *934:6 0.000484742
7 *4980:B *1203:DIODE 0.000240616
8 *4980:B *4968:A2 4.99619e-05
9 *4980:B *4968:B1 5.4155e-06
10 *4980:B *4982:A2 3.60648e-06
11 *4980:B *5143:A 0
12 *4980:B *987:88 0
13 *4980:B *992:107 1.79483e-05
14 *4980:B *992:139 4.37919e-05
15 *4982:B1 *4968:A2 0.000164874
16 *5062:D *1311:DIODE 1.52184e-05
17 *5062:D *5060:D 0
18 *5062:D *5062:CLK 4.82863e-05
19 *5062:D *965:55 7.40446e-05
20 *5062:D *1023:16 2.39045e-05
21 *5062:D *1023:29 4.80085e-05
22 *934:23 *992:139 0.000384378
23 *934:23 *1023:29 3.76596e-05
24 *4739:B *4980:B 0
25 *4740:C *4980:B 0
26 *4794:A2 *5062:D 3.86607e-05
27 *4794:A2 *934:23 7.12228e-06
28 *4968:A1 *4982:B1 2.49909e-05
29 *4969:A1 *4980:B 0.000342433
30 *4980:A *4980:B 0.000592493
31 *4985:D1 *4980:B 8.49205e-05
32 *4985:D1 *934:23 1.19928e-05
33 *698:37 *5062:D 7.10121e-05
34 *906:10 *5062:D 0
35 *906:35 *934:23 0.000339886
36 *906:43 *4980:B 9.37731e-05
37 *906:63 *4980:B 0.000229897
38 *907:10 *4980:B 6.71803e-06
39 *907:14 *4980:B 0.00018863
40 *908:31 *4980:B 2.75145e-05
*RES
1 *4794:Y *934:6 3.6 
2 *934:6 *5062:D 9.945 
3 *934:6 *934:23 7.145 
4 *934:23 *4982:B1 3.43 
5 *934:23 *4980:B 26.48 
*END

*D_NET *935 0.00381133
*CONN
*I *5063:D I *D sky130_fd_sc_hd__dfrtp_2
*I *4950:B I *D sky130_fd_sc_hd__nor2_2
*I *4969:A2 I *D sky130_fd_sc_hd__a2111o_2
*I *4801:X O *D sky130_fd_sc_hd__o211a_2
*CAP
1 *5063:D 9.02144e-06
2 *4950:B 0.000208885
3 *4969:A2 5.06619e-05
4 *4801:X 0.000128849
5 *935:33 0.00114111
6 *935:10 0.00110272
7 *4950:B *1205:DIODE 4.82919e-05
8 *4950:B *1210:DIODE 0
9 *4969:A2 *4969:C1 0.000118081
10 *4969:A2 *1023:50 0.000119762
11 *935:10 *1023:29 5.28714e-05
12 *935:33 *1298:DIODE 0.000357663
13 *4697:A *4950:B 1.16578e-05
14 *4721:A1 *4950:B 0
15 *4950:A *4950:B 2.97004e-06
16 *4965:A *4950:B 0.000155694
17 *4965:A *5063:D 6.71803e-06
18 *4969:B1 *935:33 2.38557e-05
19 *4970:A *935:33 0
20 *4970:C *935:10 0.000154304
21 *4970:C *935:33 1.7635e-05
22 *4985:D1 *4969:A2 5.02905e-05
23 *851:18 *4969:A2 5.02905e-05
*RES
1 *4801:X *935:10 5.94 
2 *935:10 *4969:A2 9.355 
3 *935:10 *935:33 3.13503 
4 *935:33 *4950:B 7.8525 
5 *935:33 *5063:D 3.8325 
*END

*D_NET *936 0.00384155
*CONN
*I *4953:B I *D sky130_fd_sc_hd__xor2_2
*I *5064:D I *D sky130_fd_sc_hd__dfrtp_2
*I *4809:Y O *D sky130_fd_sc_hd__a21oi_2
*CAP
1 *4953:B 0.00115571
2 *5064:D 3.65362e-05
3 *4809:Y 0
4 *936:6 0.00119224
5 *4953:B *1226:DIODE 2.75229e-05
6 *4953:B *965:161 0.000224415
7 *4953:B *1007:10 9.9535e-05
8 *4953:B *1007:12 3.05295e-05
9 *4953:B *1024:50 0.00032961
10 *5064:D *965:161 7.23602e-05
11 *5064:D *1007:12 5.39718e-05
12 *4804:B *4953:B 2.75145e-05
13 *4806:C1 *4953:B 8.65905e-05
14 *4807:A2 *5064:D 0
15 *4981:B1 *4953:B 2.75229e-05
16 *908:31 *4953:B 0.000477487
*RES
1 *4809:Y *936:6 3.6 
2 *936:6 *5064:D 4.725 
3 *936:6 *4953:B 25.4225 
*END

*D_NET *937 0.0129475
*CONN
*I *5065:D I *D sky130_fd_sc_hd__dfrtp_2
*I *4976:A2_N I *D sky130_fd_sc_hd__o2bb2a_2
*I *4951:B1 I *D sky130_fd_sc_hd__o22a_2
*I *4817:Y O *D sky130_fd_sc_hd__a21oi_2
*CAP
1 *5065:D 0.000153964
2 *4976:A2_N 0.000234163
3 *4951:B1 3.26229e-05
4 *4817:Y 0
5 *937:14 0.00440499
6 *937:4 0.00429217
7 *4951:B1 *990:189 0.000108647
8 *4976:A2_N *990:189 0.000361646
9 *5065:D *5065:RESET_B 2.86623e-05
10 *5065:D *992:30 0
11 *5065:D *1006:8 8.23457e-05
12 *5065:D *1007:8 0.000137578
13 *937:14 *1319:DIODE 9.58678e-06
14 *937:14 *1007:8 1.7635e-05
15 *937:14 *1120:23 0
16 *4816:A1 *5065:D 2.66935e-05
17 *4976:A1_N *4951:B1 5.8129e-05
18 *4976:A1_N *4976:A2_N 0.000290494
19 *374:27 *937:14 0.00254856
20 *909:16 *5065:D 2.49909e-05
21 *910:33 *937:14 0.000134633
*RES
1 *4817:Y *937:4 1.6 
2 *937:4 *937:14 11.4278 
3 *937:14 *4951:B1 4.8525 
4 *937:14 *4976:A2_N 9.3975 
5 *937:4 *5065:D 8.48 
*END

*D_NET *938 0.000778611
*CONN
*I *5066:D I *D sky130_fd_sc_hd__dfrtp_2
*I *4981:A2 I *D sky130_fd_sc_hd__o2111ai_2
*I *4823:X O *D sky130_fd_sc_hd__and2_2
*CAP
1 *5066:D 4.67568e-05
2 *4981:A2 5.10451e-05
3 *4823:X 4.12287e-05
4 *938:10 0.000139031
5 *5066:D *5066:CLK 5.0751e-05
6 *938:10 *992:86 0.000138821
7 *4981:A1 *4981:A2 3.70488e-05
8 *851:18 *938:10 0.000136467
9 *909:30 *4981:A2 4.92062e-05
10 *909:30 *5066:D 8.82557e-05
*RES
1 *4823:X *938:10 7.235 
2 *938:10 *4981:A2 2.755 
3 *938:10 *5066:D 3.085 
*END

*D_NET *939 0.00277827
*CONN
*I *5067:D I *D sky130_fd_sc_hd__dfrtp_2
*I *4972:B I *D sky130_fd_sc_hd__xnor2_2
*I *4831:Y O *D sky130_fd_sc_hd__a21oi_2
*CAP
1 *5067:D 0
2 *4972:B 0.000866823
3 *4831:Y 8.62228e-05
4 *939:12 0.000953046
5 *4972:B *4828:A1 1.12643e-05
6 *4972:B *4828:B1 4.82919e-05
7 *4972:B *4829:A1 4.82919e-05
8 *4972:B *4829:C1 8.40269e-05
9 *4972:B *5067:CLK 3.00381e-05
10 *4972:B *987:159 9.89786e-05
11 *4972:B *1127:66 0.000110612
12 *939:12 *5067:RESET_B 5.21046e-05
13 *4825:C *4972:B 0.000130445
14 *4825:D *4972:B 4.82863e-05
15 *4826:B *4972:B 6.07575e-06
16 *4829:B1 *4972:B 2.30292e-05
17 *4831:A2 *939:12 0
18 *911:49 *4972:B 5.14357e-05
19 *911:67 *4972:B 0.000129299
*RES
1 *4831:Y *939:12 7.175 
2 *939:12 *4972:B 15.52 
3 *939:12 *5067:D 1.6 
*END

*D_NET *940 0.000313222
*CONN
*I *5068:D I *D sky130_fd_sc_hd__dfrtp_2
*I *4838:Y O *D sky130_fd_sc_hd__inv_2
*CAP
1 *5068:D 6.19312e-05
2 *4838:Y 6.19312e-05
3 *5068:D *966:96 7.35813e-05
4 *746:26 *5068:D 0.000115779
*RES
1 *4838:Y *5068:D 5.03 
*END

*D_NET *941 0.00277401
*CONN
*I *5069:D I *D sky130_fd_sc_hd__dfrtp_2
*I *4960:B I *D sky130_fd_sc_hd__xnor2_2
*I *4846:Y O *D sky130_fd_sc_hd__a21oi_2
*CAP
1 *5069:D 0.000133285
2 *4960:B 0.00088364
3 *4846:Y 0
4 *941:4 0.00101692
5 *4960:B *4843:A1 5.25641e-05
6 *4960:B *4843:A2 2.62405e-05
7 *5069:D *4831:A1 0
8 *5069:D *5069:CLK 3.39064e-05
9 *4839:A2 *4960:B 8.88715e-05
10 *4843:C1 *4960:B 8.40269e-05
11 *4844:B1 *4960:B 8.57024e-05
12 *4846:A2 *4960:B 5.30673e-05
13 *4973:C *4960:B 0.000162311
14 *913:46 *4960:B 0.000153469
*RES
1 *4846:Y *941:4 1.6 
2 *941:4 *4960:B 14.605 
3 *941:4 *5069:D 7.52 
*END

*D_NET *942 0.0021704
*CONN
*I *4964:A2 I *D sky130_fd_sc_hd__a221o_2
*I *5070:D I *D sky130_fd_sc_hd__dfrtp_2
*I *4976:B1 I *D sky130_fd_sc_hd__o2bb2a_2
*I *4854:Y O *D sky130_fd_sc_hd__a21oi_2
*CAP
1 *4964:A2 0.000120239
2 *5070:D 0.000127885
3 *4976:B1 0
4 *4854:Y 0.000366192
5 *942:12 0.00025356
6 *942:8 0.000612105
7 *4964:A2 *1357:DIODE 0
8 *4964:A2 *990:189 5.7344e-05
9 *942:8 *1009:10 8.40269e-05
10 *942:12 *1357:DIODE 0
11 *942:12 *990:189 0.000125256
12 *4965:C *4964:A2 0.000120655
13 *4976:A1_N *5070:D 4.82863e-05
14 *5302:A *4964:A2 2.21886e-05
15 *373:31 *942:8 0.000132856
16 *430:8 *4964:A2 9.98057e-05
*RES
1 *4854:Y *942:8 8.19 
2 *942:8 *942:12 4.655 
3 *942:12 *4976:B1 1.6 
4 *942:12 *5070:D 3.43 
5 *942:8 *4964:A2 6.6375 
*END

*D_NET *943 0.000172365
*CONN
*I *5071:D I *D sky130_fd_sc_hd__dfrtp_2
*I *4861:Y O *D sky130_fd_sc_hd__nor2_2
*CAP
1 *5071:D 3.22108e-05
2 *4861:Y 3.22108e-05
3 *4741:D *5071:D 5.39718e-05
4 *5127:A *5071:D 5.39718e-05
*RES
1 *4861:Y *5071:D 8.325 
*END

*D_NET *944 0.00599856
*CONN
*I *4969:C1 I *D sky130_fd_sc_hd__a2111o_2
*I *5053:D I *D sky130_fd_sc_hd__dfrtp_2
*I *4928:X O *D sky130_fd_sc_hd__o211a_2
*CAP
1 *4969:C1 0.00122054
2 *5053:D 0.000264215
3 *4928:X 0.00148475
4 *4969:C1 *4919:A2 0.000232999
5 *4969:C1 *4919:B1 1.33293e-05
6 *4969:C1 *4928:A1 8.8266e-05
7 *4969:C1 *965:114 0.000296782
8 *4969:C1 *990:113 8.57024e-05
9 *4969:C1 *1012:42 0.00020156
10 *4969:C1 *1023:50 0.000108195
11 *4969:C1 *1118:62 0.000116158
12 *4969:C1 *1118:79 0.000148145
13 *4969:C1 *1119:141 6.07575e-06
14 *4969:C1 *1124:65 2.8185e-05
15 *5053:D *1288:DIODE 0
16 *5053:D *4928:A1 6.64922e-05
17 *5053:D *1007:12 3.95269e-05
18 *5053:D *1007:18 2.50049e-05
19 *4920:B1 *4969:C1 4.7101e-05
20 *4922:A2 *4969:C1 0.000275548
21 *4927:A *5053:D 9.37731e-05
22 *4928:A2 *5053:D 9.37731e-05
23 *4928:B1 *5053:D 0.000101271
24 *4969:A1 *4969:C1 4.66742e-05
25 *4969:A2 *4969:C1 0.000118081
26 *908:8 *4969:C1 0.000148977
27 *908:12 *4969:C1 0.000647435
*RES
1 *4928:X *5053:D 12.45 
2 *4928:X *4969:C1 32.34 
*END

*D_NET *945 0.00413477
*CONN
*I *5072:D I *D sky130_fd_sc_hd__dfrtp_2
*I *4963:B1 I *D sky130_fd_sc_hd__a2bb2o_2
*I *4977:B1 I *D sky130_fd_sc_hd__o22a_2
*I *4869:Y O *D sky130_fd_sc_hd__a21oi_2
*CAP
1 *5072:D 8.55164e-05
2 *4963:B1 2.11917e-05
3 *4977:B1 0.000297595
4 *4869:Y 0.000666741
5 *945:16 0.000390686
6 *945:14 0.000824158
7 *4977:B1 *4966:B1 0.000492912
8 *4977:B1 *4977:A2 2.36716e-05
9 *4977:B1 *947:28 2.14129e-05
10 *5072:D *947:28 0.000185411
11 *945:14 *1296:DIODE 0.000158066
12 *945:14 *4971:B2 0.000271526
13 *945:16 *947:28 0.00013521
14 *4460:A *4977:B1 0.000114614
15 *4963:B2 *4963:B1 3.00381e-05
16 *4971:A3 *945:14 1.47347e-05
17 *4977:B2 *4977:B1 0
18 *4978:D *4977:B1 4.99619e-05
19 *4986:B *4977:B1 0
20 *5302:A *4963:B1 5.05437e-05
21 *370:31 *945:14 0.000287332
22 *430:8 *4963:B1 1.34503e-05
23 *595:14 *4977:B1 0
24 *595:14 *5072:D 0
25 *595:14 *945:16 0
*RES
1 *4869:Y *945:14 13.5 
2 *945:14 *945:16 1.635 
3 *945:16 *4977:B1 11.07 
4 *945:16 *4963:B1 4.395 
5 *945:14 *5072:D 5.745 
*END

*D_NET *946 0.000501812
*CONN
*I *5073:D I *D sky130_fd_sc_hd__dfrtp_2
*I *4878:Y O *D sky130_fd_sc_hd__inv_2
*CAP
1 *5073:D 0.00016131
2 *4878:Y 0.00016131
3 *5073:D *947:28 9.40887e-05
4 *5073:D *966:37 3.69113e-05
5 *429:8 *5073:D 4.81931e-05
*RES
1 *4878:Y *5073:D 9.81 
*END

*D_NET *947 0.00676485
*CONN
*I *4963:A2_N I *D sky130_fd_sc_hd__a2bb2o_2
*I *4966:B1 I *D sky130_fd_sc_hd__a22oi_2
*I *5074:D I *D sky130_fd_sc_hd__dfrtp_2
*I *4884:Y O *D sky130_fd_sc_hd__a21oi_2
*CAP
1 *4963:A2_N 2.00679e-05
2 *4966:B1 0.000413631
3 *5074:D 0.000974956
4 *4884:Y 0.000234916
5 *947:28 0.00117374
6 *5074:D *966:31 1.70935e-05
7 *947:28 *5074:CLK 5.34747e-05
8 *947:28 *966:37 0
9 *4460:A *4966:B1 0
10 *4678:C *947:28 0.000337531
11 *4884:B1 *5074:D 1.83756e-05
12 *4963:A1_N *4963:A2_N 1.08758e-05
13 *4966:B2 *4966:B1 0.000888963
14 *4966:B2 *947:28 5.4003e-05
15 *4977:B1 *4966:B1 0.000492912
16 *4977:B1 *947:28 2.14129e-05
17 *5072:D *947:28 0.000185411
18 *5073:D *947:28 9.40887e-05
19 *5302:A *4963:A2_N 1.19928e-05
20 *375:16 *4966:B1 6.6564e-05
21 *430:8 *4963:A2_N 2.49909e-05
22 *582:14 *947:28 0
23 *585:12 *5074:D 0
24 *585:12 *947:28 0.00153464
25 *595:12 *947:28 0
26 *595:14 *947:28 0
27 *945:16 *947:28 0.00013521
*RES
1 *4884:Y *5074:D 10.155 
2 *5074:D *947:28 23.895 
3 *947:28 *4966:B1 15.24 
4 *947:28 *4963:A2_N 4.05 
*END

*D_NET *948 0.000991362
*CONN
*I *5075:D I *D sky130_fd_sc_hd__dfrtp_2
*I *4955:B I *D sky130_fd_sc_hd__xor2_2
*I *4892:Y O *D sky130_fd_sc_hd__a21oi_2
*CAP
1 *5075:D 8.83593e-05
2 *4955:B 9.78394e-05
3 *4892:Y 0.000228621
4 *948:10 0.00041482
5 *5075:D *1009:79 0
6 *948:10 *1009:79 0
7 *4892:B1 *948:10 6.28843e-05
8 *4955:A *948:10 0
9 *920:43 *4955:B 9.88385e-05
*RES
1 *4892:Y *948:10 6.885 
2 *948:10 *4955:B 3.7925 
3 *948:10 *5075:D 4.98 
*END

*D_NET *949 0.00071065
*CONN
*I *5076:D I *D sky130_fd_sc_hd__dfrtp_2
*I *4954:B I *D sky130_fd_sc_hd__xnor2_2
*I *4899:Y O *D sky130_fd_sc_hd__a21oi_2
*CAP
1 *5076:D 5.48076e-05
2 *4954:B 2.50456e-05
3 *4899:Y 0.000217434
4 *949:8 0.000297287
5 *4954:B *966:191 2.45182e-05
6 *5076:D *966:191 3.47668e-05
7 *949:8 *4899:A1 7.00889e-06
8 *232:39 *4954:B 0
9 *232:39 *5076:D 0
10 *567:12 *949:8 4.97815e-05
*RES
1 *4899:Y *949:8 6.12 
2 *949:8 *4954:B 4.215 
3 *949:8 *5076:D 4.725 
*END

*D_NET *950 0.000351685
*CONN
*I *5077:D I *D sky130_fd_sc_hd__dfrtp_2
*I *4905:X O *D sky130_fd_sc_hd__and2_2
*CAP
1 *5077:D 8.1627e-05
2 *4905:X 8.1627e-05
3 *5077:D *966:84 2.81913e-05
4 *4902:A1 *5077:D 4.40812e-05
5 *4903:A2 *5077:D 0.000116158
*RES
1 *4905:X *5077:D 9.03 
*END

*D_NET *951 0.00124739
*CONN
*I *4958:B I *D sky130_fd_sc_hd__xnor2_2
*I *5078:D I *D sky130_fd_sc_hd__dfrtp_2
*I *4913:Y O *D sky130_fd_sc_hd__a21oi_2
*CAP
1 *4958:B 0.000166309
2 *5078:D 0
3 *4913:Y 0.000208084
4 *951:10 0.000374393
5 *4912:A1 *951:10 2.0514e-05
6 *4913:B1 *951:10 0.000203178
7 *231:23 *4958:B 0
8 *231:23 *951:10 0
9 *847:12 *4958:B 0.000169064
10 *847:12 *951:10 0.000105849
11 *923:10 *951:10 0
*RES
1 *4913:Y *951:10 7.92 
2 *951:10 *5078:D 3.6 
3 *951:10 *4958:B 7.065 
*END

*D_NET *952 0.00087672
*CONN
*I *5079:D I *D sky130_fd_sc_hd__dfrtp_2
*I *4952:B I *D sky130_fd_sc_hd__xor2_2
*I *4918:X O *D sky130_fd_sc_hd__o211a_2
*CAP
1 *5079:D 0.000150308
2 *4952:B 0
3 *4918:X 0.000118813
4 *952:8 0.000269121
5 *5079:D *5079:CLK 5.83121e-06
6 *5079:D *5079:RESET_B 0
7 *5079:D *966:222 9.02174e-05
8 *952:8 *5079:RESET_B 0
9 *952:8 *1029:27 0
10 *4952:A *5079:D 0.000170191
11 *4952:A *952:8 9.50342e-06
12 *566:10 *5079:D 6.27347e-05
*RES
1 *4918:X *952:8 5.235 
2 *952:8 *4952:B 2 
3 *952:8 *5079:D 7.23 
*END

*D_NET *953 0.00401731
*CONN
*I *5054:D I *D sky130_fd_sc_hd__dfrtp_2
*I *4968:B1 I *D sky130_fd_sc_hd__a2111o_2
*I *4934:X O *D sky130_fd_sc_hd__o211a_2
*CAP
1 *5054:D 8.15005e-05
2 *4968:B1 0.000706914
3 *4934:X 9.74544e-05
4 *953:12 0.000885869
5 *4968:B1 *1290:DIODE 0.000164874
6 *4968:B1 *4935:B 5.30673e-05
7 *4968:B1 *4939:B1 8.40213e-05
8 *4968:B1 *4968:C1 0.000312787
9 *4968:B1 *1007:50 0.000928395
10 *5054:D *1007:50 8.30403e-05
11 *953:12 *4934:A1 4.82863e-05
12 *953:12 *965:36 4.66108e-05
13 *953:12 *985:133 5.7177e-05
14 *953:12 *1126:120 0.000153193
15 *4980:B *4968:B1 5.4155e-06
16 *4985:D1 *4968:B1 8.73389e-06
17 *925:10 *4968:B1 7.22354e-05
18 *926:22 *4968:B1 0.000227737
*RES
1 *4934:X *953:12 7.94 
2 *953:12 *4968:B1 19 
3 *953:12 *5054:D 3.085 
*END

*D_NET *954 0.0018231
*CONN
*I *4968:C1 I *D sky130_fd_sc_hd__a2111o_2
*I *5055:D I *D sky130_fd_sc_hd__dfrtp_2
*I *4940:X O *D sky130_fd_sc_hd__o21ba_2
*CAP
1 *4968:C1 0.000165253
2 *5055:D 9.54419e-05
3 *4940:X 0.000191883
4 *954:12 0.000452578
5 *4968:C1 *1007:50 8.49205e-05
6 *5055:D *965:53 1.70935e-05
7 *5055:D *1007:50 1.70935e-05
8 *5055:D *1007:56 7.28749e-05
9 *5055:D *1118:23 4.62396e-05
10 *954:12 *1007:50 1.07797e-05
11 *954:12 *1118:23 1.53032e-05
12 *954:12 *1119:118 0
13 *4738:A *954:12 0
14 *4940:B1_N *954:12 0.000120186
15 *4968:B1 *4968:C1 0.000312787
16 *4985:D1 *4968:C1 1.91597e-05
17 *851:18 *4968:C1 0.000201508
*RES
1 *4940:X *954:12 7.155 
2 *954:12 *5055:D 5.49 
3 *954:12 *4968:C1 8.535 
*END

*D_NET *955 0.000815917
*CONN
*I *5056:D I *D sky130_fd_sc_hd__dfrtp_2
*I *4951:A2 I *D sky130_fd_sc_hd__o22a_2
*I *4750:Y O *D sky130_fd_sc_hd__inv_2
*CAP
1 *5056:D 7.54774e-05
2 *4951:A2 6.71831e-05
3 *4750:Y 2.4637e-05
4 *955:6 0.000167297
5 *4951:A2 *964:186 0.000156238
6 *4951:A2 *990:189 0
7 *4976:A1_N *4951:A2 0.000133853
8 *670:14 *5056:D 0.000144621
9 *670:14 *955:6 4.66108e-05
*RES
1 *4750:Y *955:6 2.05 
2 *955:6 *4951:A2 7.49 
3 *955:6 *5056:D 3.085 
*END

*D_NET *956 0.00299219
*CONN
*I *5057:D I *D sky130_fd_sc_hd__dfrtp_2
*I *4975:B1 I *D sky130_fd_sc_hd__o2bb2a_2
*I *4966:A2 I *D sky130_fd_sc_hd__a22oi_2
*I *4758:Y O *D sky130_fd_sc_hd__a21oi_2
*CAP
1 *5057:D 0.000165487
2 *4975:B1 8.9191e-05
3 *4966:A2 0
4 *4758:Y 0.000106465
5 *956:12 0.000543575
6 *956:6 0.000726337
7 *4975:B1 *990:189 0
8 *5057:D *1357:DIODE 0.000109355
9 *5057:D *1005:10 0
10 *5057:D *1005:31 0
11 *1294:DIODE *4975:B1 0.000120186
12 *1294:DIODE *956:12 4.38051e-05
13 *4758:A2 *956:6 8.8266e-05
14 *4758:B1 *5057:D 0
15 *4971:B1 *4975:B1 2.0851e-06
16 *4978:A *4975:B1 0.000152227
17 *4978:A *956:12 0.000320834
18 *230:59 *956:12 0.000323649
19 *376:16 *956:6 2.59926e-05
20 *376:16 *956:12 0.000174731
*RES
1 *4758:Y *956:6 3.085 
2 *956:6 *956:12 10.265 
3 *956:12 *4966:A2 3.6 
4 *956:12 *4975:B1 5.94 
5 *956:6 *5057:D 8.765 
*END

*D_NET *957 0.000288852
*CONN
*I *5058:D I *D sky130_fd_sc_hd__dfrtp_2
*I *4766:Y O *D sky130_fd_sc_hd__nor2_2
*CAP
1 *5058:D 9.18923e-05
2 *4766:Y 9.18923e-05
3 *1:6 *5058:D 0
4 *228:78 *5058:D 0.000105068
*RES
1 *4766:Y *5058:D 9.345 
*END

*D_NET *958 0.00190255
*CONN
*I *4974:B I *D sky130_fd_sc_hd__xnor2_2
*I *5059:D I *D sky130_fd_sc_hd__dfrtp_2
*I *4772:Y O *D sky130_fd_sc_hd__a21oi_2
*CAP
1 *4974:B 5.71065e-05
2 *5059:D 0.000236809
3 *4772:Y 0.000255772
4 *958:8 0.000549688
5 *4974:B *960:31 0.000110683
6 *5059:D *5059:CLK 0.000121548
7 *5059:D *960:31 0.000183043
8 *227:22 *4974:B 0
9 *626:14 *958:8 0.000387896
*RES
1 *4772:Y *958:8 7.155 
2 *958:8 *5059:D 7.62375 
3 *958:8 *4974:B 4.98 
*END

*D_NET *959 0.00328934
*CONN
*I *4968:A2 I *D sky130_fd_sc_hd__a2111o_2
*I *4982:A2 I *D sky130_fd_sc_hd__o22a_2
*I *5060:D I *D sky130_fd_sc_hd__dfrtp_2
*I *4780:Y O *D sky130_fd_sc_hd__a21oi_2
*CAP
1 *4968:A2 6.05945e-05
2 *4982:A2 0.000428108
3 *5060:D 0.000540597
4 *4780:Y 0.000175515
5 *959:8 0.00108363
6 *4982:A2 *4779:A2 6.16226e-06
7 *4982:A2 *992:139 0
8 *5060:D *1311:DIODE 0
9 *5060:D *5060:RESET_B 0
10 *5060:D *1022:21 0
11 *5060:D *1023:16 0
12 *959:8 *992:151 0.000278111
13 *4794:A2 *4982:A2 0
14 *4794:A2 *5060:D 0
15 *4968:A1 *4982:A2 0
16 *4980:A *4982:A2 7.06865e-05
17 *4980:B *4968:A2 4.99619e-05
18 *4980:B *4982:A2 3.60648e-06
19 *4982:A1 *4982:A2 3.18137e-05
20 *4982:B1 *4968:A2 0.000164874
21 *4982:B2 *4968:A2 4.66108e-05
22 *4985:D1 *4968:A2 2.30292e-05
23 *5062:D *5060:D 0
24 *380:40 *4968:A2 1.47256e-05
25 *380:40 *4982:A2 5.23362e-05
26 *906:43 *4968:A2 0.000159741
27 *906:43 *4982:A2 9.92397e-05
*RES
1 *4780:Y *959:8 6.12 
2 *959:8 *5060:D 11.1 
3 *959:8 *4982:A2 9.855 
4 *4982:A2 *4968:A2 5.72 
*END

*D_NET *960 0.00690815
*CONN
*I *4977:A2 I *D sky130_fd_sc_hd__o22a_2
*I *4975:A2_N I *D sky130_fd_sc_hd__o2bb2a_2
*I *5061:D I *D sky130_fd_sc_hd__dfrtp_2
*I *4788:Y O *D sky130_fd_sc_hd__a21oi_2
*CAP
1 *4977:A2 0.000418375
2 *4975:A2_N 0
3 *5061:D 2.04193e-05
4 *4788:Y 0.000414857
5 *960:31 0.00184345
6 *960:12 0.00186035
7 *5061:D *5061:CLK 4.82863e-05
8 *960:12 *4788:A1 7.60965e-05
9 *960:31 *4303:A 0
10 *960:31 *4304:A 0
11 *960:31 *5059:RESET_B 0
12 *960:31 *1015:34 0
13 *4460:A *960:31 0
14 *4713:C1 *960:31 2.97122e-05
15 *4715:B1 *960:31 0.000163985
16 *4788:A2 *960:12 3.23663e-05
17 *4788:B1 *960:12 3.26889e-05
18 *4956:C *960:31 4.65643e-05
19 *4966:B2 *4977:A2 6.53371e-05
20 *4966:B2 *960:31 4.40899e-05
21 *4967:A1 *960:31 0.000341559
22 *4967:A2 *960:31 0.000123268
23 *4967:B1 *960:31 5.42019e-05
24 *4974:B *960:31 0.000110683
25 *4975:B2 *4977:A2 0
26 *4975:B2 *960:31 0
27 *4977:B1 *4977:A2 2.36716e-05
28 *4978:A *960:31 0
29 *4978:B *4977:A2 0.000160068
30 *4978:C *4977:A2 1.4389e-05
31 *4978:D *4977:A2 3.45588e-05
32 *4986:B *4977:A2 8.88523e-06
33 *5059:D *960:31 0.000183043
34 *1:6 *960:12 0
35 *1:6 *960:31 0
36 *227:22 *960:31 0
37 *228:78 *960:31 0.000470013
38 *228:108 *960:31 8.42239e-05
39 *229:53 *960:31 0
40 *633:8 *960:31 2.87867e-05
41 *928:20 *960:31 0.000174219
*RES
1 *4788:Y *960:12 10.35 
2 *960:12 *5061:D 4.05 
3 *960:12 *960:31 31.14 
4 *960:31 *4975:A2_N 3.6 
5 *960:31 *4977:A2 9.645 
*END

*D_NET *961 0.00520681
*CONN
*I *5051:D I *D sky130_fd_sc_hd__dfrtp_2
*I *4987:Y O *D sky130_fd_sc_hd__nor3_2
*CAP
1 *5051:D 0.00113837
2 *4987:Y 0.00113837
3 *5051:D *963:45 0
4 *5051:D *966:88 7.17811e-05
5 *5051:D *966:96 0.000135312
6 *5051:D *1011:21 0.000388413
7 *5051:D *1011:30 0.000325653
8 *5051:D *1011:45 5.86434e-05
9 *5051:D *1013:10 0
10 *5051:D *1013:16 0
11 *1266:DIODE *5051:D 0.000160666
12 *4836:A *5051:D 0.000519232
13 *4901:A *5051:D 1.44259e-05
14 *4973:B *5051:D 0.000445837
15 *4973:C *5051:D 6.47594e-05
16 *4986:A *5051:D 5.44755e-05
17 *911:67 *5051:D 0.000690878
*RES
1 *4987:Y *5051:D 33.9938 
*END

*D_NET *962 0.00414637
*CONN
*I *4317:A I *D sky130_fd_sc_hd__and2_2
*I *4319:D I *D sky130_fd_sc_hd__and4_2
*I *4318:C I *D sky130_fd_sc_hd__nand4_2
*I *4329:A3 I *D sky130_fd_sc_hd__a41o_2
*I *4328:A I *D sky130_fd_sc_hd__nand2_2
*I *5051:Q O *D sky130_fd_sc_hd__dfrtp_2
*CAP
1 *4317:A 0
2 *4319:D 0
3 *4318:C 0.000135742
4 *4329:A3 5.86364e-05
5 *4328:A 0
6 *5051:Q 0.000136387
7 *962:35 0.000226328
8 *962:33 0.000232407
9 *962:27 0.00053611
10 *962:10 0.00047204
11 *4318:C *967:62 0.000202727
12 *4329:A3 *4329:A2 8.49205e-05
13 *962:10 *987:159 5.42473e-05
14 *962:27 *5086:D 8.65905e-05
15 *962:27 *967:8 0.000250076
16 *962:27 *987:159 9.29751e-06
17 *962:33 *4313:B 0
18 *962:33 *994:46 0
19 *962:33 *1001:43 8.53113e-06
20 *962:35 *4329:A2 0.000118081
21 *1266:DIODE *962:10 7.10578e-05
22 *4317:B *962:27 5.4155e-06
23 *4328:B *962:27 0.000241838
24 *4330:A1 *962:27 5.21046e-05
25 *4941:B1 *4318:C 0.000361306
26 *4943:A2 *962:33 0.000316792
27 *5132:A *962:10 0.000140905
28 *5132:A *962:27 0.000108329
29 *239:24 *4329:A3 7.84303e-05
30 *239:24 *962:35 0.000108098
31 *243:19 *962:33 4.9968e-05
*RES
1 *5051:Q *962:10 6.375 
2 *962:10 *4328:A 3.6 
3 *962:10 *962:27 9.725 
4 *962:27 *962:33 8.185 
5 *962:33 *962:35 1.14 
6 *962:35 *4329:A3 3.1 
7 *962:35 *4318:C 10.235 
8 *962:33 *4319:D 1.6 
9 *962:27 *4317:A 1.6 
*END

*D_NET *963 0.00917328
*CONN
*I *5123:A I *D sky130_fd_sc_hd__clkbuf_16
*I *5124:A I *D sky130_fd_sc_hd__clkbuf_16
*I *5121:A I *D sky130_fd_sc_hd__clkbuf_16
*I *5122:A I *D sky130_fd_sc_hd__clkbuf_16
*I *5120:X O *D sky130_fd_sc_hd__clkbuf_16
*CAP
1 *5123:A 5.77191e-05
2 *5124:A 7.23267e-05
3 *5121:A 8.99503e-05
4 *5122:A 0
5 *5120:X 0
6 *963:73 0.000328644
7 *963:49 0.000154106
8 *963:45 0.00169794
9 *963:27 0.000652739
10 *963:13 0.00013756
11 *963:11 0.00154988
12 *963:6 0.00219478
13 *5121:A *1206:DIODE 5.61248e-05
14 *5121:A *964:85 4.99619e-05
15 *5123:A *966:66 4.60061e-05
16 *5124:A *4902:S 6.98956e-05
17 *963:11 *1231:DIODE 0
18 *963:11 *1232:DIODE 0.000133136
19 *963:11 *992:86 0
20 *963:11 *1023:50 0
21 *963:11 *1124:56 0.000495377
22 *963:13 *1023:50 0
23 *963:13 *1119:141 0
24 *963:27 *1206:DIODE 5.71715e-05
25 *963:27 *1224:DIODE 1.56428e-05
26 *963:27 *4801:C1 4.41506e-05
27 *963:27 *990:22 6.51298e-05
28 *963:27 *990:24 4.96965e-05
29 *963:27 *1023:50 6.42013e-05
30 *963:45 *1232:DIODE 0.000487769
31 *963:45 *1320:DIODE 7.55391e-05
32 *963:45 *4903:A1 0
33 *963:45 *966:88 0
34 *963:45 *966:96 0
35 *963:45 *986:14 0
36 *963:45 *988:66 0
37 *963:45 *1124:162 2.46089e-05
38 *963:49 *4902:S 9.13796e-05
39 *963:73 *986:14 0
40 *1266:DIODE *963:45 0
41 *4801:B1 *963:27 2.67275e-05
42 *4822:A1 *963:11 1.64319e-05
43 *4836:A *963:45 0
44 *4901:A *963:45 0
45 *4902:A0 *963:73 3.59531e-06
46 *4902:A1 *963:45 9.70869e-05
47 *4903:A2 *963:45 0
48 *4973:D_N *963:45 0
49 *4986:A *963:11 0
50 *4986:A *963:45 0
51 *5051:D *963:45 0
52 *5052:D *963:11 5.87536e-05
53 *5052:D *963:13 1.22676e-05
54 *653:84 *5123:A 7.92209e-05
55 *653:84 *963:73 0.000107536
56 *851:18 *963:13 0
57 *910:27 *963:11 9.5799e-06
58 *933:10 *963:11 6.41825e-07
*RES
1 *5120:X *963:6 3.6 
2 *963:6 *963:11 16.17 
3 *963:11 *963:13 2.145 
4 *963:13 *5122:A 3.6 
5 *963:11 *963:27 10.5575 
6 *963:27 *5121:A 3.5275 
7 *963:6 *963:45 24.63 
8 *963:45 *963:49 3.43625 
9 *963:49 *5124:A 2.78875 
10 *963:45 *963:73 5.45183 
11 *963:73 *5123:A 2.9125 
*END

*D_NET *964 0.0247272
*CONN
*I *5059:CLK I *D sky130_fd_sc_hd__dfrtp_2
*I *5052:CLK I *D sky130_fd_sc_hd__dfrtp_2
*I *5057:CLK I *D sky130_fd_sc_hd__dfrtp_2
*I *5070:CLK I *D sky130_fd_sc_hd__dfrtp_2
*I *5056:CLK I *D sky130_fd_sc_hd__dfrtp_2
*I *5058:CLK I *D sky130_fd_sc_hd__dfrtp_2
*I *1308:DIODE I *D sky130_fd_sc_hd__diode_2
*I *1310:DIODE I *D sky130_fd_sc_hd__diode_2
*I *1312:DIODE I *D sky130_fd_sc_hd__diode_2
*I *5061:CLK I *D sky130_fd_sc_hd__dfrtp_2
*I *1340:DIODE I *D sky130_fd_sc_hd__diode_2
*I *1298:DIODE I *D sky130_fd_sc_hd__diode_2
*I *1314:DIODE I *D sky130_fd_sc_hd__diode_2
*I *5063:CLK I *D sky130_fd_sc_hd__dfrtp_2
*I *1321:DIODE I *D sky130_fd_sc_hd__diode_2
*I *1323:DIODE I *D sky130_fd_sc_hd__diode_2
*I *5071:CLK I *D sky130_fd_sc_hd__dfrtp_2
*I *1304:DIODE I *D sky130_fd_sc_hd__diode_2
*I *1306:DIODE I *D sky130_fd_sc_hd__diode_2
*I *5121:X O *D sky130_fd_sc_hd__clkbuf_16
*CAP
1 *5059:CLK 0.000454235
2 *5052:CLK 1.02651e-05
3 *5057:CLK 0
4 *5070:CLK 0.000127672
5 *5056:CLK 0
6 *5058:CLK 0.00049597
7 *1308:DIODE 0
8 *1310:DIODE 0.000454235
9 *1312:DIODE 5.66684e-05
10 *5061:CLK 0.000622717
11 *1340:DIODE 0
12 *1298:DIODE 0.000728057
13 *1314:DIODE 0.000182876
14 *5063:CLK 1.89314e-05
15 *1321:DIODE 0.000227226
16 *1323:DIODE 3.26322e-05
17 *5071:CLK 0.000188575
18 *1304:DIODE 0
19 *1306:DIODE 0.000590226
20 *5121:X 0.000474478
21 *964:186 0.000453506
22 *964:143 0.00074399
23 *964:139 0.000633324
24 *964:135 0.000636576
25 *964:133 0.000733156
26 *964:131 0.000523206
27 *964:127 0.00031342
28 *964:87 0.000900668
29 *964:85 0.000404328
30 *964:42 0.00160052
31 *964:29 0.00137931
32 *964:27 0.000541395
33 *964:16 0.000758232
34 *964:10 0.000228296
35 *1298:DIODE *992:101 0.000183149
36 *1298:DIODE *992:107 0.000137986
37 *1314:DIODE *1315:DIODE 4.82863e-05
38 *1314:DIODE *4800:B 2.09578e-05
39 *1321:DIODE *1359:DIODE 0.000161529
40 *1321:DIODE *4850:B 0
41 *5052:CLK *5052:RESET_B 8.8266e-05
42 *5058:CLK *4764:A1 1.37328e-05
43 *5058:CLK *5058:RESET_B 0.000158324
44 *5061:CLK *5061:RESET_B 4.71234e-05
45 *5063:CLK *1203:DIODE 2.75229e-05
46 *5070:CLK *1357:DIODE 0.000365641
47 *964:10 *1210:DIODE 5.21174e-05
48 *964:16 *1203:DIODE 4.35348e-05
49 *964:16 *1210:DIODE 0.00015829
50 *964:16 *985:29 0.00011903
51 *964:27 *5143:A 5.70328e-05
52 *964:27 *985:29 0.000236002
53 *964:27 *1122:12 0
54 *964:42 *1244:DIODE 0.000196287
55 *964:42 *1249:DIODE 1.19601e-05
56 *964:42 *990:239 0.000193314
57 *964:85 *1206:DIODE 0.000200134
58 *964:127 *5057:RESET_B 8.92366e-05
59 *964:127 *1023:174 7.25921e-05
60 *964:133 *1357:DIODE 0.000312092
61 *964:133 *4764:B1 0.00019662
62 *964:133 *990:189 0
63 *964:133 *1084:18 3.84636e-05
64 *964:135 *4764:B1 9.50342e-06
65 *964:135 *1084:18 6.47594e-05
66 *964:139 *1005:31 7.47145e-05
67 *964:139 *1005:33 0.000159964
68 *964:139 *1005:35 0.000132096
69 *964:139 *1084:18 0.000429744
70 *964:143 *1005:35 8.56254e-05
71 *964:143 *1005:39 0.000104671
72 *964:143 *1084:18 7.17569e-05
73 *964:186 *1357:DIODE 0.000680052
74 *964:186 *990:189 0
75 *4712:B1 *964:139 0
76 *4714:A2 *964:139 2.24708e-05
77 *4723:B1 *964:42 0
78 *4724:B1 *964:42 0
79 *4728:A2 *964:42 0
80 *4728:B1 *964:42 0
81 *4740:C *1314:DIODE 3.81362e-05
82 *4741:C *5071:CLK 0.000108569
83 *4745:A *964:27 0.000264257
84 *4756:B1 *964:16 7.00889e-06
85 *4758:A2 *1306:DIODE 4.82919e-05
86 *4765:A1 *964:135 0
87 *4765:A1 *964:139 0
88 *4772:B1 *964:139 7.3664e-05
89 *4852:A2 *1321:DIODE 3.72916e-05
90 *4858:B2 *1323:DIODE 6.18754e-05
91 *4858:B2 *964:42 3.25831e-05
92 *4859:A2 *964:42 0.000138544
93 *4951:A2 *964:186 0.000156238
94 *4965:A *964:10 0.000105841
95 *4965:A *964:42 0.000207542
96 *4969:B1 *1298:DIODE 0.000212746
97 *4970:B *1306:DIODE 0.000268304
98 *4970:B *964:127 0.000467453
99 *4970:B *964:131 2.49909e-05
100 *4976:A1_N *5070:CLK 0.000199147
101 *4976:A1_N *964:186 1.03572e-05
102 *4986:B *1321:DIODE 0.000124929
103 *4987:A *964:42 4.87268e-05
104 *5052:D *1298:DIODE 1.88602e-05
105 *5052:D *5052:CLK 8.8266e-05
106 *5059:D *5059:CLK 0.000121548
107 *5061:D *5061:CLK 4.82863e-05
108 *5121:A *964:85 4.99619e-05
109 *5129:A *1321:DIODE 9.14049e-05
110 *5129:A *964:27 7.33759e-05
111 *5165:A *1323:DIODE 0.000118527
112 *5165:A *964:42 1.34361e-05
113 *230:117 *964:139 5.83373e-05
114 *230:140 *1298:DIODE 0
115 *230:140 *964:139 9.62683e-05
116 *656:83 *964:42 0.000531748
117 *683:22 *5058:CLK 6.97034e-05
118 *907:10 *1314:DIODE 8.57406e-05
119 *927:25 *964:27 0.000118513
120 *927:39 *964:16 0.00022448
121 *927:39 *964:27 0.000128353
122 *928:10 *964:127 1.34503e-05
123 *929:10 *5058:CLK 3.21052e-05
124 *930:17 *964:139 7.33465e-05
125 *930:28 *964:139 4.49498e-05
126 *932:19 *1312:DIODE 4.60584e-05
127 *932:19 *5061:CLK 7.00889e-06
128 *935:33 *1298:DIODE 0.000357663
*RES
1 *5121:X *964:10 7.745 
2 *964:10 *964:16 6.14 
3 *964:16 *1306:DIODE 7.5 
4 *964:16 *964:27 8.265 
5 *964:27 *964:29 2 
6 *964:29 *1304:DIODE 1.6 
7 *964:29 *964:42 29.735 
8 *964:42 *5071:CLK 6.81 
9 *964:42 *1323:DIODE 4.98 
10 *964:27 *1321:DIODE 8.625 
11 *964:10 *5063:CLK 2.05 
12 *5121:X *964:85 6.88 
13 *964:85 *964:87 2 
14 *964:87 *1314:DIODE 6.3 
15 *964:87 *1298:DIODE 6.67677 
16 *964:85 *1340:DIODE 1.6 
17 *1306:DIODE *964:127 8.95 
18 *964:127 *964:131 2.45 
19 *964:131 *964:133 4.44 
20 *964:133 *964:135 1.38 
21 *964:135 *964:139 14.835 
22 *964:139 *964:143 4.145 
23 *964:143 *5061:CLK 8.875 
24 *964:143 *1312:DIODE 2.395 
25 *964:139 *1310:DIODE 3.6 
26 *964:135 *1308:DIODE 3.6 
27 *964:133 *5058:CLK 12 
28 *964:131 *964:186 8.01 
29 *964:186 *5056:CLK 3.6 
30 *964:186 *5070:CLK 8.235 
31 *964:127 *5057:CLK 1.6 
32 *1298:DIODE *5052:CLK 3.995 
33 *1310:DIODE *5059:CLK 10.55 
*END

*D_NET *965 0.0206476
*CONN
*I *5067:CLK I *D sky130_fd_sc_hd__dfrtp_2
*I *5065:CLK I *D sky130_fd_sc_hd__dfrtp_2
*I *1319:DIODE I *D sky130_fd_sc_hd__diode_2
*I *1317:DIODE I *D sky130_fd_sc_hd__diode_2
*I *1318:DIODE I *D sky130_fd_sc_hd__diode_2
*I *5066:CLK I *D sky130_fd_sc_hd__dfrtp_2
*I *5053:CLK I *D sky130_fd_sc_hd__dfrtp_2
*I *5060:CLK I *D sky130_fd_sc_hd__dfrtp_2
*I *5064:CLK I *D sky130_fd_sc_hd__dfrtp_2
*I *1316:DIODE I *D sky130_fd_sc_hd__diode_2
*I *1300:DIODE I *D sky130_fd_sc_hd__diode_2
*I *5054:CLK I *D sky130_fd_sc_hd__dfrtp_2
*I *1302:DIODE I *D sky130_fd_sc_hd__diode_2
*I *1303:DIODE I *D sky130_fd_sc_hd__diode_2
*I *1313:DIODE I *D sky130_fd_sc_hd__diode_2
*I *1311:DIODE I *D sky130_fd_sc_hd__diode_2
*I *5062:CLK I *D sky130_fd_sc_hd__dfrtp_2
*I *5055:CLK I *D sky130_fd_sc_hd__dfrtp_2
*I *1341:DIODE I *D sky130_fd_sc_hd__diode_2
*I *5122:X O *D sky130_fd_sc_hd__clkbuf_16
*CAP
1 *5067:CLK 1.96262e-05
2 *5065:CLK 2.22788e-05
3 *1319:DIODE 0.000408109
4 *1317:DIODE 2.22788e-05
5 *1318:DIODE 0
6 *5066:CLK 0.000767992
7 *5053:CLK 1.84195e-05
8 *5060:CLK 2.9853e-05
9 *5064:CLK 9.32637e-06
10 *1316:DIODE 0.000469805
11 *1300:DIODE 5.22843e-05
12 *5054:CLK 0
13 *1302:DIODE 0.000258435
14 *1303:DIODE 0
15 *1313:DIODE 0
16 *1311:DIODE 0.000155379
17 *5062:CLK 0.000163478
18 *5055:CLK 0.000201443
19 *1341:DIODE 0.000520244
20 *5122:X 8.19609e-06
21 *965:167 0.00149332
22 *965:165 0.00078412
23 *965:161 0.000917085
24 *965:114 0.000212225
25 *965:55 0.000871609
26 *965:53 0.000928116
27 *965:38 0.00104251
28 *965:36 0.0011409
29 *965:30 0.000903787
30 *965:28 0.000440779
31 *965:22 0.000616565
32 *965:20 0.000856869
33 *1302:DIODE *1286:DIODE 0.000572614
34 *1302:DIODE *983:105 0
35 *1302:DIODE *1124:100 0.000765908
36 *1319:DIODE *1235:DIODE 0
37 *1319:DIODE *1006:14 0.00012819
38 *1319:DIODE *1007:8 3.07699e-05
39 *1319:DIODE *1121:10 0
40 *1341:DIODE *1282:DIODE 3.00381e-05
41 *1341:DIODE *1122:183 3.00381e-05
42 *5053:CLK *5053:RESET_B 4.99619e-05
43 *5053:CLK *1023:83 8.8266e-05
44 *5055:CLK *985:116 2.3706e-05
45 *5066:CLK *5066:RESET_B 0.000376035
46 *965:20 *1282:DIODE 8.40213e-05
47 *965:20 *990:113 0.000120929
48 *965:20 *1122:183 0.000260552
49 *965:22 *1007:12 0
50 *965:22 *1007:18 0
51 *965:22 *1118:62 9.9535e-05
52 *965:28 *4929:B 0.000202712
53 *965:28 *1007:18 8.8266e-05
54 *965:28 *1007:50 0.000148675
55 *965:28 *1118:62 4.92206e-05
56 *965:36 *1291:DIODE 5.86739e-05
57 *965:36 *4934:A1 0.000121942
58 *965:36 *990:93 8.95933e-05
59 *965:36 *1024:37 0.000225586
60 *965:38 *985:116 4.85355e-05
61 *965:38 *1024:37 0.000230526
62 *965:53 *5062:RESET_B 0
63 *965:53 *1007:56 0
64 *965:53 *1118:10 0.000200429
65 *965:53 *1118:23 0.000394788
66 *965:55 *5062:RESET_B 0.00015737
67 *965:114 *1007:12 0
68 *965:114 *1118:62 3.13537e-05
69 *965:114 *1118:79 1.65192e-05
70 *965:161 *4815:A1 0
71 *965:161 *1007:8 0.000157297
72 *965:161 *1007:10 9.3062e-06
73 *965:167 *4814:A1 6.03947e-06
74 *965:167 *5066:RESET_B 0.000151541
75 *4791:A *965:53 6.55328e-05
76 *4791:A *965:55 2.96334e-05
77 *4792:A2 *965:53 4.97771e-05
78 *4807:A2 *965:161 0
79 *4815:A2 *1319:DIODE 0
80 *4815:A2 *965:167 4.82919e-05
81 *4821:A2 *5066:CLK 3.21052e-05
82 *4924:B *965:20 4.82863e-05
83 *4933:A *1302:DIODE 5.51245e-05
84 *4933:A *965:28 0
85 *4933:A *965:36 1.0183e-05
86 *4934:A2 *1302:DIODE 0.000108279
87 *4934:A2 *965:36 3.6971e-05
88 *4934:B1 *965:36 6.83447e-05
89 *4953:B *965:161 0.000224415
90 *4969:C1 *965:114 0.000296782
91 *4972:B *5067:CLK 3.00381e-05
92 *4981:A1 *5066:CLK 1.85674e-05
93 *5055:D *965:53 1.70935e-05
94 *5060:D *1311:DIODE 0
95 *5062:D *1311:DIODE 1.52184e-05
96 *5062:D *5062:CLK 4.82863e-05
97 *5062:D *965:55 7.40446e-05
98 *5064:D *965:161 7.23602e-05
99 *5066:D *5066:CLK 5.0751e-05
100 *906:10 *1311:DIODE 0
101 *906:10 *965:55 3.21052e-05
102 *906:23 *965:53 0
103 *908:8 *5064:CLK 4.82919e-05
104 *908:8 *965:161 3.23663e-05
105 *909:16 *5065:CLK 4.82863e-05
106 *909:16 *965:165 4.85795e-05
107 *909:16 *965:167 6.65725e-05
108 *909:20 *965:167 0.000189297
109 *909:22 *965:167 5.21706e-05
110 *909:30 *5066:CLK 4.84364e-05
111 *916:10 *1300:DIODE 4.82919e-05
112 *916:10 *5053:CLK 7.60965e-05
113 *916:18 *965:22 8.59365e-05
114 *916:18 *965:28 3.09233e-05
115 *937:14 *1319:DIODE 9.58678e-06
116 *953:12 *965:36 4.66108e-05
*RES
1 *5122:X *1341:DIODE 3.65 
2 *1341:DIODE *965:20 12.33 
3 *965:20 *965:22 3.165 
4 *965:22 *965:28 11.255 
5 *965:28 *965:30 2 
6 *965:30 *965:36 10.64 
7 *965:36 *965:38 5.97 
8 *965:38 *5055:CLK 4.045 
9 *965:38 *965:53 12.265 
10 *965:53 *965:55 7.005 
11 *965:55 *5062:CLK 3.7 
12 *965:55 *1311:DIODE 7.745 
13 *965:53 *1313:DIODE 1.6 
14 *965:36 *1303:DIODE 1.6 
15 *965:30 *1302:DIODE 12.585 
16 *965:28 *5054:CLK 1.6 
17 *965:22 *1300:DIODE 4.05 
18 *965:20 *965:114 6.695 
19 *965:114 *1316:DIODE 1.6 
20 *965:114 *5064:CLK 2.05 
21 *1311:DIODE *5060:CLK 3.65 
22 *1300:DIODE *5053:CLK 4.34 
23 *1316:DIODE *965:161 13.005 
24 *965:161 *965:165 2.795 
25 *965:165 *965:167 9.075 
26 *965:167 *5066:CLK 11.29 
27 *965:167 *1318:DIODE 1.6 
28 *965:165 *1317:DIODE 1.6 
29 *965:161 *1319:DIODE 10.59 
30 *1317:DIODE *5065:CLK 3.65 
31 *1319:DIODE *5067:CLK 3.65 
*END

*D_NET *966 0.0224579
*CONN
*I *5075:CLK I *D sky130_fd_sc_hd__dfrtp_2
*I *1333:DIODE I *D sky130_fd_sc_hd__diode_2
*I *1329:DIODE I *D sky130_fd_sc_hd__diode_2
*I *5079:CLK I *D sky130_fd_sc_hd__dfrtp_2
*I *5076:CLK I *D sky130_fd_sc_hd__dfrtp_2
*I *1331:DIODE I *D sky130_fd_sc_hd__diode_2
*I *1342:DIODE I *D sky130_fd_sc_hd__diode_2
*I *1326:DIODE I *D sky130_fd_sc_hd__diode_2
*I *1332:DIODE I *D sky130_fd_sc_hd__diode_2
*I *5077:CLK I *D sky130_fd_sc_hd__dfrtp_2
*I *5051:CLK I *D sky130_fd_sc_hd__dfrtp_2
*I *1297:DIODE I *D sky130_fd_sc_hd__diode_2
*I *5068:CLK I *D sky130_fd_sc_hd__dfrtp_2
*I *1320:DIODE I *D sky130_fd_sc_hd__diode_2
*I *1327:DIODE I *D sky130_fd_sc_hd__diode_2
*I *5073:CLK I *D sky130_fd_sc_hd__dfrtp_2
*I *1325:DIODE I *D sky130_fd_sc_hd__diode_2
*I *5072:CLK I *D sky130_fd_sc_hd__dfrtp_2
*I *5074:CLK I *D sky130_fd_sc_hd__dfrtp_2
*I *5123:X O *D sky130_fd_sc_hd__clkbuf_16
*CAP
1 *5075:CLK 0.000278253
2 *1333:DIODE 0
3 *1329:DIODE 0.000328741
4 *5079:CLK 0.000126418
5 *5076:CLK 0
6 *1331:DIODE 0.000683177
7 *1342:DIODE 0.000781803
8 *1326:DIODE 4.26614e-05
9 *1332:DIODE 8.83806e-05
10 *5077:CLK 2.85422e-05
11 *5051:CLK 3.59345e-05
12 *1297:DIODE 6.05552e-05
13 *5068:CLK 0
14 *1320:DIODE 0.00011866
15 *1327:DIODE 0
16 *5073:CLK 0
17 *1325:DIODE 0.000563688
18 *5072:CLK 0
19 *5074:CLK 0.000186673
20 *5123:X 0.00180778
21 *966:222 0.000680757
22 *966:216 0.00116475
23 *966:191 0.000715701
24 *966:96 0.000462175
25 *966:88 0.000478756
26 *966:84 0.000420952
27 *966:70 0.000374588
28 *966:66 0.000467393
29 *966:37 0.000680333
30 *966:31 0.000911897
31 *966:14 0.00153144
32 *966:12 0.00196828
33 *1297:DIODE *988:79 8.49205e-05
34 *1326:DIODE *1357:DIODE 4.05358e-05
35 *1326:DIODE *990:189 0
36 *1329:DIODE *1334:DIODE 0
37 *1342:DIODE *991:12 2.87867e-05
38 *5051:CLK *4901:B 8.40269e-05
39 *5051:CLK *4903:B1 3.63661e-05
40 *5075:CLK *1334:DIODE 4.99619e-05
41 *5075:CLK *5075:RESET_B 0.00014168
42 *5075:CLK *1029:39 3.00381e-05
43 *5077:CLK *4904:B1 4.66108e-05
44 *5077:CLK *1013:237 4.66826e-05
45 *966:12 *4915:A2 0.000155491
46 *966:12 *5164:A 0.00010877
47 *966:12 *991:30 0.000158072
48 *966:12 *1029:67 6.05513e-05
49 *966:12 *1125:30 4.88135e-05
50 *966:12 *1127:127 0.000275642
51 *966:14 *5074:RESET_B 4.24575e-05
52 *966:31 *1013:259 0
53 *966:66 *1013:251 0.000273097
54 *966:70 *986:14 0.000114492
55 *966:84 *4903:B1 0.000142661
56 *966:84 *986:14 0.000155928
57 *966:191 *4896:A 0.00011852
58 *1266:DIODE *5051:CLK 0.000158072
59 *1266:DIODE *966:84 0.000122325
60 *4647:B *966:216 0.000198945
61 *4647:C *966:216 8.71312e-05
62 *4732:A2 *966:31 0
63 *4732:B1 *966:31 0.000105086
64 *4741:D *966:12 9.54399e-05
65 *4836:A *1320:DIODE 0
66 *4836:A *966:96 0.000141606
67 *4838:A *966:96 4.00541e-06
68 *4858:B2 *966:12 1.6408e-05
69 *4876:A1 *966:31 0
70 *4879:B *966:12 4.08514e-05
71 *4879:B *966:14 5.83121e-06
72 *4893:A *966:191 0
73 *4895:B *966:191 0
74 *4896:C *966:191 5.33787e-05
75 *4897:A1 *966:191 1.91597e-05
76 *4901:A *966:88 3.09164e-05
77 *4902:A1 *966:84 0.000157343
78 *4903:A2 *966:84 9.27495e-05
79 *4904:A1 *966:191 0.000121815
80 *4905:A *966:84 3.89404e-05
81 *4910:A1 *966:191 1.47256e-05
82 *4914:B *966:191 0
83 *4952:A *1329:DIODE 2.66935e-05
84 *4954:B *966:191 2.45182e-05
85 *4962:B *1320:DIODE 2.11084e-05
86 *4970:A *966:191 0
87 *4971:A2 *1326:DIODE 2.97004e-06
88 *5051:D *966:88 7.17811e-05
89 *5051:D *966:96 0.000135312
90 *5068:D *966:96 7.35813e-05
91 *5073:D *966:37 3.69113e-05
92 *5074:D *966:31 1.70935e-05
93 *5076:D *966:191 3.47668e-05
94 *5077:D *966:84 2.81913e-05
95 *5079:D *5079:CLK 5.83121e-06
96 *5079:D *966:222 9.02174e-05
97 *5123:A *966:66 4.60061e-05
98 *5127:A *966:12 0
99 *232:39 *1331:DIODE 4.82863e-05
100 *234:21 *966:31 0
101 *553:16 *5075:CLK 0.00041082
102 *566:10 *5079:CLK 4.7212e-05
103 *566:10 *966:216 1.4389e-05
104 *566:10 *966:222 0.000137439
105 *567:12 *1342:DIODE 7.23602e-05
106 *567:12 *966:70 0.000106648
107 *567:12 *966:84 0.00016163
108 *567:12 *966:191 0
109 *568:10 *966:216 0.000198939
110 *570:16 *5075:CLK 0.000123797
111 *585:12 *966:31 0
112 *592:52 *966:31 0.000520509
113 *595:14 *966:37 0.000363171
114 *653:26 *966:12 8.88715e-05
115 *653:39 *966:12 5.05437e-05
116 *653:84 *1342:DIODE 8.51879e-05
117 *653:84 *966:66 1.87977e-05
118 *656:24 *966:191 0
119 *656:24 *966:216 0
120 *746:26 *966:96 2.36616e-05
121 *780:12 *966:31 6.55406e-05
122 *803:8 *966:84 4.58166e-05
123 *804:10 *5077:CLK 1.91597e-05
124 *917:6 *1325:DIODE 8.8266e-05
125 *918:28 *966:31 0
126 *919:8 *966:12 4.58166e-05
127 *919:8 *966:14 7.67345e-05
128 *920:10 *5075:CLK 0.000163204
129 *947:28 *5074:CLK 5.34747e-05
130 *947:28 *966:37 0
131 *963:45 *1320:DIODE 7.55391e-05
132 *963:45 *966:88 0
133 *963:45 *966:96 0
*RES
1 *5123:X *966:12 23.045 
2 *966:12 *966:14 6.66 
3 *966:14 *5074:CLK 4.045 
4 *966:14 *966:31 18.715 
5 *966:31 *966:37 8.185 
6 *966:37 *5072:CLK 1.6 
7 *966:37 *1325:DIODE 8.95 
8 *966:31 *5073:CLK 1.6 
9 *966:12 *1327:DIODE 1.6 
10 *5123:X *966:66 7.225 
11 *966:66 *966:70 3.38 
12 *966:70 *966:84 10.88 
13 *966:84 *966:88 3.635 
14 *966:88 *966:96 8.975 
15 *966:96 *1320:DIODE 7.685 
16 *966:96 *5068:CLK 1.6 
17 *966:88 *1297:DIODE 4.395 
18 *966:84 *5051:CLK 3.085 
19 *966:70 *5077:CLK 4.395 
20 *966:66 *1332:DIODE 1.6 
21 *1325:DIODE *1326:DIODE 8.07 
22 *1332:DIODE *1342:DIODE 8.865 
23 *1342:DIODE *966:191 16.97 
24 *966:191 *1331:DIODE 2.05 
25 *966:191 *5076:CLK 1.6 
26 *1331:DIODE *966:216 16.835 
27 *966:216 *966:222 7.125 
28 *966:222 *5079:CLK 3.355 
29 *966:222 *1329:DIODE 6.47 
30 *966:216 *1333:DIODE 1.6 
31 *1329:DIODE *5075:CLK 11.24 
*END

*D_NET *967 0.0120128
*CONN
*I *5081:CLK I *D sky130_fd_sc_hd__dfrtp_2
*I *5080:CLK I *D sky130_fd_sc_hd__dfrtp_2
*I *5082:CLK I *D sky130_fd_sc_hd__dfrtp_2
*I *5078:CLK I *D sky130_fd_sc_hd__dfrtp_2
*I *5083:CLK I *D sky130_fd_sc_hd__dfrtp_2
*I *5086:CLK I *D sky130_fd_sc_hd__dfrtp_2
*I *5085:CLK I *D sky130_fd_sc_hd__dfrtp_2
*I *5069:CLK I *D sky130_fd_sc_hd__dfrtp_2
*I *5084:CLK I *D sky130_fd_sc_hd__dfrtp_2
*I *5124:X O *D sky130_fd_sc_hd__clkbuf_16
*CAP
1 *5081:CLK 3.55651e-05
2 *5080:CLK 0.000165982
3 *5082:CLK 0.000280955
4 *5078:CLK 0
5 *5083:CLK 7.52392e-05
6 *5086:CLK 9.91862e-05
7 *5085:CLK 0.000494061
8 *5069:CLK 0.000454233
9 *5084:CLK 0
10 *5124:X 0.00014953
11 *967:90 0.000589632
12 *967:84 0.000348874
13 *967:64 0.000275143
14 *967:62 0.000848297
15 *967:25 0.00109722
16 *967:16 0.000672695
17 *967:10 0.000693135
18 *967:8 0.000697487
19 *5069:CLK *1335:DIODE 0
20 *5069:CLK *4831:A1 0
21 *5069:CLK *4846:A1 0.000336529
22 *5069:CLK *5084:D 3.09164e-05
23 *5069:CLK *1010:8 0
24 *5069:CLK *1121:14 0
25 *5069:CLK *1121:29 0
26 *5080:CLK *969:6 5.34747e-05
27 *5081:CLK *1335:DIODE 2.11084e-05
28 *5081:CLK *5080:RESET_B 4.35432e-05
29 *5081:CLK *5081:RESET_B 4.99619e-05
30 *5082:CLK *1336:DIODE 3.64998e-06
31 *5082:CLK *5082:RESET_B 0.000153449
32 *5083:CLK *4942:A1 0
33 *5085:CLK *5084:RESET_B 1.59221e-05
34 *5085:CLK *5085:RESET_B 0.000136526
35 *5085:CLK *1025:6 0.00015346
36 *5086:CLK *5086:RESET_B 9.43648e-05
37 *967:8 *1013:119 0.000271308
38 *967:10 *4330:B1 0
39 *967:10 *987:159 0
40 *967:16 *5086:D 0
41 *967:16 *5086:RESET_B 9.84957e-05
42 *967:16 *987:159 0
43 *967:16 *988:157 7.44375e-05
44 *967:16 *988:163 1.07797e-05
45 *967:16 *1025:6 0.000162311
46 *967:16 *1121:29 6.36578e-05
47 *967:25 *1025:6 6.19997e-05
48 *967:62 *4329:A1 0.000115464
49 *967:62 *5082:D 7.74981e-05
50 *967:62 *975:10 5.51574e-05
51 *967:62 *987:159 0
52 *967:62 *1013:134 0
53 *967:62 *1029:215 0.000183043
54 *967:64 *4942:A1 0.000142669
55 *967:64 *5080:RESET_B 0.000254209
56 *967:64 *999:25 6.97034e-05
57 *967:84 *5080:RESET_B 0.000180901
58 *967:84 *5139:A 4.82919e-05
59 *967:84 *999:25 0.000195671
60 *4318:C *967:62 0.000202727
61 *4328:B *5086:CLK 0.000271608
62 *4328:B *967:10 6.21553e-05
63 *4328:B *967:16 8.53113e-06
64 *4329:B1 *967:62 0
65 *4835:B1 *967:16 0.000139231
66 *4844:A2 *5069:CLK 0
67 *4941:B1 *967:10 5.12942e-05
68 *4941:B1 *967:16 9.3062e-06
69 *4941:B1 *967:62 0.000145881
70 *4942:B1 *967:62 0.000136884
71 *4943:A2 *967:16 0
72 *4945:A *967:16 0
73 *4945:B *967:16 0
74 *4949:B *967:62 0.00019375
75 *5069:D *5069:CLK 3.39064e-05
76 *239:35 *967:62 0.000205384
77 *847:12 *5083:CLK 0.000166346
78 *962:27 *967:8 0.000250076
*RES
1 *5124:X *967:8 7.845 
2 *967:8 *967:10 1.635 
3 *967:10 *967:16 12.26 
4 *967:16 *5084:CLK 1.6 
5 *967:16 *967:25 2.1 
6 *967:25 *5069:CLK 14.375 
7 *967:25 *5085:CLK 8.185 
8 *967:10 *5086:CLK 6.84 
9 *967:8 *967:62 16.13 
10 *967:62 *967:64 5.625 
11 *967:64 *5083:CLK 7.49 
12 *967:64 *5078:CLK 1.6 
13 *967:62 *967:84 4.95 
14 *967:84 *967:90 6.145 
15 *967:90 *5082:CLK 6.535 
16 *967:90 *5080:CLK 4.465 
17 *967:84 *5081:CLK 2.74 
*END

*D_NET *968 0.00165815
*CONN
*I *5142:A I *D sky130_fd_sc_hd__clkdlybuf4s25_1
*I *5141:A I *D sky130_fd_sc_hd__clkdlybuf4s25_1
*I *5081:Q O *D sky130_fd_sc_hd__dfrtp_2
*CAP
1 *5142:A 3.63983e-05
2 *5141:A 8.79057e-05
3 *5081:Q 0.000342494
4 *968:10 0.000466798
5 *5141:A *5244:A 0
6 *5142:A *1002:22 8.65961e-05
7 *968:10 *4997:A 0.000161529
8 *968:10 *5009:C 7.03608e-05
9 *968:10 *5242:A 9.14049e-05
10 *4997:B *5141:A 9.3062e-06
11 *4997:B *968:10 0.000103948
12 *5030:D *5141:A 7.81876e-05
13 *884:12 *968:10 0.000123225
14 *892:27 *5141:A 0
15 *892:27 *968:10 0
*RES
1 *5081:Q *968:10 10.425 
2 *968:10 *5141:A 5.49 
3 *968:10 *5142:A 4.395 
*END

*D_NET *969 0.0054532
*CONN
*I *5009:A I *D sky130_fd_sc_hd__or4b_2
*I *5017:A I *D sky130_fd_sc_hd__or4b_2
*I *5011:A_N I *D sky130_fd_sc_hd__and3b_2
*I *5024:A I *D sky130_fd_sc_hd__or4bb_2
*I *5140:A I *D sky130_fd_sc_hd__clkdlybuf4s25_1
*I *5082:Q O *D sky130_fd_sc_hd__dfrtp_2
*CAP
1 *5009:A 0
2 *5017:A 6.25865e-05
3 *5011:A_N 4.53095e-05
4 *5024:A 3.55506e-05
5 *5140:A 0.000417056
6 *5082:Q 0.000442141
7 *969:42 0.000422739
8 *969:32 0.000414311
9 *969:19 0.00072773
10 *969:6 0.00145191
11 *5011:A_N *5011:B 0.00016163
12 *5011:A_N *5245:A 1.26548e-05
13 *5011:A_N *998:23 0.000116853
14 *5011:A_N *998:36 2.07184e-05
15 *5017:A *5017:B 2.49909e-05
16 *5017:A *5017:C 4.66108e-05
17 *5017:A *997:43 4.00541e-06
18 *5017:A *997:58 0
19 *5140:A *4988:B 0
20 *5140:A *4997:A 0
21 *5140:A *5024:C_N 0
22 *5140:A *5080:D 0
23 *5140:A *5080:RESET_B 2.46089e-05
24 *5140:A *997:103 0
25 *5140:A *997:112 0
26 *5140:A *999:33 5.02217e-05
27 *5140:A *999:39 0.000130057
28 *5140:A *1000:144 0
29 *969:19 *5024:C_N 9.27495e-05
30 *969:32 *5024:B 0.000109009
31 *969:42 *5009:D_N 7.68414e-06
32 *969:42 *5011:B 4.44927e-05
33 *969:42 *5024:B 7.63883e-05
34 *969:42 *998:36 0.000114492
35 *969:42 *1002:57 9.50342e-06
36 *4989:B *5140:A 0
37 *5040:B *969:42 2.75145e-05
38 *5080:CLK *969:6 5.34747e-05
39 *884:12 *969:42 0.000273872
40 *884:14 *969:42 3.23391e-05
41 *892:27 *969:32 0
42 *892:27 *969:42 0
43 *894:12 *969:32 0
*RES
1 *5082:Q *969:6 6.535 
2 *969:6 *5140:A 13.355 
3 *969:6 *969:19 6.66 
4 *969:19 *5024:A 2.215 
5 *969:19 *969:32 3.83 
6 *969:32 *969:42 9.46 
7 *969:42 *5011:A_N 5.49 
8 *969:42 *5017:A 4.755 
9 *969:32 *5009:A 3.6 
*END

*D_NET *970 0.00039404
*CONN
*I *5139:A I *D sky130_fd_sc_hd__clkdlybuf4s25_1
*I *5083:Q O *D sky130_fd_sc_hd__dfrtp_2
*CAP
1 *5139:A 8.50855e-05
2 *5083:Q 8.50855e-05
3 *5139:A *4949:C 9.50342e-06
4 *5139:A *5080:RESET_B 2.75229e-05
5 *5139:A *5082:D 0.000138551
6 *5139:A *999:25 0
7 *967:84 *5139:A 4.82919e-05
*RES
1 *5083:Q *5139:A 9.285 
*END

*D_NET *971 0.00673437
*CONN
*I *5137:A I *D sky130_fd_sc_hd__clkdlybuf4s25_1
*I *5045:A I *D sky130_fd_sc_hd__and3_2
*I *5136:A I *D sky130_fd_sc_hd__clkdlybuf4s25_1
*I *5084:Q O *D sky130_fd_sc_hd__dfrtp_2
*CAP
1 *5137:A 2.08101e-05
2 *5045:A 0.000774196
3 *5136:A 5.10907e-05
4 *5084:Q 0.00019326
5 *971:29 0.00138568
6 *971:8 0.000835027
7 *5045:A *4326:C 0.000163199
8 *5045:A *5247:A 0.000390079
9 *5045:A *5262:A 2.49909e-05
10 *5045:A *997:21 0.000271308
11 *5045:A *1001:27 0.000158455
12 *5136:A *4943:A1 0.000120655
13 *5136:A *4943:B1 0.00015639
14 *5136:A *996:6 4.66108e-05
15 *5136:A *999:47 7.14699e-05
16 *5137:A *1001:27 0
17 *5137:A *1001:33 0
18 *971:8 *1335:DIODE 0
19 *971:29 *1335:DIODE 0
20 *971:29 *4315:A_N 0
21 *971:29 *4326:C 6.65725e-05
22 *971:29 *4327:B 9.34411e-05
23 *971:29 *996:30 0.000124634
24 *971:29 *999:39 0
25 *971:29 *999:41 0
26 *971:29 *999:47 0
27 *971:29 *1001:27 5.34747e-05
28 *971:29 *1001:33 1.85674e-05
29 *1293:DIODE *971:8 0.000378961
30 *1293:DIODE *971:29 0.000114492
31 *4946:A2 *971:29 0.000112123
32 *4948:B *971:29 3.39151e-05
33 *5045:C *5045:A 4.82863e-05
34 *238:23 *5045:A 7.47145e-05
35 *241:45 *971:29 0.000515085
36 *884:16 *5045:A 4.5783e-05
37 *896:10 *5045:A 0.000160658
38 *904:6 *5045:A 0.000193806
39 *904:21 *5045:A 3.66286e-05
*RES
1 *5084:Q *971:8 8.04 
2 *971:8 *5136:A 5.43 
3 *971:8 *971:29 15.89 
4 *971:29 *5045:A 20.6 
5 *971:29 *5137:A 1.96 
*END

*D_NET *972 0.00647907
*CONN
*I *5048:A_N I *D sky130_fd_sc_hd__and4bb_2
*I *4315:A_N I *D sky130_fd_sc_hd__and2b_2
*I *4327:A I *D sky130_fd_sc_hd__and3_2
*I *4946:B1 I *D sky130_fd_sc_hd__a31o_2
*I *5000:A I *D sky130_fd_sc_hd__nand2_2
*I *4994:A I *D sky130_fd_sc_hd__or2_2
*I *5049:A_N I *D sky130_fd_sc_hd__and4bb_2
*I *4990:A I *D sky130_fd_sc_hd__or4_2
*I *5085:Q O *D sky130_fd_sc_hd__dfrtp_2
*CAP
1 *5048:A_N 0.000472633
2 *4315:A_N 0.000175405
3 *4327:A 0
4 *4946:B1 4.87699e-05
5 *5000:A 4.74501e-05
6 *4994:A 0
7 *5049:A_N 0.000234865
8 *4990:A 0.000185419
9 *5085:Q 0.000318267
10 *972:82 0.000229947
11 *972:71 0.00037761
12 *972:65 0.000958746
13 *972:48 0.000313958
14 *972:39 0.000372959
15 *972:4 0.000420283
16 *4315:A_N *4327:B 1.52945e-05
17 *4315:A_N *999:47 0.000201938
18 *4990:A *4990:C 5.4155e-06
19 *4990:A *5236:A 0.000120647
20 *5000:A *1000:61 4.35432e-05
21 *5048:A_N *4999:B1 0.00015639
22 *5048:A_N *5048:B_N 6.00111e-05
23 *5048:A_N *5260:A 3.31103e-05
24 *5048:A_N *973:31 0.000198934
25 *5048:A_N *1002:28 8.34281e-06
26 *5049:A_N *5236:A 0.000224532
27 *5049:A_N *995:35 4.82863e-05
28 *972:39 *5085:RESET_B 6.96579e-05
29 *972:39 *994:27 0
30 *972:48 *5085:D 0
31 *972:65 *5085:D 0
32 *972:65 *999:47 0
33 *972:71 *5085:D 3.09164e-05
34 *972:71 *996:30 9.59798e-05
35 *972:71 *999:47 0.000141626
36 *972:82 *4327:B 2.16389e-05
37 *972:82 *996:30 8.08153e-06
38 *972:82 *999:47 6.28843e-05
39 *4991:A *4990:A 4.91189e-05
40 *4991:A *972:39 0
41 *4991:A *972:48 0
42 *4991:B *4990:A 6.92939e-05
43 *5001:B *972:48 2.97004e-06
44 *5001:B *972:65 7.45881e-05
45 *5048:C *5048:A_N 0.000234674
46 *244:20 *4946:B1 2.77183e-05
47 *244:20 *4990:A 2.4997e-05
48 *248:46 *4315:A_N 2.42236e-05
49 *248:46 *972:82 1.52184e-05
50 *253:16 *4990:A 3.29007e-05
51 *877:12 *972:65 0
52 *879:8 *5000:A 0
53 *879:21 *5000:A 0.000162113
54 *881:8 *5000:A 5.77162e-05
55 *888:10 *972:65 0
56 *971:29 *4315:A_N 0
*RES
1 *5085:Q *972:4 1.6 
2 *972:4 *4990:A 9.44 
3 *972:4 *5049:A_N 6.19 
4 *5085:Q *972:39 7.59 
5 *972:39 *4994:A 3.6 
6 *972:39 *972:48 0.615 
7 *972:48 *5000:A 5.55 
8 *972:48 *972:65 5.675 
9 *972:65 *972:71 7.43 
10 *972:71 *4946:B1 4.395 
11 *972:71 *972:82 1.38 
12 *972:82 *4327:A 3.6 
13 *972:82 *4315:A_N 7.785 
14 *972:65 *5048:A_N 10 
*END

*D_NET *973 0.00901964
*CONN
*I *4949:A I *D sky130_fd_sc_hd__and4_2
*I *4318:A I *D sky130_fd_sc_hd__nand4_2
*I *5002:A_N I *D sky130_fd_sc_hd__and4bb_2
*I *4999:A1 I *D sky130_fd_sc_hd__o31a_2
*I *5050:A I *D sky130_fd_sc_hd__and3_2
*I *4995:A I *D sky130_fd_sc_hd__nor2_2
*I *4990:B I *D sky130_fd_sc_hd__or4_2
*I *4294:A I *D sky130_fd_sc_hd__inv_2
*I *5086:Q O *D sky130_fd_sc_hd__dfrtp_2
*CAP
1 *4949:A 0.000174334
2 *4318:A 0.000131296
3 *5002:A_N 0.000208358
4 *4999:A1 0
5 *5050:A 2.46218e-05
6 *4995:A 0
7 *4990:B 0.000125842
8 *4294:A 0.000125894
9 *5086:Q 8.3697e-05
10 *973:84 0.000501937
11 *973:45 0.000195346
12 *973:41 0.000305069
13 *973:31 0.000565913
14 *973:25 0.00142506
15 *973:10 0.000987627
16 *973:8 0.000280004
17 *4294:A *4329:A1 8.69014e-05
18 *4294:A *1000:94 1.08758e-05
19 *4949:A *1335:DIODE 0
20 *4949:A *994:46 0.000131401
21 *4949:A *1000:29 0.000206824
22 *4990:B *5135:A 0.000163992
23 *4990:B *5236:A 0
24 *4990:B *995:10 0
25 *5002:A_N *4314:A 0
26 *5002:A_N *999:39 0
27 *5002:A_N *999:47 0
28 *5050:A *996:76 4.66108e-05
29 *973:8 *994:46 0.000244511
30 *973:8 *1000:51 0.00021799
31 *973:25 *1000:94 2.8185e-05
32 *973:31 *999:47 0
33 *973:31 *1002:28 5.83121e-06
34 *973:41 *996:76 0.000130103
35 *973:45 *5046:A 4.21314e-05
36 *973:45 *5135:A 0.000179987
37 *973:84 *994:46 0.00056539
38 *973:84 *1000:29 0.000132096
39 *973:84 *1000:31 0.000175207
40 *973:84 *1000:37 8.00728e-05
41 *973:84 *1000:51 3.9442e-05
42 *4316:A1 *973:84 9.37731e-05
43 *4322:B1 *4949:A 0
44 *4941:A2 *4949:A 0
45 *4996:B *4990:B 5.33085e-05
46 *4996:B *973:45 0.000214289
47 *5002:C *5002:A_N 9.42145e-05
48 *5048:A_N *973:31 0.000198934
49 *243:19 *4949:A 0
50 *244:20 *4990:B 0.000130007
51 *877:12 *973:41 0.000114492
52 *886:10 *973:31 0.000170068
53 *886:21 *973:31 4.76659e-05
54 *886:32 *5002:A_N 4.39734e-05
55 *886:32 *973:31 3.31204e-05
56 *886:43 *5002:A_N 8.87475e-05
57 *888:10 *973:31 0
58 *888:10 *973:41 0.000114492
*RES
1 *5086:Q *973:8 6.51 
2 *973:8 *973:10 2 
3 *973:10 *4294:A 4.06 
4 *973:10 *973:25 11.075 
5 *973:25 *973:31 9.545 
6 *973:31 *973:41 7.57 
7 *973:41 *973:45 4.655 
8 *973:45 *4990:B 7.02 
9 *973:45 *4995:A 3.6 
10 *973:41 *5050:A 2.05 
11 *973:31 *4999:A1 1.6 
12 *973:25 *5002:A_N 8.295 
13 *973:8 *973:84 6.735 
14 *973:84 *4318:A 5.43 
15 *973:84 *4949:A 7.53 
*END

*D_NET *974 0.000762072
*CONN
*I *5081:D I *D sky130_fd_sc_hd__dfrtp_2
*I *4949:D I *D sky130_fd_sc_hd__and4_2
*I *4325:X O *D sky130_fd_sc_hd__o21a_2
*CAP
1 *5081:D 9.90705e-05
2 *4949:D 5.19666e-05
3 *4325:X 6.38896e-05
4 *974:8 0.000214927
5 *4949:D *5080:D 1.56428e-05
6 *4949:D *999:33 6.97034e-05
7 *5081:D *1335:DIODE 0.000130714
8 *5081:D *5080:D 0
9 *974:8 *1335:DIODE 0.000116158
10 *974:8 *1000:144 0
*RES
1 *4325:X *974:8 4.98 
2 *974:8 *4949:D 4.74 
3 *974:8 *5081:D 5.745 
*END

*D_NET *975 0.00245116
*CONN
*I *4949:C I *D sky130_fd_sc_hd__and4_2
*I *5082:D I *D sky130_fd_sc_hd__dfrtp_2
*I *4323:X O *D sky130_fd_sc_hd__and3b_2
*CAP
1 *4949:C 0.000397681
2 *5082:D 0.000138163
3 *4323:X 0.000104059
4 *975:10 0.000639903
5 *4949:C *999:25 0
6 *4949:C *999:33 5.062e-06
7 *5082:D *1029:215 4.91927e-05
8 *975:10 *4323:B 0.000124007
9 *975:10 *999:25 0
10 *4323:C *975:10 1.12342e-05
11 *4941:A2 *4949:C 8.7373e-06
12 *4941:B1 *975:10 0.000203762
13 *4942:B1 *975:10 0.000220912
14 *4949:B *4949:C 0.000266129
15 *5139:A *4949:C 9.50342e-06
16 *5139:A *5082:D 0.000138551
17 *243:25 *975:10 1.61387e-06
18 *967:62 *5082:D 7.74981e-05
19 *967:62 *975:10 5.51574e-05
*RES
1 *4323:X *975:10 7.5225 
2 *975:10 *5082:D 7.1475 
3 *975:10 *4949:C 9.6525 
*END

*D_NET *976 0.00030732
*CONN
*I *5083:D I *D sky130_fd_sc_hd__dfrtp_2
*I *4942:X O *D sky130_fd_sc_hd__o21a_2
*CAP
1 *5083:D 8.09591e-05
2 *4942:X 8.09591e-05
3 *5083:D *5083:RESET_B 0.000145402
4 *847:12 *5083:D 0
*RES
1 *4942:X *5083:D 8.775 
*END

*D_NET *977 0.000261866
*CONN
*I *5084:D I *D sky130_fd_sc_hd__dfrtp_2
*I *4945:Y O *D sky130_fd_sc_hd__nor2_2
*CAP
1 *5084:D 0.000106282
2 *4945:Y 0.000106282
3 *5084:D *1121:29 0
4 *5069:CLK *5084:D 3.09164e-05
5 *5148:A *5084:D 1.83847e-05
*RES
1 *4945:Y *5084:D 8.775 
*END

*D_NET *978 0.00162054
*CONN
*I *5085:D I *D sky130_fd_sc_hd__dfrtp_2
*I *4948:X O *D sky130_fd_sc_hd__and3_2
*CAP
1 *5085:D 0.000479874
2 *4948:X 0.000479874
3 *5085:D *4992:B 0.00011852
4 *5085:D *4992:C 3.76596e-05
5 *5085:D *994:27 3.68596e-05
6 *5085:D *996:30 0.000181376
7 *5085:D *999:47 4.2857e-05
8 *1293:DIODE *5085:D 0.000115762
9 *4948:B *5085:D 4.85494e-05
10 *245:57 *5085:D 4.82919e-05
11 *972:48 *5085:D 0
12 *972:65 *5085:D 0
13 *972:71 *5085:D 3.09164e-05
*RES
1 *4948:X *5085:D 16.815 
*END

*D_NET *979 0.0004244
*CONN
*I *5086:D I *D sky130_fd_sc_hd__dfrtp_2
*I *4330:Y O *D sky130_fd_sc_hd__a21oi_2
*CAP
1 *5086:D 0.0001566
2 *4330:Y 0.0001566
3 *5086:D *987:159 0
4 *4328:B *5086:D 2.46089e-05
5 *962:27 *5086:D 8.65905e-05
6 *967:16 *5086:D 0
*RES
1 *4330:Y *5086:D 9.63 
*END

*D_NET *980 0.00083951
*CONN
*I *5080:D I *D sky130_fd_sc_hd__dfrtp_2
*I *4949:X O *D sky130_fd_sc_hd__and4_2
*CAP
1 *5080:D 0.000399608
2 *4949:X 0.000399608
3 *5080:D *5080:RESET_B 0
4 *5080:D *999:33 2.46512e-05
5 *4949:D *5080:D 1.56428e-05
6 *5081:D *5080:D 0
7 *5140:A *5080:D 0
*RES
1 *4949:X *5080:D 12.54 
*END

*D_NET *981 0.00650488
*CONN
*I *4331:C I *D sky130_fd_sc_hd__and3b_2
*I *4295:A I *D sky130_fd_sc_hd__inv_2
*I *4320:C I *D sky130_fd_sc_hd__and3b_2
*I *4999:B1 I *D sky130_fd_sc_hd__o31a_2
*I *5049:C I *D sky130_fd_sc_hd__and4bb_2
*I *5169:X O *D sky130_fd_sc_hd__clkdlybuf4s25_1
*CAP
1 *4331:C 8.4196e-06
2 *4295:A 2.08101e-05
3 *4320:C 0.000187111
4 *4999:B1 0.000396942
5 *5049:C 1.87729e-05
6 *5169:X 0.000349054
7 *981:50 0.000468072
8 *981:44 0.000523705
9 *981:12 0.000509502
10 *981:6 0.000697976
11 *4320:C *4321:A 1.43717e-05
12 *4320:C *4321:B 1.43717e-05
13 *4320:C *5153:A 0.000255382
14 *4320:C *1073:12 0
15 *4331:C *5043:A 2.87433e-05
16 *4999:B1 *4312:A 0.000116853
17 *4999:B1 *5028:A1 7.06865e-05
18 *4999:B1 *5046:A 0.000180682
19 *4999:B1 *5048:B_N 0.00015639
20 *4999:B1 *5135:A 9.50342e-06
21 *4999:B1 *5236:A 0.000230429
22 *4999:B1 *5243:A 0.000137571
23 *4999:B1 *5262:A 2.11084e-05
24 *5049:C *995:35 4.66108e-05
25 *5049:C *995:65 4.82919e-05
26 *981:6 *5268:A 0.00011964
27 *981:6 *995:65 4.66108e-05
28 *981:6 *995:78 8.34281e-06
29 *981:12 *995:35 4.66108e-05
30 *981:12 *995:39 2.92496e-05
31 *981:12 *995:65 7.40446e-05
32 *981:44 *4332:C_N 0.000104287
33 *981:44 *5043:A 0.000176002
34 *981:44 *5152:A 1.26626e-05
35 *981:44 *995:39 0.000103192
36 *981:44 *1018:14 5.98004e-06
37 *981:44 *1040:10 9.30787e-05
38 *981:44 *1062:8 0
39 *981:50 *5100:A 8.40213e-05
40 *981:50 *5206:A 4.29198e-05
41 *981:50 *5212:A 0
42 *981:50 *1018:14 4.40899e-05
43 *981:50 *1040:10 9.30717e-05
44 *1132:DIODE *4320:C 0
45 *5020:B *4999:B1 0
46 *5020:B *981:44 9.37731e-05
47 *5043:B *981:44 0
48 *5043:C *4331:C 2.87433e-05
49 *5048:A_N *4999:B1 0.00015639
50 *5049:D *5049:C 8.65961e-05
51 *5050:C *4999:B1 8.39849e-05
52 *880:10 *4999:B1 0.000349587
53 *893:12 *4999:B1 3.38895e-05
54 *903:22 *4999:B1 5.7266e-05
55 *903:22 *981:12 1.94805e-05
*RES
1 *5169:X *981:6 6.88 
2 *981:6 *981:12 3.755 
3 *981:12 *5049:C 4.395 
4 *981:12 *4999:B1 19.06 
5 *981:6 *981:44 8.225 
6 *981:44 *981:50 6.59 
7 *981:50 *4320:C 9.29375 
8 *981:50 *4295:A 1.96 
9 *981:44 *4331:C 3.8775 
*END

*D_NET *982 0.0178934
*CONN
*I *4511:B I *D sky130_fd_sc_hd__nand2_2
*I *4463:A1 I *D sky130_fd_sc_hd__a21oi_2
*I *4514:A I *D sky130_fd_sc_hd__nand2_2
*I *1171:DIODE I *D sky130_fd_sc_hd__diode_2
*I *1163:DIODE I *D sky130_fd_sc_hd__diode_2
*I *4371:A I *D sky130_fd_sc_hd__xnor2_2
*I *1141:DIODE I *D sky130_fd_sc_hd__diode_2
*I *1155:DIODE I *D sky130_fd_sc_hd__diode_2
*I *4516:B1 I *D sky130_fd_sc_hd__a31o_2
*I *4536:A I *D sky130_fd_sc_hd__or2_2
*I *1167:DIODE I *D sky130_fd_sc_hd__diode_2
*I *1178:DIODE I *D sky130_fd_sc_hd__diode_2
*I *4521:B I *D sky130_fd_sc_hd__or2_2
*I *1174:DIODE I *D sky130_fd_sc_hd__diode_2
*I *4551:A I *D sky130_fd_sc_hd__xnor2_2
*I *4553:A1 I *D sky130_fd_sc_hd__a21oi_2
*I *1183:DIODE I *D sky130_fd_sc_hd__diode_2
*I *1182:DIODE I *D sky130_fd_sc_hd__diode_2
*I *1367:DIODE I *D sky130_fd_sc_hd__diode_2
*I *5170:X O *D sky130_fd_sc_hd__buf_2
*CAP
1 *4511:B 2.9853e-05
2 *4463:A1 5.38059e-05
3 *4514:A 0
4 *1171:DIODE 4.63712e-05
5 *1163:DIODE 2.9853e-05
6 *4371:A 0
7 *1141:DIODE 9.30696e-05
8 *1155:DIODE 0.000145377
9 *4516:B1 0.000161208
10 *4536:A 0
11 *1167:DIODE 0.000181721
12 *1178:DIODE 4.54581e-05
13 *4521:B 0
14 *1174:DIODE 0
15 *4551:A 3.76639e-05
16 *4553:A1 0
17 *1183:DIODE 7.56277e-05
18 *1182:DIODE 5.85846e-05
19 *1367:DIODE 0
20 *5170:X 8.44513e-05
21 *982:178 7.3429e-05
22 *982:152 9.30696e-05
23 *982:139 0.00171757
24 *982:106 0.000401775
25 *982:93 0.000454749
26 *982:87 0.0022859
27 *982:78 0.000653796
28 *982:65 0.00050554
29 *982:42 0.000305269
30 *982:34 0.000391704
31 *982:30 0.000472273
32 *982:21 0.000457211
33 *982:17 0.000649325
34 *982:6 0.000494772
35 *1167:DIODE *1168:DIODE 0.000136037
36 *1171:DIODE *4514:B 4.82863e-05
37 *1171:DIODE *1117:107 0.000163199
38 *1178:DIODE *1117:34 2.11084e-05
39 *1178:DIODE *1117:41 9.80032e-06
40 *1182:DIODE *1020:18 3.00381e-05
41 *1182:DIODE *1020:24 3.00381e-05
42 *4463:A1 *1095:23 5.63701e-05
43 *4516:B1 *993:28 0.000579417
44 *982:6 *993:10 4.82919e-05
45 *982:17 *993:10 0.00041967
46 *982:17 *1034:8 0
47 *982:17 *1117:34 9.0308e-05
48 *982:21 *1185:DIODE 0
49 *982:21 *1020:14 0
50 *982:21 *1034:8 0
51 *982:21 *1034:14 0
52 *982:30 *1020:16 7.35729e-05
53 *982:30 *1020:18 6.90876e-05
54 *982:34 *1185:DIODE 0
55 *982:34 *1020:14 2.86623e-05
56 *982:34 *1020:24 0
57 *982:42 *1020:26 0
58 *982:65 *1020:16 4.21973e-05
59 *982:78 *1020:14 0
60 *982:87 *4521:A 5.12969e-06
61 *982:87 *1034:29 0.000147783
62 *982:106 *993:28 2.7441e-05
63 *982:106 *1117:41 3.00381e-05
64 *982:139 *1150:DIODE 7.1245e-05
65 *982:139 *1034:29 0.00297322
66 *982:178 *1168:DIODE 4.99619e-05
67 *982:178 *1117:107 4.60584e-05
68 *1366:DIODE *982:6 0.000198051
69 *1366:DIODE *982:17 0.000164874
70 *4371:B *1155:DIODE 0.000116853
71 *4371:B *982:139 3.09233e-05
72 *4463:A2 *4463:A1 0.000122337
73 *4463:B1 *4463:A1 4.99619e-05
74 *4498:B *982:139 0
75 *4499:A *982:139 0
76 *4501:B *982:139 7.81876e-05
77 *4503:B1 *1141:DIODE 2.11084e-05
78 *4503:B1 *982:139 4.70343e-05
79 *4523:B *982:17 0
80 *4537:A *4516:B1 0.00012657
81 *4537:B *4516:B1 8.8266e-05
82 *4538:B *982:93 0
83 *4539:B *982:87 4.82863e-05
84 *4540:A *982:93 0.00018305
85 *4540:B *982:93 5.11148e-06
86 *4548:B *982:139 0
87 *4549:B *982:78 0
88 *4553:B1 *982:34 0.000109995
89 *4553:B1 *982:42 0.000234385
90 *4555:A_N *982:139 0.000151343
91 *4564:A *982:42 0
92 *4572:B *982:139 0
93 *4596:B1 *982:139 0
94 *4597:C *982:139 0.000160658
95 *396:10 *982:139 0
96 *415:10 *982:139 0
97 *416:8 *982:139 0
98 *432:10 *982:17 0
99 *434:24 *1171:DIODE 6.20787e-05
100 *434:24 *982:178 0.000164874
101 *435:23 *4516:B1 4.82863e-05
102 *436:6 *4516:B1 3.00381e-05
103 *454:18 *982:93 0.000206824
104 *458:8 *982:93 0
105 *459:10 *982:93 8.42239e-05
106 *460:10 *982:93 4.70343e-05
107 *460:10 *982:139 8.65905e-05
108 *473:12 *982:139 0
109 *474:10 *982:42 3.00381e-05
*RES
1 *5170:X *982:6 3.43 
2 *982:6 *1367:DIODE 1.6 
3 *982:6 *982:17 11.36 
4 *982:17 *982:21 5.93 
5 *982:21 *1182:DIODE 2.395 
6 *982:21 *982:30 2.175 
7 *982:30 *982:34 4.655 
8 *982:34 *982:42 6.5 
9 *982:42 *1183:DIODE 2.74 
10 *982:42 *4553:A1 1.6 
11 *982:34 *4551:A 4.05 
12 *982:30 *982:65 2.175 
13 *982:65 *1174:DIODE 1.6 
14 *982:65 *982:78 7.81 
15 *982:78 *4521:B 1.6 
16 *982:78 *982:87 4.515 
17 *982:87 *982:93 11.245 
18 *982:93 *1178:DIODE 2.395 
19 *982:93 *982:106 1.86 
20 *982:106 *1167:DIODE 7.775 
21 *982:106 *4536:A 1.6 
22 *982:106 *4516:B1 7.24 
23 *982:87 *982:139 41.45 
24 *982:139 *1155:DIODE 5.43 
25 *982:139 *982:152 2 
26 *982:152 *1141:DIODE 3.085 
27 *982:152 *4371:A 1.6 
28 *982:17 *1163:DIODE 3.6 
29 *1167:DIODE *982:178 3.085 
30 *982:178 *1171:DIODE 3.445 
31 *982:178 *4514:A 1.6 
32 *1155:DIODE *4463:A1 5.03 
33 *1163:DIODE *4511:B 3.65 
*END

*D_NET *983 0.0205542
*CONN
*I *4755:A2 I *D sky130_fd_sc_hd__o211a_2
*I *4762:A2 I *D sky130_fd_sc_hd__o211a_2
*I *4769:A2 I *D sky130_fd_sc_hd__o211a_2
*I *4814:A2 I *D sky130_fd_sc_hd__o211a_2
*I *4806:A2 I *D sky130_fd_sc_hd__o211a_2
*I *4736:A2 I *D sky130_fd_sc_hd__o21ai_2
*I *4790:A2 I *D sky130_fd_sc_hd__o211a_2
*I *4776:A2 I *D sky130_fd_sc_hd__o211a_2
*I *4785:A2 I *D sky130_fd_sc_hd__o211a_2
*I *4746:A2 I *D sky130_fd_sc_hd__o211a_2
*I *5125:X O *D sky130_fd_sc_hd__clkdlybuf4s25_1
*CAP
1 *4755:A2 2.88915e-05
2 *4762:A2 0
3 *4769:A2 0
4 *4814:A2 0.000129887
5 *4806:A2 0
6 *4736:A2 0
7 *4790:A2 2.09983e-05
8 *4776:A2 0
9 *4785:A2 5.63847e-05
10 *4746:A2 4.75134e-05
11 *5125:X 0.00023368
12 *983:105 0.0011406
13 *983:90 0.0015121
14 *983:77 0.00139296
15 *983:60 0.00118667
16 *983:43 0.000628461
17 *983:39 0.000572651
18 *983:35 0.000852166
19 *983:23 0.000786546
20 *983:6 0.000503351
21 *4746:A2 *1122:12 5.83121e-06
22 *4755:A2 *1203:DIODE 4.66108e-05
23 *4755:A2 *4755:A1 1.99584e-05
24 *4755:A2 *985:29 1.32776e-05
25 *4755:A2 *1126:28 9.53428e-06
26 *4785:A2 *4785:B1 0.000156728
27 *4785:A2 *5061:RESET_B 0.000163204
28 *4790:A2 *4790:A1 0
29 *4814:A2 *4814:A1 0.000562926
30 *4814:A2 *4814:B1 0.000553422
31 *983:6 *1198:DIODE 0.000137397
32 *983:6 *1122:12 4.41506e-05
33 *983:23 *1122:30 1.07797e-05
34 *983:23 *1126:20 0.000103242
35 *983:35 *1203:DIODE 2.86265e-06
36 *983:35 *985:48 7.30547e-05
37 *983:35 *985:63 4.55864e-06
38 *983:35 *1119:74 0.000239883
39 *983:35 *1122:65 0.000185411
40 *983:35 *1122:71 7.06865e-05
41 *983:35 *1126:28 0.000425134
42 *983:39 *985:63 7.88433e-05
43 *983:39 *1122:83 0
44 *983:39 *1126:28 8.7152e-06
45 *983:39 *1126:36 0.000811832
46 *983:43 *4785:B1 2.92496e-05
47 *983:43 *4786:A1 0
48 *983:43 *1119:44 0
49 *983:43 *1122:83 2.97004e-06
50 *983:60 *4785:B1 4.66108e-05
51 *983:60 *5061:RESET_B 0.000783571
52 *983:77 *4776:A1 4.62224e-05
53 *983:77 *5055:RESET_B 4.85206e-05
54 *983:77 *5061:RESET_B 0.000188108
55 *983:77 *5156:A 4.99619e-05
56 *983:77 *5193:A 5.0751e-05
57 *983:77 *1023:16 0.000146477
58 *983:77 *1023:29 0.000112349
59 *983:77 *1126:88 0.000231316
60 *983:90 *4736:B1 5.55927e-05
61 *983:90 *4790:A1 0.000134239
62 *983:90 *1126:120 9.27255e-06
63 *983:105 *4814:A1 9.50342e-06
64 *983:105 *4814:B1 9.50342e-06
65 *983:105 *4932:B1 9.82856e-06
66 *983:105 *1118:62 0
67 *983:105 *1122:183 0
68 *983:105 *1122:201 0
69 *983:105 *1124:100 0
70 *983:105 *1124:111 0
71 *983:105 *1124:124 0
72 *983:105 *1126:120 0.00200163
73 *1302:DIODE *983:105 0
74 *4744:B *983:23 0.00010501
75 *4744:B *983:35 1.07797e-05
76 *4746:C1 *983:23 9.14049e-05
77 *4756:B1 *4755:A2 1.21231e-05
78 *4756:B1 *983:23 0.000130707
79 *4756:B1 *983:35 0.000123702
80 *4774:B1 *983:60 2.63406e-05
81 *4778:B1 *983:60 0
82 *4778:B1 *983:77 4.92062e-05
83 *4780:A2 *983:77 0.0001249
84 *4782:B *983:60 4.82919e-05
85 *4785:C1 *983:60 0.000189334
86 *4792:A2 *983:77 0.000123225
87 *4792:B1 *983:77 0.000104162
88 *4792:B1 *983:90 1.72386e-05
89 *4794:A2 *983:77 0.000520052
90 *4924:B *983:105 0
91 *4926:A1 *983:105 0
92 *4934:A2 *983:105 0.000108585
93 *5125:A *983:6 0.000119756
94 *375:54 *4746:A2 2.67184e-05
95 *657:10 *983:90 0.000278117
96 *678:10 *983:39 0.000484176
97 *678:12 *983:39 0.000157595
98 *678:12 *983:43 0.000187044
99 *905:10 *983:105 0.000104287
100 *905:16 *983:105 0.00018305
101 *927:23 *4746:A2 8.40213e-05
102 *927:23 *983:6 0.000107205
103 *927:25 *983:23 6.80757e-06
104 *927:39 *983:23 0.000176002
105 *927:39 *983:35 1.07797e-05
106 *932:30 *4785:A2 1.34594e-05
107 *932:30 *983:60 4.35348e-05
*RES
1 *5125:X *983:6 5.845 
2 *983:6 *4746:A2 2.755 
3 *983:6 *983:23 8.015 
4 *983:23 *983:35 14.845 
5 *983:35 *983:39 10.5 
6 *983:39 *983:43 6.695 
7 *983:43 *4785:A2 3.7 
8 *983:43 *983:60 8.865 
9 *983:60 *4776:A2 1.6 
10 *983:60 *983:77 19.68 
11 *983:77 *4790:A2 1.96 
12 *983:77 *983:90 7.29 
13 *983:90 *4736:A2 1.6 
14 *983:90 *983:105 27.02 
15 *983:105 *4806:A2 3.6 
16 *983:105 *4814:A2 10.08 
17 *983:39 *4769:A2 3.6 
18 *983:35 *4762:A2 3.6 
19 *983:23 *4755:A2 4.41 
*END

*D_NET *984 0.0178898
*CONN
*I *4915:A1 I *D sky130_fd_sc_hd__o211a_2
*I *4857:A1 I *D sky130_fd_sc_hd__o211a_2
*I *4889:A1 I *D sky130_fd_sc_hd__o211a_2
*I *4881:A1 I *D sky130_fd_sc_hd__o211a_2
*I *4866:A1 I *D sky130_fd_sc_hd__o211a_2
*I *4833:A1 I *D sky130_fd_sc_hd__o211a_2
*I *4843:A1 I *D sky130_fd_sc_hd__o211a_2
*I *4828:A1 I *D sky130_fd_sc_hd__o211a_2
*I *4851:A1 I *D sky130_fd_sc_hd__o211a_2
*I *4873:A1 I *D sky130_fd_sc_hd__o211a_2
*I *5126:X O *D sky130_fd_sc_hd__clkdlybuf4s25_1
*CAP
1 *4915:A1 0
2 *4857:A1 5.11162e-06
3 *4889:A1 0.000204696
4 *4881:A1 3.29957e-06
5 *4866:A1 5.14063e-06
6 *4833:A1 0.000167749
7 *4843:A1 3.12846e-05
8 *4828:A1 0.000182179
9 *4851:A1 0.000228649
10 *4873:A1 0
11 *5126:X 0.000119408
12 *984:74 0.00245681
13 *984:53 0.00261968
14 *984:47 0.000543913
15 *984:36 0.000436801
16 *984:30 0.000264191
17 *984:28 0.000965811
18 *984:20 0.000920686
19 *984:12 0.000321294
20 *4828:A1 *1236:DIODE 4.43871e-06
21 *4828:A1 *4828:A2 6.21023e-05
22 *4828:A1 *987:159 1.20741e-05
23 *4828:A1 *988:167 0.000266268
24 *4828:A1 *1127:77 0.0004485
25 *4833:A1 *4833:A2 0.000515291
26 *4833:A1 *988:163 0.000268395
27 *4833:A1 *988:165 7.39416e-05
28 *4833:A1 *988:167 3.59531e-06
29 *4833:A1 *1025:6 1.12643e-05
30 *4833:A1 *1127:77 4.27167e-05
31 *4843:A1 *4843:A2 3.34044e-05
32 *4851:A1 *4851:A2 6.46393e-05
33 *4851:A1 *1008:40 1.60614e-05
34 *4851:A1 *1125:59 9.34171e-06
35 *4851:A1 *1127:47 0.000391409
36 *4857:A1 *4915:A2 1.12643e-05
37 *4866:A1 *1127:30 1.20741e-05
38 *4881:A1 *1127:22 1.12643e-05
39 *4889:A1 *4889:A2 0.000743341
40 *4889:A1 *988:223 0.00056362
41 *984:12 *1120:100 9.55201e-05
42 *984:12 *1123:99 2.03578e-05
43 *984:12 *1123:105 0.000139937
44 *984:20 *4916:A2 2.14129e-05
45 *984:20 *1120:96 0.000286642
46 *984:20 *1120:100 0.000121044
47 *984:20 *1123:105 1.6503e-05
48 *984:20 *1125:22 0.000266727
49 *984:28 *1120:96 4.01535e-05
50 *984:28 *1125:22 5.53249e-06
51 *984:30 *4889:A2 3.23112e-05
52 *984:30 *1127:12 0.000136884
53 *984:36 *4873:B1 2.58137e-05
54 *984:36 *1125:34 0.000142533
55 *984:36 *1127:12 8.53113e-06
56 *984:36 *1127:22 0.000244014
57 *984:36 *1127:30 9.50342e-06
58 *984:47 *4873:B1 6.07768e-05
59 *984:47 *986:88 0.000110038
60 *984:47 *988:32 2.14129e-05
61 *984:47 *988:47 0.000160658
62 *984:47 *1125:34 2.92496e-05
63 *984:47 *1125:40 0.000280041
64 *984:47 *1127:30 5.66018e-05
65 *984:53 *1335:DIODE 0.000108523
66 *984:53 *988:32 2.05641e-05
67 *984:53 *1125:40 3.59531e-06
68 *984:74 *1335:DIODE 0.0007374
69 *984:74 *1127:66 0
70 *4741:C *4881:A1 1.12643e-05
71 *4848:A *4851:A1 7.33759e-05
72 *4849:A *4851:A1 5.85589e-05
73 *4857:C1 *984:28 0
74 *4874:B2 *984:36 2.41437e-05
75 *4874:B2 *984:47 7.17141e-05
76 *4882:B1 *4889:A1 5.43042e-05
77 *4916:B1 *984:12 3.59997e-05
78 *4960:B *4843:A1 5.25641e-05
79 *4972:B *4828:A1 1.12643e-05
80 *4973:D_N *984:53 0.000145982
81 *4973:D_N *984:74 0.000673593
82 *5302:A *4851:A1 2.97206e-06
83 *373:31 *4851:A1 1.58784e-05
84 *573:8 *984:12 0
85 *653:26 *4889:A1 3.29528e-05
86 *653:26 *984:30 0.000163667
87 *653:26 *984:36 5.16418e-05
88 *656:83 *984:12 0
89 *768:12 *984:36 6.55328e-05
90 *914:32 *4851:A1 0
91 *914:60 *4851:A1 0.000100429
*RES
1 *5126:X *984:12 9.15125 
2 *984:12 *984:20 7.77875 
3 *984:20 *984:28 2.5743 
4 *984:28 *984:30 2.0175 
5 *984:30 *984:36 8.2025 
6 *984:36 *4873:A1 1.6 
7 *984:36 *984:47 9.1475 
8 *984:47 *984:53 1.4697 
9 *984:53 *4851:A1 10.2425 
10 *984:53 *984:74 5.72373 
11 *984:74 *4828:A1 9.67875 
12 *984:74 *4843:A1 4.2675 
13 *984:74 *4833:A1 10.1888 
14 *984:47 *4866:A1 3.70875 
15 *984:30 *4881:A1 3.70875 
16 *984:28 *4889:A1 12.3562 
17 *984:20 *4857:A1 3.70875 
18 *984:12 *4915:A1 1.6 
*END

*D_NET *985 0.0217188
*CONN
*I *4790:A1 I *D sky130_fd_sc_hd__o211a_2
*I *4814:A1 I *D sky130_fd_sc_hd__o211a_2
*I *4806:A1 I *D sky130_fd_sc_hd__o211a_2
*I *4736:A1 I *D sky130_fd_sc_hd__o21ai_2
*I *4776:A1 I *D sky130_fd_sc_hd__o211a_2
*I *4769:A1 I *D sky130_fd_sc_hd__o211a_2
*I *4785:A1 I *D sky130_fd_sc_hd__o211a_2
*I *4762:A1 I *D sky130_fd_sc_hd__o211a_2
*I *4755:A1 I *D sky130_fd_sc_hd__o211a_2
*I *4746:A1 I *D sky130_fd_sc_hd__o211a_2
*I *5127:X O *D sky130_fd_sc_hd__clkdlybuf4s25_1
*CAP
1 *4790:A1 0.000102014
2 *4814:A1 0.000155976
3 *4806:A1 0
4 *4736:A1 0.000346985
5 *4776:A1 0.00022445
6 *4769:A1 3.58544e-05
7 *4785:A1 0.000164114
8 *4762:A1 1.33834e-05
9 *4755:A1 1.99891e-05
10 *4746:A1 0.000230837
11 *5127:X 0
12 *985:133 0.00140374
13 *985:116 0.00352947
14 *985:95 0.00281494
15 *985:65 0.000253684
16 *985:63 0.00107861
17 *985:48 0.000813401
18 *985:29 0.000674636
19 *985:4 0.000556603
20 *4736:A1 *1126:120 0
21 *4746:A1 *4747:A1 8.89751e-05
22 *4746:A1 *1013:38 0.0001947
23 *4746:A1 *1126:10 4.82863e-05
24 *4755:A1 *1203:DIODE 1.31202e-05
25 *4755:A1 *1126:28 1.92486e-06
26 *4769:A1 *4769:B1 3.48139e-06
27 *4776:A1 *1212:DIODE 0.000112147
28 *4776:A1 *4778:C1 2.0851e-06
29 *4776:A1 *5061:RESET_B 2.73147e-05
30 *4785:A1 *4784:B 6.10014e-05
31 *4785:A1 *4786:A1 1.88904e-05
32 *4785:A1 *5061:RESET_B 5.10121e-06
33 *4785:A1 *1119:44 0.000288177
34 *4785:A1 *1122:83 4.66826e-05
35 *4785:A1 *1122:87 0.00010954
36 *4790:A1 *4736:B1 8.8266e-05
37 *4790:A1 *1126:101 0.000449024
38 *4814:A1 *4807:C1 5.23362e-05
39 *4814:A1 *987:112 6.03947e-06
40 *4814:A1 *987:125 0.00017688
41 *4814:A1 *987:136 0.000330375
42 *985:29 *1203:DIODE 0.000155907
43 *985:29 *1210:DIODE 0.000137571
44 *985:29 *5143:A 0.000436394
45 *985:48 *1210:DIODE 0.000438249
46 *985:63 *1210:DIODE 0
47 *985:65 *1126:36 1.03423e-05
48 *985:65 *1126:51 4.92935e-05
49 *985:95 *1126:51 1.47256e-05
50 *985:116 *990:93 9.92913e-05
51 *985:116 *1024:37 0.00011335
52 *985:133 *987:112 8.11372e-05
53 *985:133 *1024:37 0
54 *985:133 *1024:44 0
55 *985:133 *1126:120 0
56 *4706:B2 *985:63 0.000172845
57 *4744:B *985:48 1.50624e-05
58 *4747:A2 *4746:A1 0.000414254
59 *4747:B1 *4746:A1 0.000114492
60 *4755:A2 *4755:A1 1.99584e-05
61 *4755:A2 *985:29 1.32776e-05
62 *4756:B1 *4755:A1 2.45744e-05
63 *4756:B1 *985:29 2.18022e-05
64 *4756:B1 *985:48 2.08258e-07
65 *4763:B2 *4762:A1 7.24346e-05
66 *4763:B2 *985:48 3.74161e-05
67 *4769:C1 *985:63 0.000116158
68 *4776:C1 *4776:A1 0
69 *4790:A2 *4790:A1 0
70 *4792:B1 *4790:A1 0.000112414
71 *4803:B *985:133 1.01661e-05
72 *4804:A *985:133 9.71067e-05
73 *4807:B1 *4814:A1 0
74 *4807:B1 *985:133 0
75 *4814:A2 *4814:A1 0.000562926
76 *4931:C *985:133 0.000118513
77 *4965:A *985:29 0
78 *4968:A1 *985:116 0.000102049
79 *5055:CLK *985:116 2.3706e-05
80 *375:54 *4746:A1 7.24402e-05
81 *626:31 *985:116 0.000131704
82 *635:12 *4762:A1 7.17141e-05
83 *635:12 *985:48 0.000347922
84 *657:10 *4790:A1 0.000138175
85 *664:18 *985:63 0
86 *678:10 *985:63 0.000273508
87 *678:12 *985:63 3.57768e-05
88 *711:23 *985:133 0.000284569
89 *909:20 *4814:A1 1.12643e-05
90 *927:23 *4746:A1 4.45565e-05
91 *927:39 *985:48 0.000319168
92 *927:43 *985:48 8.20028e-05
93 *927:45 *985:48 2.10582e-05
94 *930:73 *4769:A1 0
95 *930:73 *4785:A1 0.000160635
96 *930:73 *985:65 0.000184718
97 *931:21 *4776:A1 0
98 *931:40 *4776:A1 0
99 *931:40 *985:95 2.05056e-05
100 *931:40 *985:116 0.000117116
101 *931:44 *985:95 0.000439363
102 *931:46 *985:63 9.50342e-06
103 *932:30 *4785:A1 1.12643e-05
104 *953:12 *985:133 5.7177e-05
105 *964:16 *985:29 0.00011903
106 *964:27 *985:29 0.000236002
107 *965:38 *985:116 4.85355e-05
108 *965:167 *4814:A1 6.03947e-06
109 *983:35 *985:48 7.30547e-05
110 *983:35 *985:63 4.55864e-06
111 *983:39 *985:63 7.88433e-05
112 *983:77 *4776:A1 4.62224e-05
113 *983:90 *4790:A1 0.000134239
114 *983:105 *4814:A1 9.50342e-06
*RES
1 *5127:X *985:4 1.6 
2 *985:4 *4746:A1 12.0575 
3 *985:4 *985:29 13.3488 
4 *985:29 *4755:A1 2.185 
5 *985:29 *985:48 13.7987 
6 *985:48 *4762:A1 2.2675 
7 *985:48 *985:63 14.665 
8 *985:63 *985:65 1.83 
9 *985:65 *4785:A1 10.8687 
10 *985:65 *4769:A1 2.28625 
11 *985:63 *985:95 7.815 
12 *985:95 *4776:A1 9.46625 
13 *985:95 *985:116 26.5925 
14 *985:116 *4736:A1 7.1475 
15 *985:116 *985:133 23.7087 
16 *985:133 *4806:A1 1.6 
17 *985:133 *4814:A1 12.425 
18 *4736:A1 *4790:A1 8.8175 
*END

*D_NET *986 0.0315968
*CONN
*I *4764:A1 I *D sky130_fd_sc_hd__a21oi_2
*I *4926:B1 I *D sky130_fd_sc_hd__o21a_2
*I *4932:B1 I *D sky130_fd_sc_hd__o21a_2
*I *4799:B1 I *D sky130_fd_sc_hd__o21a_2
*I *1205:DIODE I *D sky130_fd_sc_hd__diode_2
*I *1277:DIODE I *D sky130_fd_sc_hd__diode_2
*I *4919:B1 I *D sky130_fd_sc_hd__o21ai_2
*I *1282:DIODE I *D sky130_fd_sc_hd__diode_2
*I *1286:DIODE I *D sky130_fd_sc_hd__diode_2
*I *4938:B1 I *D sky130_fd_sc_hd__o21a_2
*I *1290:DIODE I *D sky130_fd_sc_hd__diode_2
*I *1222:DIODE I *D sky130_fd_sc_hd__diode_2
*I *4821:A1 I *D sky130_fd_sc_hd__a31o_2
*I *4859:A1 I *D sky130_fd_sc_hd__a21oi_2
*I *1255:DIODE I *D sky130_fd_sc_hd__diode_2
*I *4875:A1 I *D sky130_fd_sc_hd__a21oi_2
*I *1344:DIODE I *D sky130_fd_sc_hd__diode_2
*I *1265:DIODE I *D sky130_fd_sc_hd__diode_2
*I *4897:B1 I *D sky130_fd_sc_hd__o21ai_2
*I *1232:DIODE I *D sky130_fd_sc_hd__diode_2
*I *1248:DIODE I *D sky130_fd_sc_hd__diode_2
*I *5128:X O *D sky130_fd_sc_hd__clkdlybuf4s25_1
*CAP
1 *4764:A1 6.73138e-05
2 *4926:B1 7.25859e-05
3 *4932:B1 0.000129978
4 *4799:B1 2.08101e-05
5 *1205:DIODE 0.00134357
6 *1277:DIODE 0
7 *4919:B1 0.000155921
8 *1282:DIODE 0.000738222
9 *1286:DIODE 0.000640389
10 *4938:B1 3.29903e-06
11 *1290:DIODE 0.000118557
12 *1222:DIODE 0.000533272
13 *4821:A1 0
14 *4859:A1 0
15 *1255:DIODE 4.30794e-05
16 *4875:A1 4.64782e-05
17 *1344:DIODE 0.000139471
18 *1265:DIODE 1.17375e-05
19 *4897:B1 0
20 *1232:DIODE 0.00142756
21 *1248:DIODE 0.000429027
22 *5128:X 0.000104375
23 *986:227 0.00138229
24 *986:154 0.000171703
25 *986:152 0.000809448
26 *986:141 0.00076245
27 *986:139 0.000930027
28 *986:135 0.000447484
29 *986:133 0.000547793
30 *986:122 0.000576465
31 *986:88 0.00116697
32 *986:64 0.00110963
33 *986:38 1.17375e-05
34 *986:14 0.00207915
35 *986:10 0.000436007
36 *986:6 0.000304023
37 *1205:DIODE *1309:DIODE 9.71067e-05
38 *1205:DIODE *1122:71 3.74161e-05
39 *1205:DIODE *1122:77 0.000123225
40 *1205:DIODE *1122:162 3.96653e-05
41 *1205:DIODE *1122:183 6.71882e-05
42 *1222:DIODE *1122:183 0.000607676
43 *1232:DIODE *1250:DIODE 0.000230429
44 *1232:DIODE *4726:A2 6.65787e-05
45 *1232:DIODE *988:66 9.37731e-05
46 *1232:DIODE *992:86 1.01152e-05
47 *1248:DIODE *1250:DIODE 0.000273966
48 *1248:DIODE *4860:A2 2.75145e-05
49 *1248:DIODE *994:132 0.000102642
50 *1248:DIODE *994:142 0.000303575
51 *1248:DIODE *1124:162 9.27255e-06
52 *1255:DIODE *1009:51 3.23981e-05
53 *1282:DIODE *1023:83 7.23533e-05
54 *1282:DIODE *1024:44 3.67779e-05
55 *1282:DIODE *1122:183 2.7289e-05
56 *1286:DIODE *4935:B 8.53113e-06
57 *1286:DIODE *1124:100 0.000133984
58 *1290:DIODE *1289:DIODE 9.75195e-05
59 *1290:DIODE *4935:B 7.23533e-05
60 *1290:DIODE *1119:118 0
61 *1290:DIODE *1124:73 1.03833e-05
62 *4764:A1 *5058:RESET_B 4.60584e-05
63 *4875:A1 *1256:DIODE 0.00012969
64 *4932:B1 *1124:100 0.000105486
65 *4938:B1 *1124:73 6.71803e-06
66 *986:14 *1013:237 7.23602e-05
67 *986:64 *4859:B1 0.000163204
68 *986:64 *994:142 2.29156e-05
69 *986:64 *1123:22 6.65725e-05
70 *986:88 *1249:DIODE 3.09233e-05
71 *986:88 *1256:DIODE 3.74161e-05
72 *986:88 *4873:B1 0.000158965
73 *986:88 *990:239 0.000448798
74 *986:88 *1127:30 0.000204668
75 *986:122 *1231:DIODE 9.80032e-06
76 *986:122 *1012:30 7.35813e-05
77 *986:133 *4821:B1 4.82863e-05
78 *986:133 *990:16 0
79 *986:133 *1012:30 7.96116e-05
80 *986:133 *1013:16 0.000173289
81 *986:135 *990:16 0
82 *986:139 *990:55 7.23602e-05
83 *986:139 *990:63 9.61344e-05
84 *986:141 *1122:183 4.38278e-05
85 *986:152 *990:63 7.01484e-05
86 *986:152 *1124:73 2.88436e-05
87 *986:227 *1122:183 5.68717e-05
88 *1302:DIODE *1286:DIODE 0.000572614
89 *1341:DIODE *1282:DIODE 3.00381e-05
90 *4685:A *986:88 6.69354e-05
91 *4686:C1 *986:88 0.000120655
92 *4697:A *1205:DIODE 0.000111285
93 *4741:D *986:88 0
94 *4751:A1 *1205:DIODE 0.000119756
95 *4752:B *1205:DIODE 1.91597e-05
96 *4761:A *1205:DIODE 0.000122337
97 *4761:B *1205:DIODE 4.82863e-05
98 *4764:A2 *1205:DIODE 9.54469e-05
99 *4764:A2 *4764:A1 4.82863e-05
100 *4799:A1 *986:227 4.82919e-05
101 *4823:B *1232:DIODE 0.000134509
102 *4861:B *1248:DIODE 0.00018955
103 *4863:A *986:88 3.03684e-05
104 *4863:B *986:88 0.000122325
105 *4863:C *986:88 2.11084e-05
106 *4870:A *4875:A1 0.00011357
107 *4870:A *986:88 0.0001243
108 *4870:B *986:88 4.82919e-05
109 *4899:A2 *986:10 7.23533e-05
110 *4900:B *986:14 0
111 *4902:A0 *986:14 0
112 *4903:A2 *986:14 2.88436e-05
113 *4904:A1 *986:10 5.21046e-05
114 *4904:A1 *986:14 6.10014e-05
115 *4914:B *1265:DIODE 4.82919e-05
116 *4917:A1 *1344:DIODE 4.57447e-05
117 *4917:A1 *986:6 3.07883e-05
118 *4920:B1 *4919:B1 0.000160635
119 *4921:A1 *986:135 0
120 *4921:A1 *986:139 0
121 *4933:A *4932:B1 0
122 *4936:A *986:152 0.000175001
123 *4938:A2 *986:152 0.000399694
124 *4950:B *1205:DIODE 4.82919e-05
125 *4961:B *1232:DIODE 4.82919e-05
126 *4965:A *1205:DIODE 0.000124007
127 *4968:B1 *1290:DIODE 0.000164874
128 *4969:A1 *1205:DIODE 0.000610913
129 *4969:C1 *4919:B1 1.33293e-05
130 *4979:A2 *1232:DIODE 0.000103192
131 *4984:A1 *986:88 8.89673e-05
132 *5058:CLK *4764:A1 1.37328e-05
133 *220:10 *986:139 0
134 *220:10 *986:152 9.37731e-05
135 *220:21 *986:139 0
136 *232:39 *986:10 3.31204e-05
137 *378:63 *1205:DIODE 5.97846e-05
138 *431:16 *1344:DIODE 3.00381e-05
139 *567:12 *986:10 4.21178e-05
140 *567:12 *986:14 0.000333771
141 *601:31 *986:88 0.000382769
142 *601:44 *986:88 0
143 *657:21 *986:133 0.000493679
144 *657:21 *986:135 0.000185405
145 *657:21 *986:139 0.000446541
146 *657:34 *986:133 0.000101945
147 *663:12 *986:152 4.5783e-05
148 *672:12 *1205:DIODE 0.00030448
149 *732:6 *1232:DIODE 0.000224698
150 *732:6 *986:122 3.00381e-05
151 *765:32 *986:64 8.8266e-05
152 *768:12 *986:88 5.38395e-05
153 *795:17 *1265:DIODE 2.75229e-05
154 *803:25 *1232:DIODE 3.76596e-05
155 *804:10 *986:14 0.000150453
156 *804:12 *986:14 0.000203769
157 *851:18 *1232:DIODE 0
158 *905:16 *1282:DIODE 6.58339e-05
159 *905:20 *1282:DIODE 0.00020268
160 *915:52 *986:88 0.000198398
161 *916:18 *4926:B1 9.2741e-05
162 *916:20 *1282:DIODE 4.7662e-05
163 *916:20 *4926:B1 5.83121e-06
164 *917:32 *1255:DIODE 9.21068e-05
165 *925:14 *4932:B1 8.49205e-05
166 *926:47 *1286:DIODE 2.1163e-05
167 *926:47 *1290:DIODE 0
168 *926:47 *986:152 0.000109371
169 *928:20 *1205:DIODE 0.000145127
170 *963:11 *1232:DIODE 0.000133136
171 *963:45 *1232:DIODE 0.000487769
172 *963:45 *986:14 0
173 *963:73 *986:14 0
174 *965:20 *1282:DIODE 8.40213e-05
175 *966:70 *986:14 0.000114492
176 *966:84 *986:14 0.000155928
177 *983:105 *4932:B1 9.82856e-06
178 *984:47 *986:88 0.000110038
*RES
1 *5128:X *986:6 2.74 
2 *986:6 *986:10 3.89 
3 *986:10 *986:14 12.305 
4 *986:14 *1248:DIODE 9.64 
5 *986:14 *1232:DIODE 32.585 
6 *986:10 *986:38 2 
7 *986:38 *4897:B1 1.6 
8 *986:38 *1265:DIODE 2.05 
9 *986:6 *1344:DIODE 3.43 
10 *1248:DIODE *986:64 3.43 
11 *986:64 *986:88 30.47 
12 *986:88 *4875:A1 3.1 
13 *986:88 *1255:DIODE 6.725 
14 *986:64 *4859:A1 1.6 
15 *1232:DIODE *986:122 3.79 
16 *986:122 *4821:A1 1.6 
17 *986:122 *986:133 11.51 
18 *986:133 *986:135 2.145 
19 *986:135 *986:139 7.205 
20 *986:139 *986:141 1.14 
21 *986:141 *1222:DIODE 9.64 
22 *986:141 *986:152 10.1375 
23 *986:152 *986:154 0.795 
24 *986:154 *1290:DIODE 6.5925 
25 *986:154 *4938:B1 3.8325 
26 *986:152 *1286:DIODE 10.7475 
27 *986:139 *1282:DIODE 14.63 
28 *986:135 *4919:B1 5.79 
29 *986:133 *1277:DIODE 3.6 
30 *1222:DIODE *986:227 3.085 
31 *986:227 *1205:DIODE 28.91 
32 *986:227 *4799:B1 1.96 
33 *1286:DIODE *4932:B1 9.51 
34 *1282:DIODE *4926:B1 4.685 
35 *1205:DIODE *4764:A1 4.7 
*END

*D_NET *987 0.0317632
*CONN
*I *4786:C1 I *D sky130_fd_sc_hd__a211o_2
*I *4815:C1 I *D sky130_fd_sc_hd__a211o_2
*I *4770:C1 I *D sky130_fd_sc_hd__a211o_2
*I *1219:DIODE I *D sky130_fd_sc_hd__diode_2
*I *4792:C1 I *D sky130_fd_sc_hd__a211o_2
*I *4778:C1 I *D sky130_fd_sc_hd__a211o_2
*I *1213:DIODE I *D sky130_fd_sc_hd__diode_2
*I *1216:DIODE I *D sky130_fd_sc_hd__diode_2
*I *1162:DIODE I *D sky130_fd_sc_hd__diode_2
*I *4510:A I *D sky130_fd_sc_hd__inv_2
*I *1229:DIODE I *D sky130_fd_sc_hd__diode_2
*I *1226:DIODE I *D sky130_fd_sc_hd__diode_2
*I *4807:C1 I *D sky130_fd_sc_hd__a211o_2
*I *4969:D1 I *D sky130_fd_sc_hd__a2111o_2
*I *1295:DIODE I *D sky130_fd_sc_hd__diode_2
*I *1345:DIODE I *D sky130_fd_sc_hd__diode_2
*I *4747:C1 I *D sky130_fd_sc_hd__a211o_2
*I *1199:DIODE I *D sky130_fd_sc_hd__diode_2
*I *1210:DIODE I *D sky130_fd_sc_hd__diode_2
*I *1202:DIODE I *D sky130_fd_sc_hd__diode_2
*I *4756:C1 I *D sky130_fd_sc_hd__a211o_2
*I *5129:X O *D sky130_fd_sc_hd__clkdlybuf4s25_1
*CAP
1 *4786:C1 1.84334e-05
2 *4815:C1 2.29021e-05
3 *4770:C1 0
4 *1219:DIODE 0.000275012
5 *4792:C1 0
6 *4778:C1 0.000100317
7 *1213:DIODE 0
8 *1216:DIODE 1.84334e-05
9 *1162:DIODE 0
10 *4510:A 3.37454e-05
11 *1229:DIODE 5.87855e-05
12 *1226:DIODE 1.17375e-05
13 *4807:C1 9.04486e-05
14 *4969:D1 5.45701e-05
15 *1295:DIODE 8.3039e-05
16 *1345:DIODE 0
17 *4747:C1 0
18 *1199:DIODE 0.000171271
19 *1210:DIODE 0.00139706
20 *1202:DIODE 0
21 *4756:C1 6.55539e-05
22 *5129:X 0
23 *987:227 0.00112659
24 *987:210 0.00097477
25 *987:203 0.000507016
26 *987:188 0.000914037
27 *987:182 0.000593323
28 *987:159 0.00161024
29 *987:136 0.00192069
30 *987:125 0.000410066
31 *987:112 0.00138164
32 *987:92 0.000279425
33 *987:88 0.00209055
34 *987:77 0.000792877
35 *987:57 0.000527419
36 *987:16 9.00253e-05
37 *987:14 0.00171506
38 *987:8 0.000878181
39 *987:4 0.000110388
40 *1199:DIODE *1122:12 2.25075e-05
41 *1199:DIODE *1126:10 3.86607e-05
42 *1219:DIODE *5055:RESET_B 0.000104657
43 *1219:DIODE *5159:A 5.02126e-06
44 *1219:DIODE *1119:10 0.000133574
45 *1226:DIODE *1024:50 4.82919e-05
46 *1229:DIODE *1012:30 2.75229e-05
47 *1295:DIODE *1315:DIODE 0.000123225
48 *4778:C1 *1212:DIODE 0
49 *4778:C1 *1126:74 0
50 *4786:C1 *4786:A1 4.99619e-05
51 *4807:C1 *1122:201 0
52 *4815:C1 *1012:30 8.8266e-05
53 *4969:D1 *1315:DIODE 4.66108e-05
54 *4969:D1 *1023:50 3.74161e-05
55 *987:14 *4745:B 0
56 *987:14 *1023:111 0
57 *987:57 *1013:38 0.00015896
58 *987:77 *1244:DIODE 5.05521e-05
59 *987:88 *1231:DIODE 2.96334e-05
60 *987:88 *1244:DIODE 0.000679653
61 *987:88 *1124:56 1.33293e-05
62 *987:92 *1023:29 2.82846e-05
63 *987:112 *1280:DIODE 0.000237249
64 *987:125 *1122:201 0
65 *987:136 *4813:B 0
66 *987:136 *4815:A1 0
67 *987:136 *1122:201 0
68 *987:159 *1235:DIODE 0.000132663
69 *987:159 *1236:DIODE 0.00011852
70 *987:159 *4330:B1 1.94805e-05
71 *987:159 *4828:B1 0.000102874
72 *987:159 *4833:B1 0.00019889
73 *987:159 *988:157 0
74 *987:159 *988:163 0
75 *987:159 *1013:134 6.23206e-05
76 *987:159 *1013:145 8.78813e-05
77 *987:159 *1125:93 0.000216105
78 *987:182 *1084:18 0
79 *987:182 *1119:57 0
80 *987:188 *4771:B1 0
81 *987:188 *4784:B 6.28843e-05
82 *987:188 *4786:A1 0.000162311
83 *987:188 *992:153 0
84 *987:188 *992:173 0
85 *987:188 *1122:87 0.000129871
86 *987:203 *4785:B1 0.000198051
87 *987:203 *4786:A1 3.66286e-05
88 *987:203 *1126:74 0.00060517
89 *987:227 *1355:DIODE 4.35348e-05
90 *987:227 *5055:RESET_B 5.02905e-05
91 *987:227 *1118:10 3.90266e-05
92 *987:227 *1122:254 7.02738e-05
93 *4329:B1 *987:159 0
94 *4330:A1 *987:159 0.000139252
95 *4330:A2 *987:159 0.0001953
96 *4692:A *987:88 0.000152752
97 *4693:A2 *987:88 5.0751e-05
98 *4694:B2 *987:88 0
99 *4697:A *1210:DIODE 0
100 *4708:B *1210:DIODE 0
101 *4713:A1 *1210:DIODE 3.62955e-05
102 *4717:B *1210:DIODE 0.000136877
103 *4721:A1 *987:14 0
104 *4721:A2 *987:14 5.63405e-05
105 *4740:B *987:8 0
106 *4740:B *987:14 0
107 *4745:A *987:57 0.000340209
108 *4747:A2 *987:57 0.000206176
109 *4747:B1 *1199:DIODE 0.000220905
110 *4770:A2 *987:188 0
111 *4770:B1 *987:188 0.000136884
112 *4773:A *987:203 8.65905e-05
113 *4773:C *987:203 1.34594e-05
114 *4776:A1 *4778:C1 2.0851e-06
115 *4778:A2 *987:227 8.65961e-05
116 *4783:B *987:203 1.12643e-05
117 *4786:A2 *987:188 9.71067e-05
118 *4786:B1 *987:188 6.10014e-05
119 *4789:A *987:227 5.05437e-05
120 *4790:C1 *1219:DIODE 8.7152e-06
121 *4790:C1 *987:227 0.000507318
122 *4803:A *987:112 0.000122331
123 *4807:B1 *4807:C1 4.99619e-05
124 *4812:A *987:136 0
125 *4814:A1 *4807:C1 5.23362e-05
126 *4814:A1 *987:112 6.03947e-06
127 *4814:A1 *987:125 0.00017688
128 *4814:A1 *987:136 0.000330375
129 *4815:B1 *4815:C1 4.82919e-05
130 *4815:B1 *987:136 6.03195e-05
131 *4826:B *987:159 5.83121e-06
132 *4828:A1 *987:159 1.20741e-05
133 *4828:C1 *987:159 3.09233e-05
134 *4833:C1 *987:159 0.000187071
135 *4835:A2 *987:159 0.000294094
136 *4922:B1 *987:112 1.56428e-05
137 *4950:B *1210:DIODE 0
138 *4953:A *987:88 0.000116151
139 *4953:B *1226:DIODE 2.75229e-05
140 *4965:A *1210:DIODE 0
141 *4965:A *987:8 4.15496e-05
142 *4965:A *987:14 0.000322117
143 *4969:B1 *987:92 0
144 *4970:A *987:88 0.000150321
145 *4970:A *987:92 3.05295e-05
146 *4970:B *4756:C1 7.22329e-05
147 *4970:B *987:14 0.000155444
148 *4970:B *987:16 2.49909e-05
149 *4970:C *987:92 0
150 *4970:C *987:112 0.000160635
151 *4970:D *987:92 0.000117825
152 *4972:B *987:159 9.89786e-05
153 *4980:A *987:88 5.00612e-05
154 *4980:A *987:92 5.81415e-05
155 *4980:B *987:88 0
156 *4981:C1 *987:88 0.000138257
157 *4981:D1 *987:88 9.70786e-05
158 *4986:C *987:88 0
159 *4987:B *987:88 0
160 *5086:D *987:159 0
161 *5131:A *987:159 0.000261296
162 *5132:A *987:159 0.000151587
163 *375:54 *1199:DIODE 4.81921e-05
164 *613:8 *987:88 4.94287e-05
165 *635:12 *1210:DIODE 8.29264e-05
166 *664:18 *1210:DIODE 0
167 *690:8 *987:203 6.27347e-05
168 *698:31 *987:203 0.000342453
169 *698:31 *987:210 3.83041e-05
170 *698:31 *987:227 0.000945673
171 *716:10 *987:112 0.000159741
172 *909:72 *987:136 0
173 *909:72 *987:159 0
174 *911:34 *987:159 0.000156614
175 *927:39 *1210:DIODE 4.10253e-05
176 *927:45 *1210:DIODE 6.60257e-06
177 *930:61 *987:182 9.50342e-06
178 *930:61 *987:188 0.000159269
179 *931:21 *4778:C1 8.27743e-05
180 *962:10 *987:159 5.42473e-05
181 *962:27 *987:159 9.29751e-06
182 *964:10 *1210:DIODE 5.21174e-05
183 *964:16 *1210:DIODE 0.00015829
184 *967:10 *987:159 0
185 *967:16 *987:159 0
186 *967:62 *987:159 0
187 *985:29 *1210:DIODE 0.000137571
188 *985:48 *1210:DIODE 0.000438249
189 *985:63 *1210:DIODE 0
190 *985:133 *987:112 8.11372e-05
*RES
1 *5129:X *987:4 1.6 
2 *987:4 *987:8 3.125 
3 *987:8 *987:14 11.51 
4 *987:14 *987:16 0.45 
5 *987:16 *4756:C1 2.74 
6 *987:16 *1202:DIODE 1.6 
7 *987:14 *1210:DIODE 27.935 
8 *987:8 *987:57 8 
9 *987:57 *1199:DIODE 8.72 
10 *987:57 *4747:C1 1.6 
11 *987:4 *987:77 0.795 
12 *987:77 *1345:DIODE 1.6 
13 *987:77 *987:88 18.575 
14 *987:88 *987:92 5.165 
15 *987:92 *1295:DIODE 2.74 
16 *987:92 *4969:D1 2.395 
17 *987:88 *987:112 22.045 
18 *987:112 *4807:C1 5.355 
19 *987:112 *987:125 2.145 
20 *987:125 *1226:DIODE 4.05 
21 *987:125 *987:136 6.48 
22 *987:136 *1229:DIODE 4.05 
23 *987:136 *987:159 42.435 
24 *987:159 *4510:A 2.05 
25 *987:159 *1162:DIODE 1.6 
26 *1210:DIODE *987:182 5.685 
27 *987:182 *987:188 11.24 
28 *987:188 *1216:DIODE 1.6 
29 *987:188 *987:203 12.075 
30 *987:203 *1213:DIODE 1.6 
31 *987:203 *987:210 0.45 
32 *987:210 *4778:C1 7.49 
33 *987:210 *987:227 19.175 
34 *987:227 *4792:C1 3.6 
35 *987:227 *1219:DIODE 7.5 
36 *987:182 *4770:C1 3.6 
37 *1229:DIODE *4815:C1 3.995 
38 *1216:DIODE *4786:C1 3.65 
*END

*D_NET *988 0.0225386
*CONN
*I *4882:C1 I *D sky130_fd_sc_hd__a211o_2
*I *1262:DIODE I *D sky130_fd_sc_hd__diode_2
*I *4890:C1 I *D sky130_fd_sc_hd__a211o_2
*I *4835:C1 I *D sky130_fd_sc_hd__a211o_2
*I *1242:DIODE I *D sky130_fd_sc_hd__diode_2
*I *4844:C1 I *D sky130_fd_sc_hd__a211o_2
*I *4829:C1 I *D sky130_fd_sc_hd__a211o_2
*I *1236:DIODE I *D sky130_fd_sc_hd__diode_2
*I *4852:C1 I *D sky130_fd_sc_hd__a211o_2
*I *1259:DIODE I *D sky130_fd_sc_hd__diode_2
*I *4903:A1 I *D sky130_fd_sc_hd__o21ai_2
*I *1239:DIODE I *D sky130_fd_sc_hd__diode_2
*I *4911:C1 I *D sky130_fd_sc_hd__a211o_2
*I *1273:DIODE I *D sky130_fd_sc_hd__diode_2
*I *1268:DIODE I *D sky130_fd_sc_hd__diode_2
*I *1252:DIODE I *D sky130_fd_sc_hd__diode_2
*I *4867:C1 I *D sky130_fd_sc_hd__a211o_2
*I *1346:DIODE I *D sky130_fd_sc_hd__diode_2
*I *1245:DIODE I *D sky130_fd_sc_hd__diode_2
*I *5130:X O *D sky130_fd_sc_hd__clkdlybuf4s25_1
*CAP
1 *4882:C1 0
2 *1262:DIODE 0.000121243
3 *4890:C1 5.73377e-05
4 *4835:C1 2.30959e-05
5 *1242:DIODE 4.43494e-05
6 *4844:C1 0
7 *4829:C1 2.90335e-05
8 *1236:DIODE 3.90548e-05
9 *4852:C1 0.000382736
10 *1259:DIODE 0.00047192
11 *4903:A1 8.79405e-05
12 *1239:DIODE 0.000642501
13 *4911:C1 0.000197905
14 *1273:DIODE 7.1959e-05
15 *1268:DIODE 1.65033e-05
16 *1252:DIODE 0
17 *4867:C1 8.40903e-05
18 *1346:DIODE 3.7992e-05
19 *1245:DIODE 0.00069667
20 *5130:X 4.53302e-05
21 *988:223 0.00045974
22 *988:217 0.000342009
23 *988:167 0.000302326
24 *988:165 0.000282052
25 *988:163 0.000358838
26 *988:157 0.000691916
27 *988:85 0.000656885
28 *988:79 0.000904366
29 *988:68 0.000293494
30 *988:66 0.00182514
31 *988:58 0.0024319
32 *988:47 0.000337742
33 *988:32 0.000245663
34 *988:10 0.000494842
35 *988:8 0.000295705
36 *1236:DIODE *1235:DIODE 0.000141599
37 *1239:DIODE *1250:DIODE 0.00010998
38 *1245:DIODE *5070:RESET_B 3.64998e-06
39 *1245:DIODE *1120:29 0
40 *1259:DIODE *1263:DIODE 0.000156098
41 *1259:DIODE *4858:A3 0
42 *1259:DIODE *994:156 3.31204e-05
43 *1259:DIODE *1013:251 0.000155491
44 *1259:DIODE *1029:27 0.000240183
45 *1259:DIODE *1125:22 0
46 *1262:DIODE *1263:DIODE 0
47 *1262:DIODE *4890:A1 0
48 *1262:DIODE *1123:118 2.75145e-05
49 *1268:DIODE *1250:DIODE 2.49909e-05
50 *1268:DIODE *1124:162 4.66108e-05
51 *4852:C1 *4852:A1 4.66108e-05
52 *4867:C1 *4866:A2 0
53 *4867:C1 *1127:30 2.75145e-05
54 *988:10 *1120:29 0
55 *988:32 *1120:29 0
56 *988:32 *1127:30 2.86623e-05
57 *988:47 *1127:30 8.34426e-05
58 *988:58 *994:156 0.000182007
59 *988:79 *1250:DIODE 0.000443794
60 *988:79 *1124:162 0.000313857
61 *988:85 *1270:DIODE 0.000287995
62 *988:85 *4911:A1 0.000123838
63 *988:85 *4912:A2 0.000331142
64 *988:85 *1011:30 0
65 *988:85 *1121:39 0.000194192
66 *988:157 *1250:DIODE 0.000269253
67 *988:163 *1121:29 0.000136207
68 *988:165 *1121:14 4.18603e-06
69 *988:165 *1121:29 5.30057e-05
70 *988:167 *1235:DIODE 0.000116165
71 *988:167 *1121:14 0.000156446
72 *988:217 *1013:251 0.000159741
73 *988:223 *4890:A1 0
74 *1232:DIODE *988:66 9.37731e-05
75 *1297:DIODE *988:79 8.49205e-05
76 *1365:DIODE *988:217 3.00381e-05
77 *4828:A1 *1236:DIODE 4.43871e-06
78 *4828:A1 *988:167 0.000266268
79 *4828:C1 *1236:DIODE 0
80 *4829:B1 *4829:C1 4.82919e-05
81 *4833:A1 *988:163 0.000268395
82 *4833:A1 *988:165 7.39416e-05
83 *4833:A1 *988:167 3.59531e-06
84 *4835:B1 *4835:C1 0.000163199
85 *4835:B1 *988:163 0.000183036
86 *4852:B1 *4852:C1 7.25921e-06
87 *4854:A2 *4852:C1 2.0248e-05
88 *4855:B *1259:DIODE 6.99988e-05
89 *4857:C1 *1259:DIODE 0
90 *4862:A1 *988:66 2.86876e-05
91 *4862:A2 *988:66 7.35813e-05
92 *4863:A *988:58 0.000159957
93 *4864:A *988:66 9.60582e-07
94 *4866:C1 *988:58 0.000214629
95 *4867:B1 *4867:C1 3.70488e-05
96 *4882:B1 *988:223 4.43871e-06
97 *4889:A1 *988:223 0.00056362
98 *4890:A2 *1262:DIODE 0
99 *4890:B1 *4890:C1 8.8266e-05
100 *4903:A2 *4903:A1 1.71013e-05
101 *4910:A1 *988:85 7.3664e-05
102 *4911:A2 *4911:C1 4.99619e-05
103 *4913:A2 *1273:DIODE 2.39856e-05
104 *4913:A2 *4911:C1 1.16578e-05
105 *4959:A1 *988:66 6.27438e-05
106 *4965:C *1346:DIODE 0.000237249
107 *4972:B *4829:C1 8.40269e-05
108 *4984:A2 *988:66 0.000421056
109 *4985:A1 *988:66 1.1392e-05
110 *4985:A2 *988:66 6.0147e-06
111 *4985:B1 *988:66 3.99855e-05
112 *5129:A *1245:DIODE 0
113 *5130:A *1245:DIODE 0
114 *5130:A *988:10 0
115 *5148:A *4835:C1 0.000163199
116 *5302:A *1346:DIODE 0.000237249
117 *370:31 *988:8 5.05437e-05
118 *429:36 *988:58 0.00027042
119 *755:23 *988:10 0
120 *755:23 *988:32 0
121 *755:23 *988:58 0.000394857
122 *755:34 *988:58 8.26536e-05
123 *755:45 *1259:DIODE 7.36562e-05
124 *755:45 *988:58 2.4997e-05
125 *766:25 *988:66 1.91597e-05
126 *788:12 *988:223 4.19967e-05
127 *803:25 *4903:A1 8.28738e-05
128 *803:25 *988:66 0.000158297
129 *914:12 *1245:DIODE 0.000131304
130 *914:12 *4852:C1 4.05674e-06
131 *919:23 *988:223 0
132 *919:38 *988:223 0
133 *963:45 *4903:A1 0
134 *963:45 *988:66 0
135 *967:16 *988:157 7.44375e-05
136 *967:16 *988:163 1.07797e-05
137 *984:47 *988:32 2.14129e-05
138 *984:47 *988:47 0.000160658
139 *984:53 *988:32 2.05641e-05
140 *987:159 *1236:DIODE 0.00011852
141 *987:159 *988:157 0
142 *987:159 *988:163 0
*RES
1 *5130:X *988:8 4.395 
2 *988:8 *988:10 2.145 
3 *988:10 *1245:DIODE 8.49 
4 *988:10 *1346:DIODE 5.775 
5 *988:8 *988:32 1.89 
6 *988:32 *4867:C1 5.1 
7 *988:32 *988:47 3.89 
8 *988:47 *1252:DIODE 1.6 
9 *988:47 *988:58 11.51 
10 *988:58 *988:66 24.97 
11 *988:66 *988:68 2 
12 *988:68 *1268:DIODE 2.05 
13 *988:68 *988:79 7.365 
14 *988:79 *988:85 15.07 
15 *988:85 *1273:DIODE 2.395 
16 *988:85 *4911:C1 4.75 
17 *988:79 *1239:DIODE 4.465 
18 *988:66 *4903:A1 5.235 
19 *988:58 *1259:DIODE 12.075 
20 *1245:DIODE *4852:C1 8.075 
21 *1239:DIODE *988:157 9.48 
22 *988:157 *988:163 7.29 
23 *988:163 *988:165 1.635 
24 *988:165 *988:167 5.97 
25 *988:167 *1236:DIODE 5.235 
26 *988:167 *4829:C1 4.395 
27 *988:165 *4844:C1 3.6 
28 *988:163 *1242:DIODE 4.05 
29 *988:157 *4835:C1 5.085 
30 *1259:DIODE *988:217 3.085 
31 *988:217 *988:223 8.93 
32 *988:223 *4890:C1 4.74 
33 *988:223 *1262:DIODE 5.43 
34 *988:217 *4882:C1 1.6 
*END

*D_NET *989 0.00324865
*CONN
*I *4960:A I *D sky130_fd_sc_hd__xnor2_2
*I *4688:B I *D sky130_fd_sc_hd__xnor2_2
*I *4726:A2 I *D sky130_fd_sc_hd__a21oi_2
*I *4725:A2 I *D sky130_fd_sc_hd__o211a_2
*I *5302:X O *D sky130_fd_sc_hd__buf_2
*CAP
1 *4960:A 0.000109907
2 *4688:B 0.000144712
3 *4726:A2 7.17855e-05
4 *4725:A2 1.84177e-05
5 *5302:X 0.000614417
6 *989:19 0.000216522
7 *989:10 0.000742766
8 *1232:DIODE *4726:A2 6.65787e-05
9 *4689:B *989:10 4.66108e-05
10 *4689:D *989:10 9.59384e-05
11 *4689:D *989:19 3.09179e-05
12 *4725:A1 *989:10 5.7875e-05
13 *4725:A1 *989:19 0.000232214
14 *4726:B1 *989:10 8.54818e-05
15 *4726:B1 *989:19 3.83194e-05
16 *4728:A1 *989:10 3.39489e-05
17 *4728:C1 *989:10 2.75229e-05
18 *4732:A2 *989:10 8.8266e-05
19 *610:6 *989:10 2.04748e-05
20 *851:18 *4726:A2 0.000179694
21 *913:46 *4960:A 0.000168213
22 *913:50 *4688:B 7.57202e-05
23 *913:50 *989:19 8.23457e-05
*RES
1 *5302:X *989:10 11.485 
2 *989:10 *4725:A2 1.96 
3 *989:10 *989:19 2.865 
4 *989:19 *4726:A2 7.745 
5 *989:19 *4688:B 2.395 
6 *4688:B *4960:A 5.72 
*END

*D_NET *990 0.0307868
*CONN
*I *1249:DIODE I *D sky130_fd_sc_hd__diode_2
*I *4859:B1 I *D sky130_fd_sc_hd__a21oi_2
*I *4764:B1 I *D sky130_fd_sc_hd__a21oi_2
*I *1207:DIODE I *D sky130_fd_sc_hd__diode_2
*I *4765:A2 I *D sky130_fd_sc_hd__a21o_2
*I *1256:DIODE I *D sky130_fd_sc_hd__diode_2
*I *4875:B1 I *D sky130_fd_sc_hd__a21oi_2
*I *1347:DIODE I *D sky130_fd_sc_hd__diode_2
*I *1233:DIODE I *D sky130_fd_sc_hd__diode_2
*I *4821:B1 I *D sky130_fd_sc_hd__a31o_2
*I *1279:DIODE I *D sky130_fd_sc_hd__diode_2
*I *4921:A2 I *D sky130_fd_sc_hd__a21o_2
*I *4928:A1 I *D sky130_fd_sc_hd__o211a_2
*I *1283:DIODE I *D sky130_fd_sc_hd__diode_2
*I *4934:A1 I *D sky130_fd_sc_hd__o211a_2
*I *1287:DIODE I *D sky130_fd_sc_hd__diode_2
*I *1292:DIODE I *D sky130_fd_sc_hd__diode_2
*I *4940:A1 I *D sky130_fd_sc_hd__o21ba_2
*I *1223:DIODE I *D sky130_fd_sc_hd__diode_2
*I *4801:A1 I *D sky130_fd_sc_hd__o211a_2
*I *1206:DIODE I *D sky130_fd_sc_hd__diode_2
*I *5131:X O *D sky130_fd_sc_hd__clkdlybuf4s25_1
*CAP
1 *1249:DIODE 0.000252008
2 *4859:B1 4.63111e-05
3 *4764:B1 8.86921e-05
4 *1207:DIODE 0
5 *4765:A2 0
6 *1256:DIODE 0.00132212
7 *4875:B1 1.98068e-05
8 *1347:DIODE 0.000209098
9 *1233:DIODE 0
10 *4821:B1 1.17533e-05
11 *1279:DIODE 4.9085e-05
12 *4921:A2 0
13 *4928:A1 6.6316e-05
14 *1283:DIODE 0
15 *4934:A1 0.00011117
16 *1287:DIODE 0
17 *1292:DIODE 0
18 *4940:A1 7.38142e-05
19 *1223:DIODE 0
20 *4801:A1 2.75837e-05
21 *1206:DIODE 0.00149313
22 *5131:X 0
23 *990:239 0.0014248
24 *990:189 0.00131214
25 *990:179 0.00111165
26 *990:177 3.28277e-05
27 *990:175 0.000376231
28 *990:141 1.17533e-05
29 *990:127 4.9085e-05
30 *990:113 0.000829802
31 *990:93 0.000578986
32 *990:65 0.000198482
33 *990:63 0.00081464
34 *990:55 0.00112378
35 *990:24 0.00136601
36 *990:22 0.000706412
37 *990:20 0.000889924
38 *990:16 0.000546877
39 *990:10 0.000584317
40 *990:4 0.000406883
41 *1206:DIODE *4801:C1 2.16833e-05
42 *1206:DIODE *1122:162 0.000964647
43 *1249:DIODE *1029:67 0.000306155
44 *1249:DIODE *1123:8 0.000120655
45 *1249:DIODE *1123:22 4.34365e-05
46 *1249:DIODE *1123:99 8.08153e-06
47 *1249:DIODE *1123:157 8.40269e-05
48 *1279:DIODE *1280:DIODE 2.16917e-05
49 *1347:DIODE *1235:DIODE 0.00018352
50 *4821:B1 *1012:30 2.75145e-05
51 *4859:B1 *994:142 8.43862e-05
52 *4859:B1 *1123:22 1.19928e-05
53 *4940:A1 *4935:B 2.75229e-05
54 *4940:A1 *1118:23 2.75145e-05
55 *4940:A1 *1118:27 0.000208484
56 *4940:A1 *1124:73 0.000206817
57 *990:10 *1235:DIODE 3.00381e-05
58 *990:10 *1012:30 0
59 *990:10 *1123:249 9.80943e-06
60 *990:16 *1012:30 0
61 *990:16 *1013:16 9.78543e-06
62 *990:16 *1013:73 0.000131002
63 *990:20 *1119:141 7.21296e-06
64 *990:20 *1124:73 0.000273702
65 *990:22 *1224:DIODE 4.82919e-05
66 *990:22 *5052:RESET_B 0.000376233
67 *990:22 *1023:50 0.000238919
68 *990:55 *5052:RESET_B 8.40269e-05
69 *990:93 *1024:37 0.000161745
70 *990:93 *1024:44 3.26653e-05
71 *990:113 *1122:183 0.000904511
72 *990:175 *1208:DIODE 9.23772e-05
73 *990:175 *4765:B1 4.66108e-05
74 *990:175 *1005:31 0
75 *990:175 *1023:174 0.000139238
76 *990:177 *4765:B1 4.82863e-05
77 *990:179 *4765:B1 4.99619e-05
78 *990:189 *1357:DIODE 0
79 *990:189 *4765:B1 8.65961e-05
80 *990:189 *5073:RESET_B 0
81 *990:189 *5303:A 8.65961e-05
82 *990:239 *1254:DIODE 4.82919e-05
83 *1294:DIODE *990:189 6.4422e-05
84 *1326:DIODE *990:189 0
85 *4686:A1 *990:239 0.00015639
86 *4724:B1 *990:239 5.21046e-05
87 *4741:C *1249:DIODE 0
88 *4741:D *1249:DIODE 0
89 *4743:B *990:65 8.23457e-05
90 *4753:A *1206:DIODE 4.82863e-05
91 *4753:B *1206:DIODE 4.82863e-05
92 *4755:C1 *1206:DIODE 2.11084e-05
93 *4758:B1 *990:175 0
94 *4764:A2 *990:175 1.83756e-05
95 *4765:A1 *4764:B1 0
96 *4765:A1 *990:189 5.16348e-05
97 *4801:B1 *1206:DIODE 0.000119762
98 *4801:B1 *4801:A1 1.28174e-05
99 *4818:A *990:16 0.000163985
100 *4819:B *990:16 0.000181376
101 *4820:A1 *990:10 3.57349e-05
102 *4821:A2 *990:16 0
103 *4821:A3 *990:10 0
104 *4859:A2 *1249:DIODE 7.3664e-05
105 *4870:A *1256:DIODE 8.58968e-05
106 *4870:A *990:189 2.30292e-05
107 *4870:A *990:239 6.83659e-05
108 *4875:A1 *1256:DIODE 0.00012969
109 *4921:A1 *1279:DIODE 4.66108e-05
110 *4921:A1 *990:16 2.92496e-05
111 *4921:A1 *990:20 8.5242e-05
112 *4922:B1 *990:20 0
113 *4925:B *990:113 5.05437e-05
114 *4936:A *990:63 0.000310417
115 *4940:A2 *4940:A1 8.40213e-05
116 *4951:A2 *990:189 0
117 *4951:B1 *990:189 0.000108647
118 *4956:B *990:189 0
119 *4964:A2 *990:189 5.7344e-05
120 *4967:D1 *990:189 0.000140912
121 *4969:C1 *4928:A1 8.8266e-05
122 *4969:C1 *990:113 8.57024e-05
123 *4970:B *990:189 0.000148975
124 *4971:A2 *990:189 7.06865e-05
125 *4971:A3 *990:189 0.000211879
126 *4971:B1 *990:189 0.000898329
127 *4975:B1 *990:189 0
128 *4976:A1_N *990:189 1.73877e-05
129 *4976:A2_N *990:189 0.000361646
130 *4978:A *990:189 0
131 *4984:A1 *4859:B1 4.82919e-05
132 *5053:D *4928:A1 6.64922e-05
133 *5121:A *1206:DIODE 5.61248e-05
134 *5165:A *1249:DIODE 0.000163992
135 *220:10 *990:20 0.000249928
136 *220:10 *990:55 2.25075e-05
137 *220:10 *990:63 3.686e-05
138 *220:21 *990:20 4.44927e-05
139 *230:59 *990:189 1.40616e-05
140 *602:10 *990:239 0
141 *607:10 *990:239 8.81909e-05
142 *657:21 *990:63 0.000461295
143 *657:21 *990:93 0
144 *683:22 *4764:B1 5.20968e-05
145 *683:22 *990:189 8.8266e-05
146 *711:23 *990:65 0.000301905
147 *711:23 *990:93 0.000197264
148 *779:10 *1256:DIODE 3.83041e-05
149 *779:10 *990:189 0.00019423
150 *844:12 *990:189 0
151 *910:19 *990:10 0.000160658
152 *910:19 *990:16 0.000163706
153 *910:27 *990:10 4.66108e-05
154 *925:10 *990:93 0.000157595
155 *925:32 *990:93 0.000155176
156 *942:12 *990:189 0.000125256
157 *953:12 *4934:A1 4.82863e-05
158 *963:27 *1206:DIODE 5.71715e-05
159 *963:27 *990:22 6.51298e-05
160 *963:27 *990:24 4.96965e-05
161 *964:42 *1249:DIODE 1.19601e-05
162 *964:42 *990:239 0.000193314
163 *964:85 *1206:DIODE 0.000200134
164 *964:133 *4764:B1 0.00019662
165 *964:133 *990:189 0
166 *964:135 *4764:B1 9.50342e-06
167 *964:186 *990:189 0
168 *965:20 *990:113 0.000120929
169 *965:36 *4934:A1 0.000121942
170 *965:36 *990:93 8.95933e-05
171 *985:116 *990:93 9.92913e-05
172 *986:64 *4859:B1 0.000163204
173 *986:88 *1249:DIODE 3.09233e-05
174 *986:88 *1256:DIODE 3.74161e-05
175 *986:88 *990:239 0.000448798
176 *986:133 *4821:B1 4.82863e-05
177 *986:133 *990:16 0
178 *986:135 *990:16 0
179 *986:139 *990:55 7.23602e-05
180 *986:139 *990:63 9.61344e-05
181 *986:152 *990:63 7.01484e-05
*RES
1 *5131:X *990:4 1.6 
2 *990:4 *990:10 5.375 
3 *990:10 *990:16 8.82 
4 *990:16 *990:20 6.44 
5 *990:20 *990:22 8.04 
6 *990:22 *990:24 1.48125 
7 *990:24 *1206:DIODE 23.4737 
8 *990:24 *4801:A1 2.1325 
9 *990:22 *1223:DIODE 1.6 
10 *990:20 *990:55 4.46 
11 *990:55 *990:63 9.29 
12 *990:63 *990:65 2.865 
13 *990:65 *4940:A1 8.795 
14 *990:65 *1292:DIODE 1.6 
15 *990:63 *990:93 14.575 
16 *990:93 *1287:DIODE 1.6 
17 *990:93 *4934:A1 3.9925 
18 *990:55 *990:113 13.52 
19 *990:113 *1283:DIODE 1.6 
20 *990:113 *4928:A1 3.3025 
21 *990:16 *990:127 2 
22 *990:127 *4921:A2 1.6 
23 *990:127 *1279:DIODE 2.395 
24 *990:10 *990:141 2 
25 *990:141 *4821:B1 2.05 
26 *990:141 *1233:DIODE 1.6 
27 *990:4 *1347:DIODE 4.465 
28 *1206:DIODE *990:175 10.55 
29 *990:175 *990:177 0.45 
30 *990:177 *990:179 0.45 
31 *990:179 *990:189 32.05 
32 *990:189 *4875:B1 1.96 
33 *990:189 *1256:DIODE 4.93 
34 *990:179 *4765:A2 1.6 
35 *990:177 *1207:DIODE 1.6 
36 *990:175 *4764:B1 8 
37 *1256:DIODE *990:239 22.875 
38 *990:239 *4859:B1 5.43 
39 *990:239 *1249:DIODE 10.395 
*END

*D_NET *991 0.0136167
*CONN
*I *4912:A2 I *D sky130_fd_sc_hd__a21o_2
*I *4904:A2 I *D sky130_fd_sc_hd__a21oi_2
*I *4917:B1 I *D sky130_fd_sc_hd__a21o_2
*I *4883:A2 I *D sky130_fd_sc_hd__a21o_2
*I *4876:A2 I *D sky130_fd_sc_hd__a21o_2
*I *5132:X O *D sky130_fd_sc_hd__clkdlybuf4s25_1
*CAP
1 *4912:A2 0.000917936
2 *4904:A2 0
3 *4917:B1 0.000195252
4 *4883:A2 0
5 *4876:A2 0.000491088
6 *5132:X 0
7 *991:34 0.00109601
8 *991:30 0.00185357
9 *991:12 0.00126662
10 *991:4 0.00113117
11 *4876:A2 *1260:DIODE 8.71001e-05
12 *4876:A2 *4876:B1 0.000231342
13 *4876:A2 *5074:RESET_B 7.5431e-05
14 *4876:A2 *1013:259 0.000604362
15 *4876:A2 *1029:8 0.000205582
16 *4912:A2 *1270:DIODE 0.00050398
17 *4912:A2 *4911:A1 0
18 *4912:A2 *4912:B1 0
19 *4912:A2 *1011:45 1.1561e-05
20 *4912:A2 *1011:62 1.07797e-05
21 *4917:B1 *1029:27 0.000144113
22 *4917:B1 *1123:105 0
23 *991:12 *1013:251 0.000116158
24 *991:30 *1338:DIODE 3.64998e-06
25 *991:30 *1360:DIODE 0.000201508
26 *991:30 *4916:A2 0
27 *991:30 *5164:A 8.40213e-05
28 *991:30 *1029:27 5.72004e-05
29 *991:30 *1029:78 0.000113414
30 *991:30 *1123:99 0.000203762
31 *991:30 *1124:19 0.000235568
32 *991:30 *1125:22 0
33 *991:34 *4883:B1 4.82919e-05
34 *1342:DIODE *991:12 2.87867e-05
35 *4732:B1 *4876:A2 0
36 *4741:B *991:30 2.97004e-06
37 *4741:C *991:30 0.000136884
38 *4884:B1 *4876:A2 0
39 *4885:B1 *991:34 0.000186388
40 *4886:B *991:34 1.56428e-05
41 *4900:A *4912:A2 4.66742e-05
42 *4900:B *4912:A2 3.00381e-05
43 *4904:A1 *991:12 0.000291379
44 *4904:A1 *991:30 4.82863e-05
45 *4910:A1 *4912:A2 0.000521639
46 *4910:A1 *991:12 0.000159947
47 *4911:A2 *4912:A2 7.63204e-05
48 *4912:A1 *4912:A2 4.82919e-05
49 *4915:C1 *4917:B1 0
50 *5127:A *991:30 0
51 *567:12 *991:12 0
52 *653:48 *991:30 0.00038374
53 *653:84 *991:30 0.000460254
54 *788:12 *991:34 2.30292e-05
55 *844:12 *4876:A2 0
56 *847:12 *4912:A2 0
57 *920:55 *991:34 0.000423642
58 *923:10 *4912:A2 0.000143266
59 *923:14 *4912:A2 0.000210846
60 *966:12 *991:30 0.000158072
61 *988:85 *4912:A2 0.000331142
*RES
1 *5132:X *991:4 1.6 
2 *991:4 *991:12 9.16 
3 *991:12 *991:30 25.2 
4 *991:30 *991:34 12.8 
5 *991:34 *4876:A2 18.59 
6 *991:34 *4883:A2 1.6 
7 *991:30 *4917:B1 7.785 
8 *991:12 *4904:A2 1.6 
9 *991:4 *4912:A2 25.43 
*END

*D_NET *992 0.0278005
*CONN
*I *4757:B1 I *D sky130_fd_sc_hd__o21ai_2
*I *4928:C1 I *D sky130_fd_sc_hd__o211a_2
*I *4822:B1 I *D sky130_fd_sc_hd__o21a_2
*I *1220:DIODE I *D sky130_fd_sc_hd__diode_2
*I *4793:B1 I *D sky130_fd_sc_hd__o21ai_2
*I *1214:DIODE I *D sky130_fd_sc_hd__diode_2
*I *4779:B1 I *D sky130_fd_sc_hd__o21ai_2
*I *4771:B1 I *D sky130_fd_sc_hd__o21ai_2
*I *1211:DIODE I *D sky130_fd_sc_hd__diode_2
*I *4787:B1 I *D sky130_fd_sc_hd__o21ai_2
*I *1217:DIODE I *D sky130_fd_sc_hd__diode_2
*I *1203:DIODE I *D sky130_fd_sc_hd__diode_2
*I *4801:C1 I *D sky130_fd_sc_hd__o211a_2
*I *1224:DIODE I *D sky130_fd_sc_hd__diode_2
*I *1349:DIODE I *D sky130_fd_sc_hd__diode_2
*I *1230:DIODE I *D sky130_fd_sc_hd__diode_2
*I *1227:DIODE I *D sky130_fd_sc_hd__diode_2
*I *4808:B1 I *D sky130_fd_sc_hd__o21ai_2
*I *1284:DIODE I *D sky130_fd_sc_hd__diode_2
*I *4816:B1 I *D sky130_fd_sc_hd__o21ai_2
*I *1234:DIODE I *D sky130_fd_sc_hd__diode_2
*I *5133:X O *D sky130_fd_sc_hd__clkdlybuf4s25_1
*CAP
1 *4757:B1 0.000141315
2 *4928:C1 2.9853e-05
3 *4822:B1 0
4 *1220:DIODE 0.000128646
5 *4793:B1 0
6 *1214:DIODE 0
7 *4779:B1 0
8 *4771:B1 0.000106619
9 *1211:DIODE 4.73395e-05
10 *4787:B1 2.04193e-05
11 *1217:DIODE 6.16514e-05
12 *1203:DIODE 0.00163741
13 *4801:C1 2.85515e-05
14 *1224:DIODE 2.63144e-05
15 *1349:DIODE 5.37202e-05
16 *1230:DIODE 0
17 *1227:DIODE 2.65106e-05
18 *4808:B1 0
19 *1284:DIODE 0.000409378
20 *4816:B1 9.03206e-06
21 *1234:DIODE 0.00134308
22 *5133:X 0
23 *992:205 0.000265184
24 *992:173 0.000241381
25 *992:153 0.000295052
26 *992:151 0.00135892
27 *992:143 0.00108647
28 *992:141 0.000138511
29 *992:139 0.000932418
30 *992:107 0.00168931
31 *992:101 0.00107063
32 *992:86 0.00104304
33 *992:76 0.000872479
34 *992:57 8.38337e-05
35 *992:43 8.31433e-05
36 *992:30 0.000831784
37 *992:17 0.000433603
38 *992:6 0.00167622
39 *992:4 0.000410707
40 *1203:DIODE *1201:DIODE 2.75145e-05
41 *1203:DIODE *4757:A2 5.83121e-06
42 *1203:DIODE *4800:B 6.59587e-06
43 *1203:DIODE *5063:RESET_B 0.000268831
44 *1203:DIODE *5143:A 1.7396e-05
45 *1203:DIODE *1012:42 4.35348e-05
46 *1203:DIODE *1126:20 2.49909e-05
47 *1203:DIODE *1126:28 4.30866e-05
48 *1217:DIODE *1084:18 3.59997e-05
49 *1220:DIODE *4794:A1 9.80943e-06
50 *1220:DIODE *1007:56 0.00012657
51 *1224:DIODE *1023:50 2.53191e-06
52 *1234:DIODE *4816:A2 8.65905e-05
53 *1234:DIODE *4822:A2 0.00178463
54 *1234:DIODE *1006:25 8.65961e-05
55 *1284:DIODE *1288:DIODE 0
56 *1284:DIODE *5064:RESET_B 1.1561e-05
57 *1284:DIODE *1007:12 0
58 *1349:DIODE *1348:DIODE 7.66083e-05
59 *4757:B1 *1208:DIODE 5.33172e-05
60 *4757:B1 *4757:A2 0.000122337
61 *4771:B1 *1084:18 7.7615e-05
62 *4816:B1 *1006:14 0
63 *992:6 *1348:DIODE 8.65961e-05
64 *992:6 *4816:A2 0.000149765
65 *992:6 *994:89 0.000112631
66 *992:30 *1288:DIODE 0
67 *992:30 *5064:RESET_B 2.42236e-05
68 *992:30 *5065:RESET_B 0.000192713
69 *992:30 *1006:14 0
70 *992:30 *1012:14 8.92379e-05
71 *992:57 *1348:DIODE 3.83041e-05
72 *992:76 *4822:A2 4.92062e-05
73 *992:86 *1023:50 0.000147436
74 *992:139 *1221:DIODE 2.4997e-05
75 *992:139 *1023:29 0.000797392
76 *992:151 *1212:DIODE 0.000406818
77 *992:151 *1122:107 6.71882e-05
78 *992:153 *1084:18 0.000150206
79 *992:173 *1084:18 6.44229e-05
80 *992:205 *4794:A1 1.34594e-05
81 *1206:DIODE *4801:C1 2.16833e-05
82 *1232:DIODE *992:86 1.01152e-05
83 *1298:DIODE *992:101 0.000183149
84 *1298:DIODE *992:107 0.000137986
85 *4755:A1 *1203:DIODE 1.31202e-05
86 *4755:A2 *1203:DIODE 4.66108e-05
87 *4757:A1 *1203:DIODE 9.72523e-05
88 *4770:A2 *4771:B1 0.000185405
89 *4772:A2 *4771:B1 5.05521e-05
90 *4775:A *992:151 4.66108e-05
91 *4775:B *992:151 4.82919e-05
92 *4776:C1 *992:151 0.000316415
93 *4779:A1 *992:151 0.000235332
94 *4780:B1 *992:151 3.23663e-05
95 *4786:A2 *992:153 0
96 *4788:A2 *4787:B1 4.82863e-05
97 *4794:A2 *992:139 3.09233e-05
98 *4794:B1 *1220:DIODE 4.99619e-05
99 *4794:B1 *992:205 4.99619e-05
100 *4799:A2 *992:139 0.000126367
101 *4801:A2 *992:139 6.1994e-05
102 *4801:B1 *4801:C1 4.66108e-05
103 *4808:A1 *1284:DIODE 0.000367688
104 *4816:A1 *992:30 0.000289698
105 *4823:B *992:86 0.000182793
106 *4961:C *992:86 4.80285e-05
107 *4968:A1 *992:139 9.37731e-05
108 *4980:A *992:139 0.000164942
109 *4980:B *1203:DIODE 0.000240616
110 *4980:B *992:107 1.79483e-05
111 *4980:B *992:139 4.37919e-05
112 *4982:A2 *992:139 0
113 *5063:CLK *1203:DIODE 2.75229e-05
114 *5065:D *992:30 0
115 *230:140 *992:101 0
116 *230:140 *992:107 0
117 *626:14 *1211:DIODE 3.45588e-05
118 *851:18 *1224:DIODE 1.79536e-05
119 *851:18 *992:86 0.000574724
120 *906:35 *1220:DIODE 4.35348e-05
121 *906:35 *992:139 6.73424e-05
122 *906:35 *992:205 6.1357e-05
123 *907:10 *1203:DIODE 0.000165488
124 *907:10 *992:107 2.10433e-05
125 *907:69 *992:139 0.000306389
126 *910:27 *992:76 4.82919e-05
127 *930:55 *4771:B1 0.000123225
128 *934:23 *992:139 0.000384378
129 *938:10 *992:86 0.000138821
130 *959:8 *992:151 0.000278111
131 *963:11 *992:86 0
132 *963:27 *1224:DIODE 1.56428e-05
133 *963:27 *4801:C1 4.41506e-05
134 *964:16 *1203:DIODE 4.35348e-05
135 *983:35 *1203:DIODE 2.86265e-06
136 *985:29 *1203:DIODE 0.000155907
137 *987:188 *4771:B1 0
138 *987:188 *992:153 0
139 *987:188 *992:173 0
140 *990:22 *1224:DIODE 4.82919e-05
*RES
1 *5133:X *992:4 1.6 
2 *992:4 *992:6 4.935 
3 *992:6 *1234:DIODE 19.3 
4 *992:6 *992:17 2.4875 
5 *992:17 *4816:B1 3.8325 
6 *992:17 *992:30 9.1875 
7 *992:30 *1284:DIODE 11.355 
8 *992:30 *992:43 2.795 
9 *992:43 *4808:B1 1.6 
10 *992:43 *1227:DIODE 2.05 
11 *992:4 *992:57 0.45 
12 *992:57 *1230:DIODE 1.6 
13 *992:57 *1349:DIODE 2.395 
14 *1234:DIODE *992:76 3.085 
15 *992:76 *992:86 18.8975 
16 *992:86 *1224:DIODE 4.2825 
17 *992:86 *992:101 1.00413 
18 *992:101 *992:107 1.1201 
19 *992:107 *4801:C1 4.395 
20 *992:107 *1203:DIODE 23.175 
21 *992:101 *992:139 19.5666 
22 *992:139 *992:141 1.485 
23 *992:141 *992:143 0.45 
24 *992:143 *992:151 22.58 
25 *992:151 *992:153 4.44 
26 *992:153 *1217:DIODE 4.725 
27 *992:153 *4787:B1 4.05 
28 *992:151 *992:173 1.89 
29 *992:173 *1211:DIODE 4.395 
30 *992:173 *4771:B1 7.14 
31 *992:143 *4779:B1 1.6 
32 *992:141 *1214:DIODE 1.6 
33 *992:139 *992:205 2.175 
34 *992:205 *4793:B1 1.6 
35 *992:205 *1220:DIODE 4.12 
36 *992:76 *4822:B1 1.6 
37 *1284:DIODE *4928:C1 3.65 
38 *1203:DIODE *4757:B1 5.72 
*END

*D_NET *993 0.00922882
*CONN
*I *5200:A I *D sky130_fd_sc_hd__buf_2
*I *4519:A I *D sky130_fd_sc_hd__or2_2
*I *4513:A I *D sky130_fd_sc_hd__nand2_2
*I *4516:A1 I *D sky130_fd_sc_hd__a31o_2
*I *4528:A0 I *D sky130_fd_sc_hd__mux2_1
*I *4527:A I *D sky130_fd_sc_hd__nand2_2
*I *4297:A I *D sky130_fd_sc_hd__inv_2
*I *5171:X O *D sky130_fd_sc_hd__buf_1
*CAP
1 *5200:A 0
2 *4519:A 0.000261198
3 *4513:A 0
4 *4516:A1 0
5 *4528:A0 0.000160333
6 *4527:A 3.80402e-05
7 *4297:A 0.00013503
8 *5171:X 0.000468488
9 *993:51 0.00028516
10 *993:36 0.000894417
11 *993:28 0.00136308
12 *993:20 0.00101312
13 *993:14 0.000697634
14 *993:10 0.000582289
15 *4519:A *4519:B 8.64421e-05
16 *993:10 *1117:34 0.000145523
17 *993:14 *1020:10 0.000116165
18 *993:20 *1166:DIODE 3.34738e-05
19 *993:20 *1170:DIODE 0.000124473
20 *993:20 *4513:B 4.89295e-05
21 *993:20 *5154:A 9.59402e-05
22 *993:20 *1020:10 0.000104033
23 *993:20 *1020:139 2.04902e-05
24 *993:28 *1168:DIODE 0
25 *993:28 *1117:34 0.00012657
26 *993:28 *1117:41 8.65905e-05
27 *4516:B1 *993:28 0.000579417
28 *4517:A *993:36 0
29 *4517:B *993:36 5.30673e-05
30 *4528:A1 *4528:A0 0.000162311
31 *4619:A *4297:A 0
32 *4620:A *4297:A 0
33 *4639:B1 *4297:A 0.000187759
34 *436:6 *993:28 2.7441e-05
35 *436:6 *993:36 0.000167631
36 *436:14 *4527:A 0
37 *436:14 *993:36 4.31075e-05
38 *436:14 *993:51 1.91597e-05
39 *438:12 *4297:A 2.92496e-05
40 *438:12 *993:36 0.000576853
41 *441:8 *4519:A 0
42 *441:8 *993:14 0
43 *441:8 *993:28 0
44 *447:10 *4297:A 0
45 *982:6 *993:10 4.82919e-05
46 *982:17 *993:10 0.00041967
47 *982:106 *993:28 2.7441e-05
*RES
1 *5171:X *993:10 9.235 
2 *993:10 *993:14 4.145 
3 *993:14 *993:20 8.675 
4 *993:20 *993:28 13.765 
5 *993:28 *993:36 10.41 
6 *993:36 *4297:A 8.51 
7 *993:36 *993:51 1.155 
8 *993:51 *4527:A 2.41 
9 *993:51 *4528:A0 4.465 
10 *993:28 *4516:A1 1.6 
11 *993:20 *4513:A 1.6 
12 *993:14 *4519:A 7.92 
13 *993:10 *5200:A 1.6 
*END

*D_NET *994 0.0362092
*CONN
*I *4939:B1 I *D sky130_fd_sc_hd__o21ai_2
*I *4891:B1 I *D sky130_fd_sc_hd__o21ai_2
*I *4830:B1 I *D sky130_fd_sc_hd__o21ai_2
*I *4934:C1 I *D sky130_fd_sc_hd__o211a_2
*I *1291:DIODE I *D sky130_fd_sc_hd__diode_2
*I *4860:B1 I *D sky130_fd_sc_hd__o21ai_2
*I *1263:DIODE I *D sky130_fd_sc_hd__diode_2
*I *1253:DIODE I *D sky130_fd_sc_hd__diode_2
*I *4868:B1 I *D sky130_fd_sc_hd__o21ai_2
*I *1246:DIODE I *D sky130_fd_sc_hd__diode_2
*I *4853:B1 I *D sky130_fd_sc_hd__o21ai_2
*I *1237:DIODE I *D sky130_fd_sc_hd__diode_2
*I *1348:DIODE I *D sky130_fd_sc_hd__diode_2
*I *5133:A I *D sky130_fd_sc_hd__clkdlybuf4s25_1
*I *1288:DIODE I *D sky130_fd_sc_hd__diode_2
*I *4845:B1 I *D sky130_fd_sc_hd__o21ai_2
*I *1351:DIODE I *D sky130_fd_sc_hd__diode_2
*I *1133:DIODE I *D sky130_fd_sc_hd__diode_2
*I *4323:B I *D sky130_fd_sc_hd__and3b_2
*I *1250:DIODE I *D sky130_fd_sc_hd__diode_2
*I *1243:DIODE I *D sky130_fd_sc_hd__diode_2
*I *5134:X O *D sky130_fd_sc_hd__clkdlybuf4s25_1
*CAP
1 *4939:B1 2.15559e-05
2 *4891:B1 1.71225e-05
3 *4830:B1 0.000151661
4 *4934:C1 0
5 *1291:DIODE 0.00161662
6 *4860:B1 0
7 *1263:DIODE 0.00112376
8 *1253:DIODE 0
9 *4868:B1 3.80845e-05
10 *1246:DIODE 0.000136797
11 *4853:B1 0
12 *1237:DIODE 0.000151661
13 *1348:DIODE 0.000114439
14 *5133:A 0
15 *1288:DIODE 0.00235294
16 *4845:B1 3.61979e-05
17 *1351:DIODE 8.10783e-05
18 *1133:DIODE 0
19 *4323:B 0.000356443
20 *1250:DIODE 0.00110722
21 *1243:DIODE 0.000227307
22 *5134:X 0
23 *994:231 0.0016268
24 *994:172 0.000474226
25 *994:162 0.000462349
26 *994:156 0.000517714
27 *994:142 0.00246968
28 *994:132 0.00100813
29 *994:89 0.00242145
30 *994:85 0.000559587
31 *994:81 0.0005232
32 *994:70 0.000214495
33 *994:46 0.000930822
34 *994:27 0.002505
35 *994:6 0.00112667
36 *994:4 8.10783e-05
37 *1243:DIODE *1012:10 0
38 *1246:DIODE *4853:A2 5.17316e-05
39 *1246:DIODE *1009:10 8.58968e-05
40 *1250:DIODE *1352:DIODE 2.49909e-05
41 *1250:DIODE *4943:A1 0.000157114
42 *1250:DIODE *4943:B1 4.66108e-05
43 *1250:DIODE *1013:100 0.000136284
44 *1250:DIODE *1124:162 0.00016211
45 *1263:DIODE *4889:A2 0
46 *1263:DIODE *4918:A2 7.37306e-05
47 *1263:DIODE *1029:27 0.0011233
48 *1263:DIODE *1125:34 8.1858e-05
49 *1288:DIODE *1007:12 0
50 *1288:DIODE *1007:18 0
51 *1288:DIODE *1012:14 0.000119285
52 *1291:DIODE *1119:118 2.05641e-05
53 *4830:B1 *1008:24 5.75589e-05
54 *4868:B1 *4868:A2 5.83121e-06
55 *4891:B1 *4891:A2 5.05437e-05
56 *994:27 *1335:DIODE 0
57 *994:27 *4992:A 7.49327e-05
58 *994:27 *1000:51 0.000769422
59 *994:27 *1000:61 1.23238e-05
60 *994:46 *4313:B 0.000286635
61 *994:46 *4318:B 0
62 *994:46 *1000:51 0.000384418
63 *994:81 *1012:10 0
64 *994:85 *1008:12 0.000117428
65 *994:85 *1012:10 0
66 *994:85 *1012:14 0
67 *994:132 *4860:A2 4.82863e-05
68 *994:132 *1124:162 0.000236521
69 *994:142 *1120:87 0.000496897
70 *994:142 *1123:22 2.8585e-06
71 *994:142 *1123:24 2.81884e-05
72 *994:142 *1124:162 1.19928e-05
73 *994:156 *1251:DIODE 2.96426e-05
74 *994:156 *4865:B 4.99619e-05
75 *994:156 *1125:34 0.000153218
76 *994:156 *1125:40 0.000331459
77 *994:162 *1009:34 4.38051e-05
78 *994:162 *1009:51 0.000162332
79 *994:162 *1120:29 0
80 *994:162 *1120:42 0
81 *994:172 *4854:A1 4.82919e-05
82 *994:172 *1009:10 9.95648e-05
83 *994:172 *1009:23 0.000327793
84 *994:172 *1009:34 0.00013994
85 *994:172 *1120:29 0
86 *1232:DIODE *1250:DIODE 0.000230429
87 *1239:DIODE *1250:DIODE 0.00010998
88 *1248:DIODE *1250:DIODE 0.000273966
89 *1248:DIODE *994:132 0.000102642
90 *1248:DIODE *994:142 0.000303575
91 *1259:DIODE *1263:DIODE 0.000156098
92 *1259:DIODE *994:156 3.31204e-05
93 *1262:DIODE *1263:DIODE 0
94 *1268:DIODE *1250:DIODE 2.49909e-05
95 *1284:DIODE *1288:DIODE 0
96 *1293:DIODE *1243:DIODE 0
97 *1293:DIODE *994:27 0
98 *1349:DIODE *1348:DIODE 7.66083e-05
99 *4322:A2 *4323:B 0.000235326
100 *4322:A2 *994:46 4.82863e-05
101 *4830:A1 *4830:B1 4.82863e-05
102 *4830:A1 *994:85 4.40812e-05
103 *4831:B1 *4830:B1 4.82919e-05
104 *4845:A1 *994:81 3.68682e-05
105 *4850:A *1246:DIODE 0
106 *4854:A2 *994:172 9.50342e-06
107 *4854:B1 *1246:DIODE 3.83041e-05
108 *4854:B1 *994:172 4.99619e-05
109 *4859:A2 *994:142 2.11084e-05
110 *4859:B1 *994:142 8.43862e-05
111 *4863:A *994:156 2.68721e-05
112 *4865:A *994:156 8.8266e-05
113 *4865:A *994:162 4.82919e-05
114 *4866:C1 *994:156 0.000485252
115 *4867:A2 *994:162 5.92849e-05
116 *4869:A2 *994:172 6.55406e-05
117 *4881:C1 *1263:DIODE 9.17294e-05
118 *4889:C1 *1263:DIODE 7.63204e-05
119 *4891:A1 *1263:DIODE 5.05437e-05
120 *4891:A1 *4891:B1 8.65905e-05
121 *4918:A1 *1263:DIODE 4.82863e-05
122 *4928:B1 *1288:DIODE 0
123 *4934:B1 *1291:DIODE 2.60908e-05
124 *4942:B1 *4323:B 4.21973e-05
125 *4943:A2 *994:46 0
126 *4945:A *1250:DIODE 4.82919e-05
127 *4945:B *994:27 0.000206123
128 *4945:B *994:46 0.000306615
129 *4949:A *994:46 0.000131401
130 *4968:B1 *4939:B1 8.40213e-05
131 *4984:A1 *994:142 4.82919e-05
132 *4991:A *994:27 0
133 *5053:D *1288:DIODE 0
134 *5085:D *994:27 3.68596e-05
135 *5129:A *1246:DIODE 2.78732e-05
136 *5147:A *1351:DIODE 0.0001249
137 *5148:A *994:27 1.34594e-05
138 *243:19 *994:46 0
139 *243:25 *4323:B 5.84317e-06
140 *373:31 *1246:DIODE 0.000197115
141 *373:31 *994:172 0.000177882
142 *429:36 *994:156 0.00031598
143 *429:36 *994:162 4.82919e-05
144 *653:39 *1263:DIODE 0.000202095
145 *765:32 *994:132 0
146 *765:32 *994:142 0.000132747
147 *844:12 *994:172 0
148 *879:8 *994:27 2.65814e-06
149 *911:26 *4830:B1 2.30292e-05
150 *914:12 *1246:DIODE 0.000134249
151 *914:21 *1246:DIODE 4.66108e-05
152 *926:22 *4939:B1 6.82941e-05
153 *962:33 *994:46 0
154 *965:36 *1291:DIODE 5.86739e-05
155 *972:39 *994:27 0
156 *973:8 *994:46 0.000244511
157 *973:84 *994:46 0.00056539
158 *975:10 *4323:B 0.000124007
159 *986:64 *994:142 2.29156e-05
160 *988:58 *994:156 0.000182007
161 *988:79 *1250:DIODE 0.000443794
162 *988:157 *1250:DIODE 0.000269253
163 *992:6 *1348:DIODE 8.65961e-05
164 *992:6 *994:89 0.000112631
165 *992:30 *1288:DIODE 0
166 *992:57 *1348:DIODE 3.83041e-05
*RES
1 *5134:X *994:4 1.6 
2 *994:4 *994:6 2 
3 *994:6 *1243:DIODE 6.54 
4 *994:6 *994:27 18.865 
5 *994:27 *1250:DIODE 26.94 
6 *994:27 *994:46 18.11 
7 *994:46 *4323:B 6.19 
8 *994:46 *1133:DIODE 1.6 
9 *994:4 *1351:DIODE 2.74 
10 *1243:DIODE *994:70 1.6 
11 *994:70 *4845:B1 2.05 
12 *994:70 *994:81 5.165 
13 *994:81 *994:85 8.48 
14 *994:85 *994:89 2.19 
15 *994:89 *1288:DIODE 40.76 
16 *994:89 *5133:A 1.6 
17 *994:85 *1348:DIODE 4.12 
18 *994:81 *1237:DIODE 3.6 
19 *1250:DIODE *994:132 4.585 
20 *994:132 *994:142 15.95 
21 *994:142 *994:156 15.11 
22 *994:156 *994:162 4.85 
23 *994:162 *994:172 10.61 
24 *994:172 *4853:B1 1.6 
25 *994:172 *1246:DIODE 10.22 
26 *994:162 *4868:B1 4.05 
27 *994:156 *1253:DIODE 1.6 
28 *994:142 *1263:DIODE 26.34 
29 *994:132 *4860:B1 1.6 
30 *1288:DIODE *994:231 2.05 
31 *994:231 *1291:DIODE 10.1623 
32 *994:231 *4934:C1 1.6 
33 *1237:DIODE *4830:B1 5.72 
34 *1263:DIODE *4891:B1 3.995 
35 *1291:DIODE *4939:B1 3.995 
*END

*D_NET *995 0.00750675
*CONN
*I *5027:A I *D sky130_fd_sc_hd__and4_2
*I *5039:A_N I *D sky130_fd_sc_hd__and3b_2
*I *5029:A I *D sky130_fd_sc_hd__and4_2
*I *5023:A I *D sky130_fd_sc_hd__and3_2
*I *5028:B1 I *D sky130_fd_sc_hd__o21a_2
*I *5049:B_N I *D sky130_fd_sc_hd__and4bb_2
*I *5020:A I *D sky130_fd_sc_hd__and3_2
*I *5043:A I *D sky130_fd_sc_hd__and3_2
*I *5041:A I *D sky130_fd_sc_hd__and3_2
*I *4990:C I *D sky130_fd_sc_hd__or4_2
*I *5135:X O *D sky130_fd_sc_hd__clkdlybuf4s25_1
*CAP
1 *5027:A 0.000197451
2 *5039:A_N 5.85392e-05
3 *5029:A 2.11917e-05
4 *5023:A 0
5 *5028:B1 5.02828e-05
6 *5049:B_N 0
7 *5020:A 0
8 *5043:A 0.000203644
9 *5041:A 0
10 *4990:C 9.69417e-05
11 *5135:X 0.000202961
12 *995:119 0.000456786
13 *995:104 0.000374449
14 *995:82 5.93368e-05
15 *995:78 0.000290073
16 *995:65 0.000181501
17 *995:39 0.000308793
18 *995:35 0.000277576
19 *995:10 0.00018042
20 *4990:C *4990:D 0.000201503
21 *5027:A *5027:B 0.000158066
22 *5027:A *5260:A 0.000127373
23 *5028:B1 *5028:A2 9.80032e-06
24 *5028:B1 *5261:A 4.82919e-05
25 *5043:A *4331:A_N 4.99619e-05
26 *5043:A *4990:D 0.000158297
27 *5043:A *5151:A 0
28 *5043:A *1018:14 0.000178314
29 *5043:A *1019:21 0.000158072
30 *5043:A *1019:38 6.20787e-05
31 *995:10 *5236:A 8.53113e-06
32 *995:65 *5261:A 9.80032e-06
33 *995:78 *5261:A 0.000210762
34 *995:78 *5268:A 0.000201508
35 *995:82 *5261:A 4.82863e-05
36 *995:104 *5028:A2 4.11281e-05
37 *995:104 *5237:A 4.75576e-05
38 *995:104 *5261:A 8.99634e-06
39 *995:119 *5028:A2 2.18541e-05
40 *995:119 *5237:A 0.000167513
41 *995:119 *5248:A 5.09129e-05
42 *995:119 *5260:A 0.000164686
43 *995:119 *998:83 0
44 gpio_out[0] *995:119 2.05641e-05
45 *4331:C *5043:A 2.87433e-05
46 *4990:A *4990:C 5.4155e-06
47 *4990:B *995:10 0
48 *5020:B *995:39 7.21296e-06
49 *5020:B *995:104 0
50 *5027:C *5027:A 0.000123225
51 *5027:D *5027:A 4.82863e-05
52 *5029:C *5029:A 8.49205e-05
53 *5031:A2 *5028:B1 8.8266e-05
54 *5037:B *5029:A 5.30732e-05
55 *5039:B *5027:A 7.44453e-05
56 *5039:B *5039:A_N 3.03775e-05
57 *5039:B *995:119 4.39656e-05
58 *5039:C *5039:A_N 0.000158072
59 *5043:B *995:78 7.23533e-05
60 *5043:C *5043:A 0.000233849
61 *5049:A_N *995:35 4.82863e-05
62 *5049:C *995:35 4.66108e-05
63 *5049:C *995:65 4.82919e-05
64 *5049:D *995:35 0.000106006
65 *5049:D *995:65 2.30292e-05
66 *244:20 *995:10 0
67 *248:46 *5027:A 9.13216e-05
68 *253:16 *4990:C 0.000201503
69 *893:12 *5028:B1 0.000131761
70 *893:12 *995:82 3.66286e-05
71 *899:18 *995:10 7.4027e-05
72 *903:22 *995:10 4.92206e-05
73 *903:22 *995:39 0
74 *981:6 *995:65 4.66108e-05
75 *981:6 *995:78 8.34281e-06
76 *981:12 *995:35 4.66108e-05
77 *981:12 *995:39 2.92496e-05
78 *981:12 *995:65 7.40446e-05
79 *981:44 *5043:A 0.000176002
80 *981:44 *995:39 0.000103192
*RES
1 *5135:X *995:10 7.49 
2 *995:10 *4990:C 4.48 
3 *995:10 *5041:A 1.6 
4 *5135:X *995:35 4.24 
5 *995:35 *995:39 4.4 
6 *995:39 *5043:A 10.86 
7 *995:39 *5020:A 3.6 
8 *995:35 *995:65 1.755 
9 *995:65 *5049:B_N 1.6 
10 *995:65 *995:78 5.66 
11 *995:78 *995:82 2.45 
12 *995:82 *5028:B1 3.55 
13 *995:82 *5023:A 1.6 
14 *995:78 *995:104 2.7 
15 *995:104 *5029:A 4.395 
16 *995:104 *995:119 5.25 
17 *995:119 *5039:A_N 5.085 
18 *995:119 *5027:A 8.445 
*END

*D_NET *996 0.0073276
*CONN
*I *5046:A I *D sky130_fd_sc_hd__and4_2
*I *5135:A I *D sky130_fd_sc_hd__clkdlybuf4s25_1
*I *4327:B I *D sky130_fd_sc_hd__and3_2
*I *4946:A1 I *D sky130_fd_sc_hd__a31o_2
*I *4944:A1 I *D sky130_fd_sc_hd__a31o_2
*I *4992:B I *D sky130_fd_sc_hd__or3_2
*I *4943:B1 I *D sky130_fd_sc_hd__a21oi_2
*I *5136:X O *D sky130_fd_sc_hd__clkdlybuf4s25_1
*CAP
1 *5046:A 0.000474204
2 *5135:A 0.000197425
3 *4327:B 0.000107335
4 *4946:A1 0
5 *4944:A1 0.000153101
6 *4992:B 3.22276e-05
7 *4943:B1 0.000308862
8 *5136:X 0.000429091
9 *996:76 0.000942317
10 *996:34 0.000192652
11 *996:30 0.000343737
12 *996:15 0.000229079
13 *996:6 0.000467264
14 *4943:B1 *4943:A1 0.000255058
15 *4992:B *4992:C 0.00011852
16 *5046:A *4312:B 0.000288429
17 *5135:A *5236:A 0
18 *996:6 *999:47 6.77501e-05
19 *996:30 *4992:C 4.14369e-05
20 *1250:DIODE *4943:B1 4.66108e-05
21 *1293:DIODE *996:30 3.18137e-05
22 *4315:A_N *4327:B 1.52945e-05
23 *4944:B1 *4944:A1 8.65961e-05
24 *4946:A2 *4944:A1 4.82863e-05
25 *4946:A3 *4944:A1 6.90876e-05
26 *4990:B *5135:A 0.000163992
27 *4996:B *5046:A 0.000153441
28 *4999:B1 *5046:A 0.000180682
29 *4999:B1 *5135:A 9.50342e-06
30 *5001:A *996:76 0.000190451
31 *5047:B *4327:B 4.82919e-05
32 *5050:A *996:76 4.66108e-05
33 *5085:D *4992:B 0.00011852
34 *5085:D *996:30 0.000181376
35 *5136:A *4943:B1 0.00015639
36 *5136:A *996:6 4.66108e-05
37 *236:8 *5046:A 4.66108e-05
38 *244:20 *4944:A1 2.20732e-05
39 *244:20 *996:34 3.81908e-06
40 *248:46 *4327:B 7.47215e-05
41 *880:10 *996:76 7.66388e-05
42 *888:10 *996:76 4.99619e-05
43 *889:10 *5046:A 5.93674e-05
44 *903:44 *5046:A 5.6361e-05
45 *971:29 *4327:B 9.34411e-05
46 *971:29 *996:30 0.000124634
47 *972:71 *996:30 9.59798e-05
48 *972:82 *4327:B 2.16389e-05
49 *972:82 *996:30 8.08153e-06
50 *973:41 *996:76 0.000130103
51 *973:45 *5046:A 4.21314e-05
52 *973:45 *5135:A 0.000179987
*RES
1 *5136:X *996:6 4.465 
2 *996:6 *4943:B1 7.57 
3 *996:6 *996:15 2 
4 *996:15 *4992:B 4.98 
5 *996:15 *996:30 5.505 
6 *996:30 *996:34 2.45 
7 *996:34 *4944:A1 4.84 
8 *996:34 *4946:A1 1.6 
9 *996:30 *4327:B 6.195 
10 *5136:X *996:76 9.36 
11 *996:76 *5135:A 7.53 
12 *996:76 *5046:A 13.5 
*END

*D_NET *997 0.00843905
*CONN
*I *5024:C_N I *D sky130_fd_sc_hd__or4bb_2
*I *5009:C I *D sky130_fd_sc_hd__or4b_2
*I *5030:A_N I *D sky130_fd_sc_hd__and4b_2
*I *5026:A I *D sky130_fd_sc_hd__and3_2
*I *5016:A_N I *D sky130_fd_sc_hd__and3b_2
*I *5012:A_N I *D sky130_fd_sc_hd__nand2b_2
*I *5021:C I *D sky130_fd_sc_hd__nand3b_2
*I *5014:A_N I *D sky130_fd_sc_hd__nand3b_2
*I *5017:D_N I *D sky130_fd_sc_hd__or4b_2
*I *4314:A I *D sky130_fd_sc_hd__nor2_2
*I *5137:X O *D sky130_fd_sc_hd__clkdlybuf4s25_1
*CAP
1 *5024:C_N 0.000155982
2 *5009:C 0.000168686
3 *5030:A_N 0
4 *5026:A 0
5 *5016:A_N 0.000349355
6 *5012:A_N 0
7 *5021:C 0.000214975
8 *5014:A_N 0
9 *5017:D_N 0
10 *4314:A 9.05985e-05
11 *5137:X 0
12 *997:112 0.000456649
13 *997:103 0.000339725
14 *997:58 0.000489436
15 *997:43 0.000457577
16 *997:33 0.000242431
17 *997:29 0.000627712
18 *997:25 0.000536854
19 *997:21 0.000811487
20 *997:4 0.00037653
21 *4314:A *999:39 2.97004e-06
22 *4314:A *999:41 5.12855e-05
23 *4314:A *999:47 4.18603e-06
24 *5009:C *4997:A 5.83121e-06
25 *5009:C *5009:D_N 0
26 *5016:A_N *5264:A 0.000134434
27 *5021:C *5021:A_N 1.83952e-05
28 *5021:C *5251:A 0
29 *5024:C_N *999:114 5.21714e-05
30 *997:21 *1002:28 6.81237e-05
31 *997:33 *5264:A 4.82919e-05
32 *997:43 *5239:A 0.000110315
33 *997:43 *5245:A 0.000119232
34 *997:58 *5238:A 6.28687e-05
35 *997:58 *5251:A 0
36 *997:103 *4988:B 9.54399e-05
37 *997:103 *999:114 0
38 *997:103 *1002:22 0.000166877
39 *997:103 *1002:28 1.71013e-05
40 *997:112 *4988:B 1.34361e-05
41 *997:112 *4997:A 0
42 *997:112 *999:114 9.91888e-05
43 gpio_out[18] *997:58 2.10433e-05
44 gpio_out[4] *5016:A_N 8.40269e-05
45 *4989:B *997:103 1.73877e-05
46 *4996:B *997:25 8.65905e-05
47 *4997:B *5009:C 8.40213e-05
48 *5002:A_N *4314:A 0
49 *5002:C *997:21 9.37731e-05
50 *5002:D *997:21 7.23602e-05
51 *5012:B *997:33 4.66108e-05
52 *5016:C *5016:A_N 0.000122598
53 *5016:C *997:29 7.67415e-06
54 *5016:C *997:33 1.91597e-05
55 *5017:A *997:43 4.00541e-06
56 *5017:A *997:58 0
57 *5021:B *5021:C 7.24866e-05
58 *5021:B *997:58 4.43871e-06
59 *5022:B *5021:C 0.000109377
60 *5026:C *997:29 0.000155497
61 *5026:C *997:33 3.26889e-05
62 *5030:D *997:25 6.51498e-05
63 *5034:B *997:25 8.8266e-05
64 *5034:B *997:29 3.77036e-05
65 *5045:A *997:21 0.000271308
66 *5045:B *997:43 1.52184e-05
67 *5140:A *5024:C_N 0
68 *5140:A *997:103 0
69 *5140:A *997:112 0
70 *895:12 *997:33 7.40446e-05
71 *895:12 *997:43 0.000113797
72 *898:10 *997:58 0
73 *904:60 *997:43 7.21296e-06
74 *904:60 *997:58 0.000116853
75 *904:79 *997:58 6.44959e-05
76 *968:10 *5009:C 7.03608e-05
77 *969:19 *5024:C_N 9.27495e-05
*RES
1 *5137:X *997:4 1.6 
2 *997:4 *4314:A 7.235 
3 *997:4 *997:21 6.92 
4 *997:21 *997:25 6.935 
5 *997:25 *997:29 2.88 
6 *997:29 *997:33 2.1 
7 *997:33 *997:43 8.74 
8 *997:43 *5017:D_N 1.6 
9 *997:43 *997:58 7.535 
10 *997:58 *5014:A_N 3.6 
11 *997:58 *5021:C 7.935 
12 *997:33 *5012:A_N 1.6 
13 *997:29 *5016:A_N 7.345 
14 *997:25 *5026:A 1.6 
15 *997:21 *997:103 4.635 
16 *997:103 *5030:A_N 3.6 
17 *997:103 *997:112 2.91 
18 *997:112 *5009:C 6.48 
19 *997:112 *5024:C_N 6.72 
*END

*D_NET *998 0.0104407
*CONN
*I *5027:B I *D sky130_fd_sc_hd__and4_2
*I *5046:B I *D sky130_fd_sc_hd__and4_2
*I *5029:B I *D sky130_fd_sc_hd__and4_2
*I *5007:A_N I *D sky130_fd_sc_hd__and2b_2
*I *5028:A2 I *D sky130_fd_sc_hd__o21a_2
*I *5011:C I *D sky130_fd_sc_hd__and3b_2
*I *5014:B I *D sky130_fd_sc_hd__nand3b_2
*I *5009:D_N I *D sky130_fd_sc_hd__or4b_2
*I *5017:C I *D sky130_fd_sc_hd__or4b_2
*I *4988:B I *D sky130_fd_sc_hd__nor2_2
*I *5138:X O *D sky130_fd_sc_hd__clkdlybuf4s25_1
*CAP
1 *5027:B 0.000115867
2 *5046:B 2.51931e-05
3 *5029:B 0.000154248
4 *5007:A_N 0.00020773
5 *5028:A2 0.000120138
6 *5011:C 0
7 *5014:B 0.000135616
8 *5009:D_N 9.05756e-05
9 *5017:C 4.97174e-05
10 *4988:B 0.000252474
11 *5138:X 0
12 *998:96 0.000361978
13 *998:83 0.000260327
14 *998:81 0.000232829
15 *998:75 0.000707824
16 *998:60 0.000614088
17 *998:36 0.00035248
18 *998:23 0.000211215
19 *998:19 0.000548397
20 *998:4 0.000676083
21 *4988:B *4997:A 4.43871e-06
22 *4988:B *999:101 1.16578e-05
23 *4988:B *999:114 0.0001049
24 *4988:B *1001:86 2.54431e-05
25 *5007:A_N *5236:A 0.000270415
26 *5009:D_N *5251:A 8.49205e-05
27 *5017:C *5017:B 8.34281e-06
28 *5017:C *1002:75 3.64998e-06
29 *5028:A2 *5261:A 5.83121e-06
30 *5029:B *5248:A 2.06929e-05
31 *998:19 *5244:A 0.000200156
32 *998:19 *1001:6 1.73858e-05
33 *998:19 *1001:86 3.09179e-05
34 *998:23 *5245:A 9.82082e-05
35 *998:36 *5245:A 0.000111324
36 *998:60 *5244:A 6.74794e-05
37 *998:75 *5240:A 0.00014803
38 *998:75 *5244:A 0.000121807
39 *998:75 *5248:A 0
40 *998:75 *5257:A 0.000247567
41 *998:75 *5258:A 0.000666933
42 *998:81 *5257:A 7.23533e-05
43 *998:81 *5260:A 2.1112e-05
44 *998:83 *5260:A 6.52906e-05
45 gpio_out[1] *998:75 0.000105911
46 *4989:B *4988:B 4.05358e-05
47 *5009:C *5009:D_N 0
48 *5011:A_N *998:23 0.000116853
49 *5011:A_N *998:36 2.07184e-05
50 *5016:B *998:75 0
51 *5017:A *5017:C 4.66108e-05
52 *5027:A *5027:B 0.000158066
53 *5028:B1 *5028:A2 9.80032e-06
54 *5029:C *5007:A_N 1.12578e-05
55 *5031:A2 *5028:A2 0.000160635
56 *5031:C1 *5028:A2 4.66108e-05
57 *5037:B *5007:A_N 8.23457e-05
58 *5037:B *5029:B 0.000245298
59 *5037:B *998:75 5.12017e-06
60 *5040:A *5009:D_N 0
61 *5040:B *5009:D_N 3.00381e-05
62 *5140:A *4988:B 0
63 *884:12 *5009:D_N 4.65515e-05
64 *884:14 *998:36 7.21296e-06
65 *884:53 *5014:B 0.000210969
66 *884:53 *998:36 2.75538e-05
67 *891:14 *998:75 4.9968e-05
68 *891:22 *5028:A2 0.00015829
69 *891:22 *998:75 4.14369e-05
70 *891:22 *998:81 9.48658e-05
71 *891:22 *998:83 0.00032734
72 *891:24 *5028:A2 0.000114024
73 *891:54 *5028:A2 3.66286e-05
74 *892:27 *5014:B 2.03321e-05
75 *892:36 *5014:B 4.18603e-06
76 *894:12 *5009:D_N 4.99619e-05
77 *897:10 *5014:B 5.05521e-05
78 *898:10 *998:36 8.08153e-06
79 *903:44 *5046:B 4.66108e-05
80 *904:60 *998:75 0.000246643
81 *969:42 *5009:D_N 7.68414e-06
82 *969:42 *998:36 0.000114492
83 *995:104 *5028:A2 4.11281e-05
84 *995:119 *5028:A2 2.18541e-05
85 *995:119 *998:83 0
86 *997:103 *4988:B 9.54399e-05
87 *997:112 *4988:B 1.34361e-05
*RES
1 *5138:X *998:4 1.6 
2 *998:4 *4988:B 9.5 
3 *998:4 *998:19 5.28 
4 *998:19 *998:23 3.38 
5 *998:23 *5017:C 4.395 
6 *998:23 *998:36 3.105 
7 *998:36 *5009:D_N 5.79 
8 *998:36 *5014:B 6.72 
9 *998:19 *998:60 1.17375 
10 *998:60 *5011:C 1.6 
11 *998:60 *998:75 16.2763 
12 *998:75 *998:81 1.935 
13 *998:81 *998:83 3.93 
14 *998:83 *5028:A2 7.575 
15 *998:83 *998:96 2 
16 *998:96 *5007:A_N 5.155 
17 *998:96 *5029:B 4.585 
18 *998:81 *5046:B 4.05 
19 *998:75 *5027:B 5.085 
*END

*D_NET *999 0.0137279
*CONN
*I *4941:A1 I *D sky130_fd_sc_hd__a21oi_2
*I *5021:A_N I *D sky130_fd_sc_hd__nand3b_2
*I *5024:D_N I *D sky130_fd_sc_hd__or4bb_2
*I *5138:A I *D sky130_fd_sc_hd__clkdlybuf4s25_1
*I *4326:C I *D sky130_fd_sc_hd__and3_2
*I *4314:B I *D sky130_fd_sc_hd__nor2_2
*I *4992:C I *D sky130_fd_sc_hd__or3_2
*I *4943:A1 I *D sky130_fd_sc_hd__a21oi_2
*I *4942:A1 I *D sky130_fd_sc_hd__o21a_2
*I *5139:X O *D sky130_fd_sc_hd__clkdlybuf4s25_1
*CAP
1 *4941:A1 0
2 *5021:A_N 0.000608573
3 *5024:D_N 0
4 *5138:A 0
5 *4326:C 0.000441681
6 *4314:B 0
7 *4992:C 0.000143333
8 *4943:A1 0.000420935
9 *4942:A1 0.000360195
10 *5139:X 0
11 *999:114 0.000954843
12 *999:101 0.000551126
13 *999:47 0.00113484
14 *999:41 0.000667433
15 *999:39 0.000846637
16 *999:33 0.00120095
17 *999:25 0.00112733
18 *999:4 0.000799518
19 *4326:C *1134:DIODE 2.78732e-05
20 *4326:C *1335:DIODE 9.3062e-06
21 *4326:C *4324:A1 1.34503e-05
22 *4326:C *1001:27 2.53503e-05
23 *4326:C *1001:33 8.60113e-05
24 *4326:C *1013:149 9.27326e-05
25 *4942:A1 *5083:RESET_B 4.49585e-05
26 *4942:A1 *1029:169 0
27 *4942:A1 *1029:215 0
28 *5021:A_N *5242:A 5.14161e-05
29 *999:25 *1335:DIODE 0
30 *999:33 *1000:144 9.4087e-05
31 *999:39 *1000:10 0
32 *999:39 *1000:144 0
33 *999:101 *1001:86 8.5108e-05
34 *999:101 *1001:88 0.000237249
35 *999:114 *5242:A 0
36 *999:114 *1001:86 0.000198051
37 *999:114 *1002:22 6.10014e-05
38 *1250:DIODE *4943:A1 0.000157114
39 *1293:DIODE *4992:C 0.0001274
40 *4314:A *999:39 2.97004e-06
41 *4314:A *999:41 5.12855e-05
42 *4314:A *999:47 4.18603e-06
43 *4315:A_N *999:47 0.000201938
44 *4943:B1 *4943:A1 0.000255058
45 *4949:B *4942:A1 0
46 *4949:B *999:33 8.16598e-05
47 *4949:C *999:25 0
48 *4949:C *999:33 5.062e-06
49 *4949:D *999:33 6.97034e-05
50 *4988:B *999:101 1.16578e-05
51 *4988:B *999:114 0.0001049
52 *4992:B *4992:C 0.00011852
53 *4997:B *999:114 0.00023973
54 *5002:A_N *999:39 0
55 *5002:A_N *999:47 0
56 *5002:C *999:39 0
57 *5010:B *5021:A_N 0
58 *5015:A *5021:A_N 1.7386e-05
59 *5015:B *5021:A_N 6.00027e-05
60 *5018:A *5021:A_N 0.000158072
61 *5021:C *5021:A_N 1.83952e-05
62 *5022:B *5021:A_N 1.33293e-05
63 *5024:C_N *999:114 5.21714e-05
64 *5045:A *4326:C 0.000163199
65 *5080:D *999:33 2.46512e-05
66 *5083:CLK *4942:A1 0
67 *5085:D *4992:C 3.76596e-05
68 *5085:D *999:47 4.2857e-05
69 *5136:A *4943:A1 0.000120655
70 *5136:A *999:47 7.14699e-05
71 *5139:A *999:25 0
72 *5140:A *999:33 5.02217e-05
73 *5140:A *999:39 0.000130057
74 *241:45 *4326:C 4.13171e-05
75 *241:45 *999:39 0
76 *241:58 *999:39 0
77 *847:12 *4942:A1 0
78 *883:8 *999:114 0.000114492
79 *892:68 *5021:A_N 9.27255e-06
80 *967:64 *4942:A1 0.000142669
81 *967:64 *999:25 6.97034e-05
82 *967:84 *999:25 0.000195671
83 *971:29 *4326:C 6.65725e-05
84 *971:29 *999:39 0
85 *971:29 *999:41 0
86 *971:29 *999:47 0
87 *972:65 *999:47 0
88 *972:71 *999:47 0.000141626
89 *972:82 *999:47 6.28843e-05
90 *973:31 *999:47 0
91 *975:10 *999:25 0
92 *996:6 *999:47 6.77501e-05
93 *996:30 *4992:C 4.14369e-05
94 *997:103 *999:114 0
95 *997:112 *999:114 9.91888e-05
*RES
1 *5139:X *999:4 1.6 
2 *999:4 *4942:A1 11.195 
3 *999:4 *999:25 9.88 
4 *999:25 *999:33 11.09 
5 *999:33 *999:39 5.76 
6 *999:39 *999:41 1.635 
7 *999:41 *999:47 13.625 
8 *999:47 *4943:A1 8.965 
9 *999:47 *4992:C 8.705 
10 *999:41 *4314:B 3.6 
11 *999:39 *4326:C 14.56 
12 *999:33 *999:101 5.915 
13 *999:101 *5138:A 1.6 
14 *999:101 *999:114 10.595 
15 *999:114 *5024:D_N 3.6 
16 *999:114 *5021:A_N 11.73 
17 *999:25 *4941:A1 1.6 
*END

*D_NET *1000 0.0142943
*CONN
*I *4988:A I *D sky130_fd_sc_hd__nor2_2
*I *4997:A I *D sky130_fd_sc_hd__and2_2
*I *4326:A I *D sky130_fd_sc_hd__and3_2
*I *4319:B I *D sky130_fd_sc_hd__and4_2
*I *4329:A1 I *D sky130_fd_sc_hd__a41o_2
*I *4313:A I *D sky130_fd_sc_hd__nand2_2
*I *4992:A I *D sky130_fd_sc_hd__or3_2
*I *4312:A I *D sky130_fd_sc_hd__and2_2
*I *5028:A1 I *D sky130_fd_sc_hd__o21a_2
*I *4322:B2 I *D sky130_fd_sc_hd__a22o_2
*I *5140:X O *D sky130_fd_sc_hd__clkdlybuf4s25_1
*CAP
1 *4988:A 0
2 *4997:A 0.000195529
3 *4326:A 0
4 *4319:B 0.000144764
5 *4329:A1 0.000245945
6 *4313:A 0
7 *4992:A 2.76432e-05
8 *4312:A 0.000174083
9 *5028:A1 8.13005e-05
10 *4322:B2 4.05133e-05
11 *5140:X 0.000115642
12 *1000:144 0.00060237
13 *1000:94 0.000287629
14 *1000:61 0.00121989
15 *1000:51 0.00153394
16 *1000:37 0.000691131
17 *1000:31 0.000327104
18 *1000:29 0.000237882
19 *1000:18 0.000321481
20 *1000:10 0.000640249
21 *4312:A *5243:A 9.60974e-05
22 *4319:B *4329:A2 2.26862e-05
23 *4322:B2 *1001:99 0.000198934
24 *1000:18 *1001:88 8.65905e-05
25 *1000:18 *1001:99 0.000396626
26 *1000:29 *1335:DIODE 0
27 *1000:31 *1335:DIODE 0
28 *1000:51 *1335:DIODE 0
29 *1000:144 *1335:DIODE 0
30 *4294:A *4329:A1 8.69014e-05
31 *4294:A *1000:94 1.08758e-05
32 *4316:A1 *1000:37 9.5433e-05
33 *4316:B1 *4319:B 0.000165366
34 *4322:A2 *4322:B2 0.000115762
35 *4322:A2 *1000:18 0.000213633
36 *4325:B1 *1000:18 4.82919e-05
37 *4329:B1 *4329:A1 0.000232111
38 *4941:B1 *4329:A1 6.02202e-05
39 *4948:C *1000:51 0.000208431
40 *4949:A *1000:29 0.000206824
41 *4988:B *4997:A 4.43871e-06
42 *4999:B1 *4312:A 0.000116853
43 *4999:B1 *5028:A1 7.06865e-05
44 *5000:A *1000:61 4.35432e-05
45 *5009:C *4997:A 5.83121e-06
46 *5019:A *1000:61 7.66388e-05
47 *5019:B *1000:61 2.50702e-05
48 *5031:A1 *4312:A 6.38291e-05
49 *5031:A1 *5028:A1 7.06865e-05
50 *5031:A2 *5028:A1 0.000122331
51 *5031:C1 *1000:61 0.000308713
52 *5048:C *4312:A 0.000178314
53 *5140:A *4997:A 0
54 *5140:A *1000:144 0
55 *5148:A *1000:51 0.000540962
56 *219:25 *4329:A1 7.66083e-05
57 *236:12 *4312:A 5.21545e-05
58 *236:40 *4312:A 1.73877e-05
59 *239:24 *4319:B 4.00703e-05
60 *240:8 *1000:37 0.000137571
61 *240:8 *1000:51 0.000128163
62 *240:18 *1000:51 1.07797e-05
63 *241:58 *1000:10 9.37731e-05
64 *241:58 *1000:18 8.65905e-05
65 *248:10 *1000:31 3.68596e-05
66 *248:10 *1000:37 2.60702e-05
67 *879:8 *4992:A 0
68 *879:8 *1000:61 0.00012657
69 *879:21 *1000:61 2.59835e-05
70 *881:8 *1000:61 0.000270409
71 *903:22 *4312:A 0.000120329
72 *967:62 *4329:A1 0.000115464
73 *968:10 *4997:A 0.000161529
74 *973:8 *1000:51 0.00021799
75 *973:25 *1000:94 2.8185e-05
76 *973:84 *1000:29 0.000132096
77 *973:84 *1000:31 0.000175207
78 *973:84 *1000:37 8.00728e-05
79 *973:84 *1000:51 3.9442e-05
80 *974:8 *1000:144 0
81 *994:27 *4992:A 7.49327e-05
82 *994:27 *1000:51 0.000769422
83 *994:27 *1000:61 1.23238e-05
84 *994:46 *1000:51 0.000384418
85 *997:112 *4997:A 0
86 *999:33 *1000:144 9.4087e-05
87 *999:39 *1000:10 0
88 *999:39 *1000:144 0
*RES
1 *5140:X *1000:10 5.43 
2 *1000:10 *1000:18 7.055 
3 *1000:18 *4322:B2 3.43 
4 *1000:18 *1000:29 5.93 
5 *1000:29 *1000:31 2.145 
6 *1000:31 *1000:37 2.955 
7 *1000:37 *1000:51 18.86 
8 *1000:51 *1000:61 15.17 
9 *1000:61 *5028:A1 5.61 
10 *1000:61 *4312:A 9.06 
11 *1000:51 *4992:A 2.755 
12 *1000:37 *1000:94 2.795 
13 *1000:94 *4313:A 1.6 
14 *1000:94 *4329:A1 11.24 
15 *1000:31 *4319:B 6.7125 
16 *1000:29 *4326:A 3.6 
17 *1000:10 *1000:144 8.39 
18 *1000:144 *4997:A 9.23 
19 *1000:144 *4988:A 1.6 
*END

*D_NET *1001 0.0115726
*CONN
*I *4989:A I *D sky130_fd_sc_hd__nand2_2
*I *4322:A1 I *D sky130_fd_sc_hd__a22o_2
*I *4318:B I *D sky130_fd_sc_hd__nand4_2
*I *4325:A1 I *D sky130_fd_sc_hd__o21a_2
*I *4324:A1 I *D sky130_fd_sc_hd__a21oi_2
*I *4326:B I *D sky130_fd_sc_hd__and3_2
*I *4313:B I *D sky130_fd_sc_hd__nand2_2
*I *4329:A2 I *D sky130_fd_sc_hd__a41o_2
*I *4319:C I *D sky130_fd_sc_hd__and4_2
*I *4312:B I *D sky130_fd_sc_hd__and2_2
*I *5141:X O *D sky130_fd_sc_hd__clkdlybuf4s25_1
*CAP
1 *4989:A 0
2 *4322:A1 0
3 *4318:B 0.000105982
4 *4325:A1 0
5 *4324:A1 1.15326e-05
6 *4326:B 0
7 *4313:B 0.000120549
8 *4329:A2 0.000133241
9 *4319:C 0
10 *4312:B 0.000494225
11 *5141:X 0.00020735
12 *1001:99 0.000498492
13 *1001:88 0.000604708
14 *1001:86 0.000443634
15 *1001:43 0.000317492
16 *1001:35 0.000449456
17 *1001:33 0.000305099
18 *1001:27 0.000924228
19 *1001:10 0.00136785
20 *1001:6 0.000560159
21 *4312:B *5262:A 0
22 *1001:6 *5244:A 5.0751e-05
23 *1001:10 *5244:A 0
24 *1001:27 *5247:A 1.12578e-05
25 *1001:33 *1013:149 0.00016063
26 *1001:35 *1013:149 0.000101022
27 *1001:43 *1013:149 9.4087e-05
28 *4319:B *4329:A2 2.26862e-05
29 *4322:A2 *1001:99 5.11696e-05
30 *4322:B1 *4318:B 0.00015252
31 *4322:B2 *1001:99 0.000198934
32 *4326:C *4324:A1 1.34503e-05
33 *4326:C *1001:27 2.53503e-05
34 *4326:C *1001:33 8.60113e-05
35 *4329:A3 *4329:A2 8.49205e-05
36 *4988:B *1001:86 2.54431e-05
37 *4996:B *4312:B 0.000412716
38 *4996:B *1001:10 5.65627e-05
39 *5002:B_N *1001:27 0.000122331
40 *5002:C *1001:27 0.00015639
41 *5002:D *1001:27 2.16917e-05
42 *5030:D *1001:10 3.86607e-05
43 *5033:A *4312:B 1.53032e-05
44 *5033:B *4312:B 8.63188e-05
45 *5034:A *4312:B 2.92496e-05
46 *5034:A *1001:10 0.000116165
47 *5045:A *1001:27 0.000158455
48 *5046:A *4312:B 0.000288429
49 *5137:A *1001:27 0
50 *5137:A *1001:33 0
51 *219:25 *4313:B 9.30787e-05
52 *239:24 *4329:A2 1.47347e-05
53 *243:19 *4318:B 0.000202095
54 *243:19 *1001:43 7.18817e-05
55 *248:10 *1001:33 4.82919e-05
56 *877:12 *1001:10 0
57 *877:12 *1001:86 0.00013493
58 *883:8 *1001:10 2.03321e-05
59 *889:10 *4312:B 0.000162361
60 *891:104 *4312:B 0
61 *891:104 *1001:10 0
62 *903:14 *4312:B 0
63 *903:44 *4312:B 0.000163204
64 *962:33 *4313:B 0
65 *962:33 *1001:43 8.53113e-06
66 *962:35 *4329:A2 0.000118081
67 *971:29 *1001:27 5.34747e-05
68 *971:29 *1001:33 1.85674e-05
69 *994:46 *4313:B 0.000286635
70 *994:46 *4318:B 0
71 *998:19 *1001:6 1.73858e-05
72 *998:19 *1001:86 3.09179e-05
73 *999:101 *1001:86 8.5108e-05
74 *999:101 *1001:88 0.000237249
75 *999:114 *1001:86 0.000198051
76 *1000:18 *1001:88 8.65905e-05
77 *1000:18 *1001:99 0.000396626
*RES
1 *5141:X *1001:6 4.12 
2 *1001:6 *1001:10 4.91 
3 *1001:10 *4312:B 16.965 
4 *1001:10 *1001:27 12.035 
5 *1001:27 *1001:33 3.495 
6 *1001:33 *1001:35 1.83 
7 *1001:35 *1001:43 7.12 
8 *1001:43 *4319:C 1.6 
9 *1001:43 *4329:A2 4.135 
10 *1001:35 *4313:B 9.02 
11 *1001:33 *4326:B 1.6 
12 *1001:27 *4324:A1 2.05 
13 *1001:6 *1001:86 5.565 
14 *1001:86 *1001:88 4.245 
15 *1001:88 *4325:A1 1.6 
16 *1001:88 *1001:99 7.38 
17 *1001:99 *4318:B 8.45 
18 *1001:99 *4322:A1 1.6 
19 *1001:86 *4989:A 1.6 
*END

*D_NET *1002 0.00726394
*CONN
*I *5017:B I *D sky130_fd_sc_hd__or4b_2
*I *5011:B I *D sky130_fd_sc_hd__and3b_2
*I *5024:B I *D sky130_fd_sc_hd__or4bb_2
*I *5009:B I *D sky130_fd_sc_hd__or4b_2
*I *4996:A I *D sky130_fd_sc_hd__nor2_2
*I *4999:A2 I *D sky130_fd_sc_hd__o31a_2
*I *5048:B_N I *D sky130_fd_sc_hd__and4bb_2
*I *5142:X O *D sky130_fd_sc_hd__clkdlybuf4s25_1
*CAP
1 *5017:B 6.90306e-05
2 *5011:B 0.000219795
3 *5024:B 0.000122078
4 *5009:B 0
5 *4996:A 0
6 *4999:A2 6.02634e-06
7 *5048:B_N 0.000170816
8 *5142:X 0
9 *1002:75 0.000367713
10 *1002:57 0.000167801
11 *1002:28 0.000497799
12 *1002:22 0.000706298
13 *1002:6 0.000661604
14 *1002:4 0.000309427
15 *5011:B *5244:A 7.8936e-05
16 *5011:B *5245:A 3.5644e-05
17 *5024:B *5242:A 0.000286088
18 *5048:B_N *5260:A 0
19 *1002:22 *5242:A 2.75229e-05
20 *1002:57 *5242:A 7.06865e-05
21 *4999:B1 *5048:B_N 0.00015639
22 *5002:D *1002:28 0.000202095
23 *5011:A_N *5011:B 0.00016163
24 *5017:A *5017:B 2.49909e-05
25 *5017:C *5017:B 8.34281e-06
26 *5017:C *1002:75 3.64998e-06
27 *5030:B *1002:22 5.30732e-05
28 *5044:A *5024:B 0
29 *5048:A_N *5048:B_N 6.00111e-05
30 *5048:A_N *1002:28 8.34281e-06
31 *5142:A *1002:22 8.65961e-05
32 *877:12 *1002:22 0.000141592
33 *877:12 *1002:28 0.00100582
34 *883:8 *1002:22 2.16306e-05
35 *884:14 *5011:B 0.000298442
36 *888:10 *1002:28 0.000272994
37 *888:21 *1002:28 0.000402743
38 *892:27 *1002:57 0
39 *894:12 *5024:B 0
40 *969:32 *5024:B 0.000109009
41 *969:42 *5011:B 4.44927e-05
42 *969:42 *5024:B 7.63883e-05
43 *969:42 *1002:57 9.50342e-06
44 *973:31 *1002:28 5.83121e-06
45 *997:21 *1002:28 6.81237e-05
46 *997:103 *1002:22 0.000166877
47 *997:103 *1002:28 1.71013e-05
48 *999:114 *1002:22 6.10014e-05
*RES
1 *5142:X *1002:4 1.6 
2 *1002:4 *1002:6 2.52 
3 *1002:6 *1002:22 10.34 
4 *1002:22 *1002:28 14.285 
5 *1002:28 *5048:B_N 4.84 
6 *1002:28 *4999:A2 1.72 
7 *1002:22 *4996:A 3.6 
8 *1002:6 *1002:57 2.87 
9 *1002:57 *5009:B 3.6 
10 *1002:57 *5024:B 7.02 
11 *1002:4 *1002:75 0.795 
12 *1002:75 *5011:B 10.85 
13 *1002:75 *5017:B 2.395 
*END

*D_NET *1003 0.00270089
*CONN
*I *4748:B I *D sky130_fd_sc_hd__nor2_2
*I *5189:A I *D sky130_fd_sc_hd__clkbuf_4
*I *4757:A2 I *D sky130_fd_sc_hd__o21ai_2
*I *4749:A1 I *D sky130_fd_sc_hd__a211o_2
*I *5143:X O *D sky130_fd_sc_hd__clkdlybuf4s25_1
*CAP
1 *4748:B 0
2 *5189:A 1.8095e-05
3 *4757:A2 0.000174214
4 *4749:A1 4.61013e-05
5 *5143:X 0.000146154
6 *1003:27 0.000297645
7 *1003:25 0.000241443
8 *1003:12 0.000328362
9 *4749:A1 *1013:38 0
10 *4757:A2 *1208:DIODE 0.000226449
11 *4757:A2 *1005:10 4.43871e-06
12 *4757:A2 *1005:31 0.00019554
13 *1003:12 *1013:38 0.000122331
14 *1003:12 *1023:131 9.26619e-05
15 *1003:25 *1208:DIODE 2.42236e-05
16 *1003:27 *1208:DIODE 8.71001e-05
17 *1003:27 *1005:10 2.15594e-05
18 *1203:DIODE *4757:A2 5.83121e-06
19 *4749:A2 *4749:A1 3.70488e-05
20 *4749:A2 *1003:12 3.24882e-05
21 *4749:B1 *1003:25 0.000163992
22 *4757:A1 *4757:A2 8.65961e-05
23 *4757:B1 *4757:A2 0.000122337
24 *4758:A2 *5189:A 8.49205e-05
25 *376:16 *5189:A 8.49205e-05
26 *927:10 *1003:12 4.83612e-05
27 *927:10 *1003:25 8.08153e-06
*RES
1 *5143:X *1003:12 8.555 
2 *1003:12 *4749:A1 2.41 
3 *1003:12 *1003:25 4.655 
4 *1003:25 *1003:27 1.89 
5 *1003:27 *4757:A2 9.27 
6 *1003:27 *5189:A 4.395 
7 *1003:25 *4748:B 3.6 
*END

*D_NET *1004 0.00831827
*CONN
*I *4432:A I *D sky130_fd_sc_hd__nand2_2
*I *4711:A I *D sky130_fd_sc_hd__xnor2_2
*I *4305:A I *D sky130_fd_sc_hd__inv_2
*I *4431:A I *D sky130_fd_sc_hd__or2_2
*I *4391:B I *D sky130_fd_sc_hd__nor2_2
*I *4390:B I *D sky130_fd_sc_hd__nand2_2
*I *5172:X O *D sky130_fd_sc_hd__clkdlybuf4s25_1
*CAP
1 *4432:A 0.000146387
2 *4711:A 0.00013142
3 *4305:A 0
4 *4431:A 0
5 *4391:B 0.000194279
6 *4390:B 3.64111e-05
7 *5172:X 0.00118186
8 *1004:57 0.000992647
9 *1004:44 0.00114676
10 *1004:40 0.0006786
11 *1004:19 0.000485861
12 *1004:8 0.00126317
13 *4390:B *1015:34 8.65905e-05
14 *4391:B *1015:14 3.25635e-05
15 *4391:B *1015:21 7.37365e-05
16 *4391:B *1015:34 0.000205508
17 *4432:A *4432:B 0.000163204
18 *4432:A *1026:90 4.85494e-05
19 *1004:40 *4432:B 0.000123225
20 *1004:44 *1021:8 0
21 *1004:57 *1154:DIODE 2.66935e-05
22 *4412:B *1004:40 0
23 *4461:B_N *1004:57 0.000138551
24 *229:10 *1004:57 0.000775733
25 *229:34 *4711:A 0.000277223
26 *229:34 *1004:57 1.60203e-05
27 *311:10 *1004:40 9.32739e-05
28 *333:10 *1004:44 0
29 *333:10 *1004:57 0
30 *353:12 *1004:44 0
31 *353:12 *1004:57 0
*RES
1 *5172:X *1004:8 23.34 
2 *1004:8 *4390:B 4.395 
3 *1004:8 *1004:19 0.615 
4 *1004:19 *4391:B 7.635 
5 *1004:19 *1004:40 6.56 
6 *1004:40 *1004:44 6.185 
7 *1004:44 *4431:A 3.6 
8 *1004:44 *1004:57 18.965 
9 *1004:57 *4305:A 1.6 
10 *1004:57 *4711:A 4.84 
11 *1004:40 *4432:A 4.48 
*END

*D_NET *1005 0.0119487
*CONN
*I *4771:A2 I *D sky130_fd_sc_hd__o21ai_2
*I *4772:A1 I *D sky130_fd_sc_hd__a21oi_2
*I *4779:A2 I *D sky130_fd_sc_hd__o21ai_2
*I *4780:A1 I *D sky130_fd_sc_hd__a21oi_2
*I *4787:A2 I *D sky130_fd_sc_hd__o21ai_2
*I *4788:A1 I *D sky130_fd_sc_hd__a21oi_2
*I *4758:A1 I *D sky130_fd_sc_hd__a21oi_2
*I *5189:X O *D sky130_fd_sc_hd__clkbuf_4
*CAP
1 *4771:A2 0
2 *4772:A1 5.37227e-05
3 *4779:A2 0.000236347
4 *4780:A1 1.03148e-05
5 *4787:A2 1.63035e-05
6 *4788:A1 4.03815e-05
7 *4758:A1 5.99928e-05
8 *5189:X 6.23139e-05
9 *1005:57 0.00187194
10 *1005:39 0.000284639
11 *1005:35 0.00193183
12 *1005:33 0.000185216
13 *1005:31 0.00125078
14 *1005:10 0.00132019
15 *4779:A2 *1119:25 0.000122141
16 *1005:31 *1208:DIODE 0
17 *1005:31 *1023:174 0
18 *1005:31 *1119:57 0.000634257
19 *1005:31 *1119:74 4.0388e-05
20 *1005:31 *1122:77 0.000104313
21 *1005:31 *1126:28 0
22 *1005:39 *5059:RESET_B 0
23 *1005:39 *1084:18 0
24 *1005:57 *1119:25 3.90812e-05
25 *1005:57 *1119:29 0.000558446
26 *4757:A2 *1005:10 4.43871e-06
27 *4757:A2 *1005:31 0.00019554
28 *4758:A2 *4758:A1 0.000203178
29 *4758:A2 *1005:10 4.82919e-05
30 *4758:B1 *1005:31 0.000210077
31 *4761:A *1005:31 0.000103272
32 *4763:B1 *1005:31 0.000111448
33 *4764:A2 *1005:31 0
34 *4780:A2 *4780:A1 9.58678e-06
35 *4787:A1 *1005:39 0.000161637
36 *4788:A2 *4787:A2 4.60584e-05
37 *4788:A2 *4788:A1 0.000142079
38 *4788:B1 *4787:A2 5.05521e-05
39 *4788:B1 *4788:A1 2.75145e-05
40 *4982:A2 *4779:A2 6.16226e-06
41 *5057:D *1005:10 0
42 *5057:D *1005:31 0
43 *376:16 *4758:A1 0.000173416
44 *622:44 *1005:31 0.000615157
45 *626:14 *4772:A1 0.000122331
46 *929:44 *1005:31 3.57924e-05
47 *930:8 *1005:33 8.26614e-05
48 *930:8 *1005:35 7.89689e-05
49 *930:17 *1005:31 3.76596e-05
50 *930:17 *1005:33 5.53249e-06
51 *960:12 *4788:A1 7.60965e-05
52 *964:139 *1005:31 7.47145e-05
53 *964:139 *1005:33 0.000159964
54 *964:139 *1005:35 0.000132096
55 *964:143 *1005:35 8.56254e-05
56 *964:143 *1005:39 0.000104671
57 *990:175 *1005:31 0
58 *1003:27 *1005:10 2.15594e-05
*RES
1 *5189:X *1005:10 4.665 
2 *1005:10 *4758:A1 5.88 
3 *1005:10 *1005:31 28.45 
4 *1005:31 *1005:33 1.89 
5 *1005:33 *1005:35 2.5275 
6 *1005:35 *1005:39 6.0575 
7 *1005:39 *4788:A1 3.43 
8 *1005:39 *4787:A2 2.395 
9 *1005:35 *1005:57 3.6844 
10 *1005:57 *4780:A1 4.3325 
11 *1005:57 *4779:A2 4.77837 
12 *1005:33 *4772:A1 4.74 
13 *1005:31 *4771:A2 3.6 
*END

*D_NET *1006 0.00586929
*CONN
*I *4817:A1 I *D sky130_fd_sc_hd__a21oi_2
*I *4816:A2 I *D sky130_fd_sc_hd__o21ai_2
*I *5190:A I *D sky130_fd_sc_hd__clkbuf_4
*I *4822:A2 I *D sky130_fd_sc_hd__o21a_2
*I *5144:X O *D sky130_fd_sc_hd__clkdlybuf4s25_1
*CAP
1 *4817:A1 0
2 *4816:A2 0.000100315
3 *5190:A 0
4 *4822:A2 0.000480663
5 *5144:X 0.000349543
6 *1006:25 0.000132447
7 *1006:14 0.000601511
8 *1006:8 0.00043826
9 *4822:A2 *1235:DIODE 0.000415093
10 *4822:A2 *4820:B1_N 2.41381e-05
11 *4822:A2 *1123:249 0.000205337
12 *1006:8 *1012:30 0.000342506
13 *1006:14 *1007:8 0.000140912
14 *1234:DIODE *4816:A2 8.65905e-05
15 *1234:DIODE *4822:A2 0.00178463
16 *1234:DIODE *1006:25 8.65961e-05
17 *1319:DIODE *1006:14 0.00012819
18 *4816:A1 *4816:A2 2.49909e-05
19 *4816:A1 *1006:14 0
20 *4816:B1 *1006:14 0
21 *4817:B1 *4816:A2 8.73389e-06
22 *5065:D *1006:8 8.23457e-05
23 *5131:A *4822:A2 0.000161529
24 *910:27 *4822:A2 7.59904e-05
25 *992:6 *4816:A2 0.000149765
26 *992:30 *1006:14 0
27 *992:76 *4822:A2 4.92062e-05
*RES
1 *5144:X *1006:8 7.585 
2 *1006:8 *1006:14 6.655 
3 *1006:14 *4822:A2 19.315 
4 *1006:14 *1006:25 0.795 
5 *1006:25 *5190:A 1.6 
6 *1006:25 *4816:A2 4.135 
7 *1006:8 *4817:A1 1.6 
*END

*D_NET *1007 0.0101219
*CONN
*I *4808:A2 I *D sky130_fd_sc_hd__o21ai_2
*I *4809:A1 I *D sky130_fd_sc_hd__a21oi_2
*I *4927:B I *D sky130_fd_sc_hd__or2_2
*I *4933:B I *D sky130_fd_sc_hd__or2_2
*I *4939:A2 I *D sky130_fd_sc_hd__o21ai_2
*I *4794:A1 I *D sky130_fd_sc_hd__a21oi_2
*I *4793:A2 I *D sky130_fd_sc_hd__o21ai_2
*I *5190:X O *D sky130_fd_sc_hd__clkbuf_4
*CAP
1 *4808:A2 5.06842e-05
2 *4809:A1 6.05382e-05
3 *4927:B 0
4 *4933:B 0
5 *4939:A2 0
6 *4794:A1 0.000253645
7 *4793:A2 0
8 *5190:X 0.000275698
9 *1007:56 0.000598678
10 *1007:50 0.00131518
11 *1007:18 0.0016364
12 *1007:12 0.0010845
13 *1007:10 0.000543389
14 *1007:8 0.000390988
15 *4808:A2 *1024:50 7.10578e-05
16 *1007:8 *5064:RESET_B 2.03578e-05
17 *1007:8 *5065:RESET_B 0.000114441
18 *1007:10 *5064:RESET_B 2.63378e-05
19 *1007:12 *5064:RESET_B 5.72004e-05
20 *1007:12 *1118:79 0
21 *1007:50 *1119:118 4.9968e-05
22 *1220:DIODE *4794:A1 9.80943e-06
23 *1220:DIODE *1007:56 0.00012657
24 *1284:DIODE *1007:12 0
25 *1288:DIODE *1007:12 0
26 *1288:DIODE *1007:18 0
27 *1319:DIODE *1007:8 3.07699e-05
28 *4738:A *1007:50 2.42236e-05
29 *4738:A *1007:56 5.53249e-06
30 *4808:A1 *1007:12 0
31 *4809:B1 *4808:A2 2.49909e-05
32 *4809:B1 *1007:10 8.08439e-05
33 *4817:B1 *1007:8 4.7043e-05
34 *4927:A *1007:18 9.71067e-05
35 *4928:A2 *1007:12 0.000137578
36 *4933:A *1007:18 0
37 *4934:B1 *1007:50 8.7371e-05
38 *4953:B *1007:10 9.9535e-05
39 *4953:B *1007:12 3.05295e-05
40 *4968:B1 *1007:50 0.000928395
41 *4968:C1 *1007:50 8.49205e-05
42 *5053:D *1007:12 3.95269e-05
43 *5053:D *1007:18 2.50049e-05
44 *5054:D *1007:50 8.30403e-05
45 *5055:D *1007:50 1.70935e-05
46 *5055:D *1007:56 7.28749e-05
47 *5064:D *1007:12 5.39718e-05
48 *5065:D *1007:8 0.000137578
49 *906:23 *1007:56 0
50 *906:35 *4794:A1 0.000271303
51 *926:12 *1007:50 0.000124895
52 *926:22 *1007:50 0.000318091
53 *926:22 *1007:56 2.7881e-05
54 *937:14 *1007:8 1.7635e-05
55 *954:12 *1007:50 1.07797e-05
56 *965:22 *1007:12 0
57 *965:22 *1007:18 0
58 *965:28 *1007:18 8.8266e-05
59 *965:28 *1007:50 0.000148675
60 *965:53 *1007:56 0
61 *965:114 *1007:12 0
62 *965:161 *1007:8 0.000157297
63 *965:161 *1007:10 9.3062e-06
64 *992:205 *4794:A1 1.34594e-05
65 *1006:14 *1007:8 0.000140912
*RES
1 *5190:X *1007:8 11.1 
2 *1007:8 *1007:10 2.4 
3 *1007:10 *1007:12 8.265 
4 *1007:12 *1007:18 13.13 
5 *1007:18 *1007:50 25.785 
6 *1007:50 *1007:56 8.015 
7 *1007:56 *4793:A2 1.6 
8 *1007:56 *4794:A1 6.04 
9 *1007:50 *4939:A2 3.6 
10 *1007:18 *4933:B 1.6 
11 *1007:12 *4927:B 3.6 
12 *1007:10 *4809:A1 4.395 
13 *1007:8 *4808:A2 4.74 
*END

*D_NET *1008 0.0131248
*CONN
*I *4830:A2 I *D sky130_fd_sc_hd__o21ai_2
*I *4860:A2 I *D sky130_fd_sc_hd__o21ai_2
*I *5191:A I *D sky130_fd_sc_hd__clkbuf_4
*I *4853:A2 I *D sky130_fd_sc_hd__o21ai_2
*I *5145:X O *D sky130_fd_sc_hd__clkdlybuf4s25_1
*CAP
1 *4830:A2 0
2 *4860:A2 0.000461627
3 *5191:A 0
4 *4853:A2 9.99544e-05
5 *5145:X 0.000277249
6 *1008:40 0.00132267
7 *1008:24 0.00414405
8 *1008:12 0.00273696
9 *4853:A2 *1009:10 0.000163204
10 *1008:12 *1012:10 0
11 *1008:24 *4827:B 2.11084e-05
12 *1008:24 *1125:80 0.000207076
13 *1008:40 *4851:A2 8.18333e-06
14 *1008:40 *1125:59 9.57985e-06
15 *1008:40 *1125:80 0.000631858
16 *1246:DIODE *4853:A2 5.17316e-05
17 *1248:DIODE *4860:A2 2.75145e-05
18 *4728:A2 *1008:40 7.00225e-05
19 *4740:B *1008:40 6.83488e-05
20 *4740:C *1008:40 4.75399e-05
21 *4741:D *1008:40 3.41441e-05
22 *4830:B1 *1008:24 5.75589e-05
23 *4851:A1 *1008:40 1.60614e-05
24 *4860:A1 *4860:A2 8.53113e-06
25 *4979:A1 *4860:A2 0
26 *4981:C1 *1008:40 0
27 *4985:A1 *4860:A2 1.07797e-05
28 *4985:A2 *4860:A2 0.000926865
29 *4985:A2 *1008:40 8.7442e-05
30 *4985:B1 *4860:A2 0.000373911
31 *4985:B1 *1008:24 9.82856e-06
32 *4985:B1 *1008:40 2.75538e-05
33 *4985:D1 *1008:24 3.45588e-05
34 *4986:D *1008:40 5.63169e-05
35 *373:31 *1008:40 7.75324e-05
36 *567:12 *4860:A2 0
37 *911:26 *1008:24 0.00045601
38 *911:34 *1008:24 0.000112046
39 *914:21 *4853:A2 0.000198945
40 *914:21 *1008:40 4.35348e-05
41 *915:30 *4860:A2 7.88397e-05
42 *994:85 *1008:12 0.000117428
43 *994:132 *4860:A2 4.82863e-05
*RES
1 *5145:X *1008:12 10.16 
2 *1008:12 *1008:24 32.0525 
3 *1008:24 *1008:40 22.7475 
4 *1008:40 *4853:A2 4.48 
5 *1008:40 *5191:A 1.6 
6 *1008:24 *4860:A2 17.7975 
7 *1008:12 *4830:A2 1.6 
*END

*D_NET *1009 0.0103546
*CONN
*I *4918:A2 I *D sky130_fd_sc_hd__o211a_2
*I *4891:A2 I *D sky130_fd_sc_hd__o21ai_2
*I *4892:A1 I *D sky130_fd_sc_hd__a21oi_2
*I *4884:A1 I *D sky130_fd_sc_hd__a21oi_2
*I *4868:A2 I *D sky130_fd_sc_hd__o21ai_2
*I *4869:A1 I *D sky130_fd_sc_hd__a21oi_2
*I *4854:A1 I *D sky130_fd_sc_hd__a21oi_2
*I *5191:X O *D sky130_fd_sc_hd__clkbuf_4
*CAP
1 *4918:A2 0.000616111
2 *4891:A2 0.000166999
3 *4892:A1 0.000107334
4 *4884:A1 0.000218689
5 *4868:A2 0.000102119
6 *4869:A1 2.61242e-05
7 *4854:A1 3.54009e-05
8 *5191:X 0.000355521
9 *1009:79 0.00089932
10 *1009:64 0.000530014
11 *1009:51 0.00131248
12 *1009:34 0.000953006
13 *1009:23 0.000288334
14 *1009:10 0.000589567
15 *1009:51 *4880:B 4.40812e-05
16 *1009:51 *4890:A1 4.43871e-06
17 *1009:51 *1120:42 0
18 *1009:51 *1120:55 0
19 *1009:51 *1123:45 0
20 *1009:64 *4890:A1 0
21 *1246:DIODE *1009:10 8.58968e-05
22 *1255:DIODE *1009:51 3.23981e-05
23 *1263:DIODE *4918:A2 7.37306e-05
24 *4853:A2 *1009:10 0.000163204
25 *4868:A1 *4868:A2 5.4155e-06
26 *4868:B1 *4868:A2 5.83121e-06
27 *4869:B1 *4868:A2 5.05521e-05
28 *4869:B1 *1009:23 4.18603e-06
29 *4869:B1 *1009:34 5.30144e-05
30 *4870:B *1009:51 0.000374276
31 *4874:B1 *1009:51 7.63204e-05
32 *4875:A2 *1009:51 4.7043e-05
33 *4880:A *1009:51 0
34 *4884:A2 *4884:A1 0.000348704
35 *4884:A2 *1009:51 0.000110668
36 *4885:A2 *1009:64 6.18754e-05
37 *4888:A *1009:64 1.22676e-05
38 *4888:A *1009:79 6.52906e-05
39 *4890:A2 *1009:64 0
40 *4891:A1 *4891:A2 6.12198e-05
41 *4891:A1 *4918:A2 4.43682e-05
42 *4891:B1 *4891:A2 5.05437e-05
43 *4892:A2 *1009:64 0.000164686
44 *4892:B1 *4891:A2 7.00889e-06
45 *4918:A1 *4918:A2 4.38881e-05
46 *5075:D *1009:79 0
47 *370:31 *4869:A1 4.66108e-05
48 *373:31 *4854:A1 2.0514e-05
49 *775:12 *1009:51 0.000554182
50 *775:23 *1009:51 0.000179015
51 *775:23 *1009:64 0.000127416
52 *844:12 *4891:A2 2.7441e-05
53 *844:12 *1009:23 0
54 *844:12 *1009:34 0
55 *844:12 *1009:51 0
56 *844:12 *1009:64 0.000223457
57 *844:12 *1009:79 4.19797e-05
58 *917:19 *4868:A2 1.16578e-05
59 *917:19 *1009:51 0
60 *917:32 *1009:51 0
61 *919:23 *1009:51 0
62 *920:10 *1009:79 2.46007e-05
63 *920:43 *4891:A2 0
64 *942:8 *1009:10 8.40269e-05
65 *948:10 *1009:79 0
66 *994:162 *1009:34 4.38051e-05
67 *994:162 *1009:51 0.000162332
68 *994:172 *4854:A1 4.82919e-05
69 *994:172 *1009:10 9.95648e-05
70 *994:172 *1009:23 0.000327793
71 *994:172 *1009:34 0.00013994
*RES
1 *5191:X *1009:10 7.345 
2 *1009:10 *4854:A1 2.755 
3 *1009:10 *1009:23 5.93 
4 *1009:23 *4869:A1 4.05 
5 *1009:23 *1009:34 2.145 
6 *1009:34 *4868:A2 5.445 
7 *1009:34 *1009:51 19.565 
8 *1009:51 *4884:A1 5.86 
9 *1009:51 *1009:64 10.265 
10 *1009:64 *4892:A1 5.1 
11 *1009:64 *1009:79 4.655 
12 *1009:79 *4891:A2 4.495 
13 *1009:79 *4918:A2 9.22 
*END

*D_NET *1010 0.00194637
*CONN
*I *5192:A I *D sky130_fd_sc_hd__clkbuf_4
*I *4845:A2 I *D sky130_fd_sc_hd__o21ai_2
*I *4831:A1 I *D sky130_fd_sc_hd__a21oi_2
*I *5146:X O *D sky130_fd_sc_hd__clkdlybuf4s25_1
*CAP
1 *5192:A 0.000156202
2 *4845:A2 0.000193575
3 *4831:A1 0.000233067
4 *5146:X 0
5 *1010:8 0.000522546
6 *1010:6 0.000252106
7 *4831:A1 *5067:RESET_B 9.19672e-05
8 *4831:A1 *1025:10 3.98952e-05
9 *5192:A *1335:DIODE 6.62343e-05
10 *5192:A *4846:A1 0
11 *5192:A *1025:10 3.15295e-05
12 *1010:8 *4846:A1 0
13 *1010:8 *1025:10 6.44307e-05
14 *4846:B1 *4845:A2 0.000123304
15 *5069:CLK *4831:A1 0
16 *5069:CLK *1010:8 0
17 *5069:D *4831:A1 0
18 *253:16 *5192:A 8.49205e-05
19 *911:26 *4831:A1 8.65905e-05
*RES
1 *5146:X *1010:6 3.6 
2 *1010:6 *1010:8 1.89 
3 *1010:8 *4831:A1 8.325 
4 *1010:8 *4845:A2 6.825 
5 *1010:6 *5192:A 6.795 
*END

*D_NET *1011 0.0116741
*CONN
*I *4846:A1 I *D sky130_fd_sc_hd__a21oi_2
*I *4913:A1 I *D sky130_fd_sc_hd__a21oi_2
*I *4899:A1 I *D sky130_fd_sc_hd__a21oi_2
*I *4898:A2 I *D sky130_fd_sc_hd__o21ai_2
*I *4903:B1 I *D sky130_fd_sc_hd__o21ai_2
*I *4836:B I *D sky130_fd_sc_hd__nor2_2
*I *4837:A1 I *D sky130_fd_sc_hd__a211o_2
*I *5192:X O *D sky130_fd_sc_hd__clkbuf_4
*CAP
1 *4846:A1 0.000170777
2 *4913:A1 7.65614e-05
3 *4899:A1 0.000497536
4 *4898:A2 0.000383636
5 *4903:B1 9.40347e-05
6 *4836:B 0
7 *4837:A1 4.88855e-05
8 *5192:X 5.6076e-05
9 *1011:62 0.000700459
10 *1011:45 0.00104594
11 *1011:30 0.000815665
12 *1011:21 0.000286085
13 *1011:8 0.000783225
14 *1011:6 0.000860793
15 *4903:B1 *4901:B 4.66108e-05
16 *4903:B1 *1124:169 0.000271308
17 *1011:8 *4837:C1 4.99619e-05
18 *1011:21 *1013:10 0
19 *1011:21 *1013:100 0
20 *1011:30 *1270:DIODE 2.97004e-06
21 *1011:30 *1013:100 0
22 *1011:30 *1121:39 0
23 *1011:45 *1270:DIODE 0.00099676
24 *1266:DIODE *4898:A2 0.000239807
25 *1276:DIODE *4898:A2 0.00011964
26 *4832:A *1011:8 3.74161e-05
27 *4832:B *1011:8 0.000120655
28 *4837:A2 *4837:A1 3.45252e-05
29 *4837:A2 *1011:8 0.000208552
30 *4837:B1 *1011:21 0.000320834
31 *4898:B1 *4898:A2 4.99619e-05
32 *4910:A2 *1011:45 0.000182349
33 *4910:C1 *1011:45 0.00013521
34 *4912:A2 *1011:45 1.1561e-05
35 *4912:A2 *1011:62 1.07797e-05
36 *4913:A2 *4899:A1 7.1932e-06
37 *4913:A2 *4913:A1 6.01819e-05
38 *4913:A2 *1011:62 0
39 *5051:CLK *4903:B1 3.63661e-05
40 *5051:D *1011:21 0.000388413
41 *5051:D *1011:30 0.000325653
42 *5051:D *1011:45 5.86434e-05
43 *5069:CLK *4846:A1 0.000336529
44 *5192:A *4846:A1 0
45 *231:8 *4913:A1 0.00011852
46 *253:16 *1011:6 0.000152328
47 *253:16 *1011:8 0.000753869
48 *431:16 *1011:45 2.42236e-05
49 *653:84 *1011:45 9.30787e-05
50 *912:12 *1011:8 8.40213e-05
51 *922:21 *1011:45 0
52 *922:32 *1011:45 0
53 *923:10 *4913:A1 1.46216e-05
54 *923:10 *1011:62 1.15399e-05
55 *923:14 *1011:62 0.000210846
56 *923:22 *4898:A2 0.000123225
57 *923:22 *1011:45 5.93674e-05
58 *923:22 *1011:62 7.21296e-06
59 *949:8 *4899:A1 7.00889e-06
60 *966:84 *4903:B1 0.000142661
61 *988:85 *1011:30 0
62 *1010:8 *4846:A1 0
*RES
1 *5192:X *1011:6 3.085 
2 *1011:6 *1011:8 12.87 
3 *1011:8 *4837:A1 2.41 
4 *1011:8 *1011:21 6.44 
5 *1011:21 *4836:B 3.6 
6 *1011:21 *1011:30 3.93 
7 *1011:30 *4903:B1 6.81 
8 *1011:30 *1011:45 13.245 
9 *1011:45 *4898:A2 11.07 
10 *1011:45 *1011:62 3.2325 
11 *1011:62 *4899:A1 10.8375 
12 *1011:62 *4913:A1 5.8125 
13 *1011:6 *4846:A1 9.53 
*END

*D_NET *1012 0.0147154
*CONN
*I *5146:A I *D sky130_fd_sc_hd__clkdlybuf4s25_1
*I *5145:A I *D sky130_fd_sc_hd__clkdlybuf4s25_1
*I *5144:A I *D sky130_fd_sc_hd__clkdlybuf4s25_1
*I *4922:A1 I *D sky130_fd_sc_hd__a21oi_2
*I *5143:A I *D sky130_fd_sc_hd__clkdlybuf4s25_1
*I *4800:B I *D sky130_fd_sc_hd__or2_2
*I *5147:X O *D sky130_fd_sc_hd__clkdlybuf4s25_1
*CAP
1 *5146:A 0.000202578
2 *5145:A 0
3 *5144:A 0
4 *4922:A1 0
5 *5143:A 0.00120814
6 *4800:B 0.00012114
7 *5147:X 0.00090676
8 *1012:42 0.00204645
9 *1012:30 0.00235781
10 *1012:14 0.0018334
11 *1012:10 0.000896953
12 *5143:A *1244:DIODE 0.000138799
13 *5143:A *4850:B 2.77183e-05
14 *1012:10 *5067:RESET_B 0.000144122
15 *1012:10 *1025:10 0.000103449
16 *1012:30 *1231:DIODE 1.16578e-05
17 *1012:30 *1013:73 0.000186635
18 *1012:30 *1124:56 0
19 *1012:30 *1124:65 0.000124895
20 *1012:42 *1278:DIODE 4.99619e-05
21 *1012:42 *1315:DIODE 4.43951e-05
22 *1012:42 *5063:RESET_B 4.82919e-05
23 *1012:42 *1124:65 7.40446e-05
24 *1203:DIODE *4800:B 6.59587e-06
25 *1203:DIODE *5143:A 1.7396e-05
26 *1203:DIODE *1012:42 4.35348e-05
27 *1229:DIODE *1012:30 2.75229e-05
28 *1243:DIODE *1012:10 0
29 *1288:DIODE *1012:14 0.000119285
30 *1314:DIODE *4800:B 2.09578e-05
31 *1343:DIODE *5143:A 0.000116158
32 *4740:C *4800:B 0
33 *4740:C *5143:A 0
34 *4810:B *1012:30 4.82919e-05
35 *4815:B1 *1012:30 2.30292e-05
36 *4815:C1 *1012:30 8.8266e-05
37 *4817:A2 *1012:30 0.000124895
38 *4819:B *1012:30 0
39 *4821:A2 *1012:30 7.44442e-05
40 *4821:A3 *1012:30 9.50342e-06
41 *4821:B1 *1012:30 2.75145e-05
42 *4845:A1 *1012:10 0
43 *4922:A2 *1012:30 0.000114912
44 *4922:A2 *1012:42 8.57024e-05
45 *4922:B1 *1012:30 0.000137578
46 *4965:A *5143:A 6.7449e-05
47 *4969:A1 *1012:42 0.00026553
48 *4969:C1 *1012:42 0.00020156
49 *4970:B *5143:A 0.000916463
50 *4980:B *5143:A 0
51 *653:52 *5143:A 0.000311131
52 *716:42 *1012:30 8.49205e-05
53 *907:10 *4800:B 9.22606e-05
54 *907:10 *1012:42 8.49205e-05
55 *933:10 *1012:30 0
56 *964:27 *5143:A 5.70328e-05
57 *985:29 *5143:A 0.000436394
58 *986:122 *1012:30 7.35813e-05
59 *986:133 *1012:30 7.96116e-05
60 *990:10 *1012:30 0
61 *990:16 *1012:30 0
62 *992:30 *1012:14 8.92379e-05
63 *994:81 *1012:10 0
64 *994:85 *1012:10 0
65 *994:85 *1012:14 0
66 *1006:8 *1012:30 0.000342506
67 *1008:12 *1012:10 0
*RES
1 *5147:X *1012:10 15.225 
2 *1012:10 *1012:14 6.185 
3 *1012:14 *1012:30 34.405 
4 *1012:30 *1012:42 13.205 
5 *1012:42 *4800:B 6 
6 *1012:42 *5143:A 29.455 
7 *1012:30 *4922:A1 1.6 
8 *1012:14 *5144:A 1.6 
9 *1012:10 *5145:A 3.6 
10 *5147:X *5146:A 6.065 
*END

*D_NET *1013 0.034075
*CONN
*I *4883:B1 I *D sky130_fd_sc_hd__a21o_2
*I *4904:B1 I *D sky130_fd_sc_hd__a21oi_2
*I *1260:DIODE I *D sky130_fd_sc_hd__diode_2
*I *1257:DIODE I *D sky130_fd_sc_hd__diode_2
*I *4876:B1 I *D sky130_fd_sc_hd__a21o_2
*I *4837:C1 I *D sky130_fd_sc_hd__a211o_2
*I *4765:B1 I *D sky130_fd_sc_hd__a21o_2
*I *1352:DIODE I *D sky130_fd_sc_hd__diode_2
*I *4912:B1 I *D sky130_fd_sc_hd__a21o_2
*I *1274:DIODE I *D sky130_fd_sc_hd__diode_2
*I *4324:B1 I *D sky130_fd_sc_hd__a21oi_2
*I *1134:DIODE I *D sky130_fd_sc_hd__diode_2
*I *1135:DIODE I *D sky130_fd_sc_hd__diode_2
*I *4330:B1 I *D sky130_fd_sc_hd__a21oi_2
*I *1269:DIODE I *D sky130_fd_sc_hd__diode_2
*I *1240:DIODE I *D sky130_fd_sc_hd__diode_2
*I *1280:DIODE I *D sky130_fd_sc_hd__diode_2
*I *4921:B1 I *D sky130_fd_sc_hd__a21o_2
*I *4749:C1 I *D sky130_fd_sc_hd__a211o_2
*I *1200:DIODE I *D sky130_fd_sc_hd__diode_2
*I *1208:DIODE I *D sky130_fd_sc_hd__diode_2
*I *5148:X O *D sky130_fd_sc_hd__clkdlybuf4s25_1
*CAP
1 *4883:B1 9.14227e-05
2 *4904:B1 6.91479e-05
3 *1260:DIODE 0.000158674
4 *1257:DIODE 0
5 *4876:B1 0.000220147
6 *4837:C1 5.81042e-06
7 *4765:B1 0.000116422
8 *1352:DIODE 3.2179e-05
9 *4912:B1 0.000118243
10 *1274:DIODE 0.000105928
11 *4324:B1 0
12 *1134:DIODE 9.98919e-05
13 *1135:DIODE 6.22672e-05
14 *4330:B1 3.32033e-05
15 *1269:DIODE 0.000877604
16 *1240:DIODE 5.81042e-06
17 *1280:DIODE 8.74732e-05
18 *4921:B1 0
19 *4749:C1 0
20 *1200:DIODE 3.98087e-05
21 *1208:DIODE 0.000867554
22 *5148:X 4.43494e-05
23 *1013:259 0.000574614
24 *1013:251 0.00180979
25 *1013:237 0.00157866
26 *1013:173 0.000739165
27 *1013:149 0.000694576
28 *1013:145 0.00129144
29 *1013:134 0.000462839
30 *1013:119 0.000555099
31 *1013:106 0.00123731
32 *1013:100 0.000508018
33 *1013:73 0.000232401
34 *1013:42 0.000828459
35 *1013:38 0.00198603
36 *1013:16 0.00330576
37 *1013:10 0.00141231
38 *1013:8 0.000542113
39 *1134:DIODE *1335:DIODE 0.000114492
40 *1208:DIODE *5057:RESET_B 7.16437e-05
41 *1208:DIODE *1023:131 5.43129e-05
42 *1208:DIODE *1119:74 0
43 *1208:DIODE *1122:30 0
44 *1208:DIODE *1126:28 3.09233e-05
45 *1269:DIODE *4902:S 0.000147089
46 *4904:B1 *1338:DIODE 1.91597e-05
47 *1013:38 *1122:12 9.30717e-05
48 *1013:100 *1121:39 0
49 *1013:106 *4911:A1 1.71013e-05
50 *1013:106 *5077:RESET_B 0.000252289
51 *1013:106 *1121:39 0.00019189
52 *1013:145 *1029:169 0
53 *1013:173 *1337:DIODE 2.47313e-05
54 *1013:173 *5083:RESET_B 3.43427e-05
55 *1013:173 *1029:169 0
56 *1013:251 *1338:DIODE 6.91157e-06
57 *1013:251 *4890:A1 5.8825e-05
58 *1250:DIODE *1352:DIODE 2.49909e-05
59 *1250:DIODE *1013:100 0.000136284
60 *1259:DIODE *1013:251 0.000155491
61 *1279:DIODE *1280:DIODE 2.16917e-05
62 *1365:DIODE *1013:251 2.96334e-05
63 *4326:C *1134:DIODE 2.78732e-05
64 *4326:C *1013:149 9.27326e-05
65 *4330:A2 *1013:145 0.00013994
66 *4694:B1 *1013:38 0.000192125
67 *4696:A1 *1013:38 0.00011964
68 *4696:B2 *1013:38 3.25831e-05
69 *4722:A *1013:38 7.07801e-05
70 *4732:A2 *1013:259 0
71 *4732:B1 *1013:259 0
72 *4741:A *1013:251 0.000171659
73 *4745:A *1013:38 4.75576e-05
74 *4746:A1 *1013:38 0.0001947
75 *4747:A2 *1013:38 0.000257478
76 *4749:A1 *1013:38 0
77 *4749:A2 *1013:38 0.000120655
78 *4749:B1 *1208:DIODE 3.25831e-05
79 *4749:B1 *1013:42 0.000131408
80 *4757:A1 *1208:DIODE 9.4087e-05
81 *4757:A2 *1208:DIODE 0.000226449
82 *4757:B1 *1208:DIODE 5.33172e-05
83 *4765:A1 *4765:B1 8.40269e-05
84 *4818:A *1013:16 0.000210611
85 *4819:B *1013:16 5.05437e-05
86 *4825:B *1013:16 0
87 *4825:D *1013:16 0
88 *4837:A2 *4837:C1 4.99619e-05
89 *4837:B1 *1013:10 0.000131772
90 *4840:B *1013:16 0
91 *4876:A2 *1260:DIODE 8.71001e-05
92 *4876:A2 *4876:B1 0.000231342
93 *4876:A2 *1013:259 0.000604362
94 *4882:B1 *1013:251 4.82919e-05
95 *4883:A1 *4883:B1 5.30673e-05
96 *4884:A2 *1013:251 0.000461941
97 *4884:A2 *1013:259 0.000122331
98 *4903:A2 *1013:237 3.86607e-05
99 *4904:A1 *4904:B1 1.85674e-05
100 *4904:A1 *1013:251 4.94457e-05
101 *4912:A2 *4912:B1 0
102 *4921:A1 *1280:DIODE 8.40213e-05
103 *4942:B1 *1013:173 5.05437e-05
104 *4949:B *1013:173 0
105 *4953:A *1013:38 0.000352156
106 *4973:C *1013:16 4.40812e-05
107 *4981:D1 *1013:38 0
108 *4986:A *1013:16 0
109 *5051:D *1013:10 0
110 *5051:D *1013:16 0
111 *5077:CLK *4904:B1 4.66108e-05
112 *5077:CLK *1013:237 4.66826e-05
113 *5127:A *1013:38 0.000232482
114 *5132:A *1135:DIODE 5.83121e-06
115 *5165:A *1013:251 0.0001249
116 *234:21 *4876:B1 3.76596e-05
117 *234:21 *1013:259 7.34364e-05
118 *239:10 *1134:DIODE 5.36384e-06
119 *239:35 *1013:145 0
120 *239:35 *1013:173 0
121 *241:45 *1134:DIODE 0
122 *375:54 *1200:DIODE 2.49909e-05
123 *567:12 *1013:251 4.19967e-05
124 *653:48 *1013:251 0.000215729
125 *653:84 *1269:DIODE 0.000727501
126 *653:84 *1013:251 0.000471711
127 *657:34 *1013:16 0.000151999
128 *683:22 *4765:B1 3.00483e-05
129 *716:42 *1013:16 0
130 *735:26 *1013:16 0
131 *804:10 *4904:B1 4.66108e-05
132 *844:12 *1260:DIODE 6.14689e-05
133 *847:12 *4912:B1 9.78734e-05
134 *847:12 *1013:10 0
135 *847:12 *1013:16 0
136 *847:12 *1013:106 0.000626477
137 *910:19 *1013:16 0.000348409
138 *910:81 *1013:16 0.000245886
139 *912:12 *1013:10 0
140 *918:28 *4876:B1 0.000116165
141 *920:55 *4883:B1 9.80032e-06
142 *923:10 *4912:B1 0
143 *927:10 *1208:DIODE 0.000119221
144 *927:10 *1013:42 0.000137571
145 *966:31 *1013:259 0
146 *966:66 *1013:251 0.000273097
147 *967:8 *1013:119 0.000271308
148 *967:10 *4330:B1 0
149 *967:62 *1013:134 0
150 *986:14 *1013:237 7.23602e-05
151 *986:133 *1013:16 0.000173289
152 *987:57 *1013:38 0.00015896
153 *987:112 *1280:DIODE 0.000237249
154 *987:159 *4330:B1 1.94805e-05
155 *987:159 *1013:134 6.23206e-05
156 *987:159 *1013:145 8.78813e-05
157 *988:217 *1013:251 0.000159741
158 *990:16 *1013:16 9.78543e-06
159 *990:16 *1013:73 0.000131002
160 *990:175 *1208:DIODE 9.23772e-05
161 *990:175 *4765:B1 4.66108e-05
162 *990:177 *4765:B1 4.82863e-05
163 *990:179 *4765:B1 4.99619e-05
164 *990:189 *4765:B1 8.65961e-05
165 *991:12 *1013:251 0.000116158
166 *991:34 *4883:B1 4.82919e-05
167 *1001:33 *1013:149 0.00016063
168 *1001:35 *1013:149 0.000101022
169 *1001:43 *1013:149 9.4087e-05
170 *1003:12 *1013:38 0.000122331
171 *1003:25 *1208:DIODE 2.42236e-05
172 *1003:27 *1208:DIODE 8.71001e-05
173 *1005:31 *1208:DIODE 0
174 *1011:8 *4837:C1 4.99619e-05
175 *1011:21 *1013:10 0
176 *1011:21 *1013:100 0
177 *1011:30 *1013:100 0
178 *1012:30 *1013:73 0.000186635
*RES
1 *5148:X *1013:8 4.05 
2 *1013:8 *1013:10 4.185 
3 *1013:10 *1013:16 24.425 
4 *1013:16 *1013:38 38.015 
5 *1013:38 *1013:42 3.635 
6 *1013:42 *1208:DIODE 17.07 
7 *1013:42 *1200:DIODE 4.05 
8 *1013:38 *4749:C1 1.6 
9 *1013:16 *1013:73 7.93 
10 *1013:73 *4921:B1 1.6 
11 *1013:73 *1280:DIODE 4.135 
12 *1013:10 *1240:DIODE 3.6 
13 *1013:8 *1013:100 6.32 
14 *1013:100 *1013:106 11.245 
15 *1013:106 *1269:DIODE 11.725 
16 *1013:106 *1013:119 6.59 
17 *1013:119 *4330:B1 4.215 
18 *1013:119 *1013:134 5.72 
19 *1013:134 *1135:DIODE 2.395 
20 *1013:134 *1013:145 5.93 
21 *1013:145 *1013:149 12.11 
22 *1013:149 *1134:DIODE 7.43 
23 *1013:149 *4324:B1 1.6 
24 *1013:145 *1013:173 9.23 
25 *1013:173 *1274:DIODE 2.74 
26 *1013:173 *4912:B1 8.255 
27 *1013:100 *1352:DIODE 2.05 
28 *1208:DIODE *4765:B1 5.735 
29 *1240:DIODE *4837:C1 3.65 
30 *1269:DIODE *1013:237 7.61 
31 *1013:237 *1013:251 31.93 
32 *1013:251 *1013:259 10.49 
33 *1013:259 *4876:B1 7.845 
34 *1013:259 *1257:DIODE 3.6 
35 *1013:251 *1260:DIODE 7.49 
36 *1013:237 *4904:B1 3.265 
37 *1260:DIODE *4883:B1 5.045 
*END

*D_NET *1014 0.0055961
*CONN
*I *5099:A I *D sky130_fd_sc_hd__buf_2
*I *5098:A I *D sky130_fd_sc_hd__buf_2
*I *5115:A I *D sky130_fd_sc_hd__buf_2
*I *5117:A I *D sky130_fd_sc_hd__buf_2
*I *5094:A I *D sky130_fd_sc_hd__buf_2
*I *5095:A I *D sky130_fd_sc_hd__buf_2
*I *5112:A I *D sky130_fd_sc_hd__buf_2
*I *5087:A I *D sky130_fd_sc_hd__buf_2
*I *5096:A I *D sky130_fd_sc_hd__buf_2
*I *5092:A I *D sky130_fd_sc_hd__buf_2
*I *5149:X O *D sky130_fd_sc_hd__clkdlybuf4s25_1
*CAP
1 *5099:A 3.37585e-05
2 *5098:A 0
3 *5115:A 4.49344e-05
4 *5117:A 0
5 *5094:A 7.62144e-05
6 *5095:A 0
7 *5112:A 0
8 *5087:A 3.76639e-05
9 *5096:A 0.000254623
10 *5092:A 0.000122711
11 *5149:X 0.000274705
12 *1014:77 9.40835e-05
13 *1014:75 6.28035e-05
14 *1014:41 0.000487236
15 *1014:33 0.000387682
16 *1014:27 0.000337289
17 *1014:25 0.000272843
18 *1014:23 0.000272843
19 *1014:21 0.000360276
20 *1014:6 0.000579378
21 *5092:A *5231:A 2.30292e-05
22 *5092:A *1016:44 4.66108e-05
23 *5092:A *1016:55 1.48813e-05
24 *5094:A *5233:A 8.8266e-05
25 *5096:A *5235:A 0.00025995
26 *5115:A *5225:A 8.5841e-05
27 *5115:A *5233:A 0.000239813
28 *1014:6 *5149:A 0.000353417
29 *1014:6 *1016:55 0.000183072
30 *1014:21 *5232:A 0
31 *1014:21 *1016:44 5.16418e-05
32 *1014:21 *1016:59 0
33 *1014:23 *5222:A 0
34 *1014:23 *5228:A 0
35 *1014:25 *5222:A 0
36 *1014:41 *5202:A 0.000202749
37 *1014:41 *5219:A 0.000115762
38 *1014:41 *5235:A 0.000183738
39 *1014:77 *5233:A 4.82863e-05
40 gpio_oeb[9] *1014:33 0
*RES
1 *5149:X *1014:6 6.88 
2 *1014:6 *5092:A 3.805 
3 *1014:6 *1014:21 4.4 
4 *1014:21 *1014:23 2.4 
5 *1014:23 *1014:25 1.89 
6 *1014:25 *1014:27 2.4 
7 *1014:27 *1014:33 5.03 
8 *1014:33 *1014:41 7.025 
9 *1014:41 *5096:A 8.7 
10 *1014:41 *5087:A 4.05 
11 *1014:33 *5112:A 1.6 
12 *1014:27 *5095:A 3.6 
13 *1014:25 *1014:75 2 
14 *1014:75 *1014:77 0.45 
15 *1014:77 *5094:A 3.085 
16 *1014:77 *5117:A 1.6 
17 *1014:75 *5115:A 3.775 
18 *1014:23 *5098:A 3.6 
19 *1014:21 *5099:A 4.05 
*END

*D_NET *1015 0.0104194
*CONN
*I *4376:B I *D sky130_fd_sc_hd__or2_2
*I *4377:B I *D sky130_fd_sc_hd__xor2_2
*I *4304:A I *D sky130_fd_sc_hd__inv_2
*I *4712:B2 I *D sky130_fd_sc_hd__o2bb2a_2
*I *4390:A I *D sky130_fd_sc_hd__nand2_2
*I *4391:A I *D sky130_fd_sc_hd__nor2_2
*I *5173:X O *D sky130_fd_sc_hd__clkdlybuf4s25_1
*CAP
1 *4376:B 0.000117812
2 *4377:B 8.72021e-05
3 *4304:A 0.000144277
4 *4712:B2 0.000334896
5 *4390:A 0
6 *4391:A 0
7 *5173:X 0.00116781
8 *1015:56 0.000401772
9 *1015:34 0.00174559
10 *1015:21 0.00131196
11 *1015:14 0.000710365
12 *1015:8 0.00202939
13 *4376:B *4376:A 4.66108e-05
14 *4376:B *4378:A1 4.9968e-05
15 *4376:B *1033:10 0.000154488
16 *4377:B *4404:A0 8.08818e-05
17 *1015:34 *4303:A 9.16315e-05
18 *1015:56 *4389:A 8.87475e-05
19 *1015:56 *1033:10 0.000196458
20 *1015:56 *1033:29 1.93834e-05
21 *1191:DIODE *4712:B2 6.43808e-05
22 *1192:DIODE *4304:A 0.000201508
23 *4389:B *4377:B 4.82863e-05
24 *4390:B *1015:34 8.65905e-05
25 *4391:B *1015:14 3.25635e-05
26 *4391:B *1015:21 7.37365e-05
27 *4391:B *1015:34 0.000205508
28 *4393:A_N *1015:56 0
29 *4401:B *4376:B 0
30 *4401:B *1015:56 0
31 *4421:B *4376:B 4.66108e-05
32 *4712:A1_N *4712:B2 7.50953e-06
33 *4712:A2_N *4712:B2 1.17409e-05
34 *1:6 *4304:A 0.000110323
35 *1:6 *1015:34 0.000275383
36 *227:26 *4712:B2 4.16353e-05
37 *227:89 *4712:B2 0.000314745
38 *228:16 *4304:A 9.66106e-05
39 *228:68 *4304:A 2.30292e-05
40 *310:8 *1015:56 0
41 *960:31 *4304:A 0
42 *960:31 *1015:34 0
*RES
1 *5173:X *1015:8 23.085 
2 *1015:8 *1015:14 11.435 
3 *1015:14 *4391:A 1.6 
4 *1015:14 *1015:21 1.14 
5 *1015:21 *4390:A 1.6 
6 *1015:21 *1015:34 24.395 
7 *1015:34 *4712:B2 9.57 
8 *1015:34 *4304:A 7.83 
9 *1015:8 *1015:56 4.44 
10 *1015:56 *4377:B 3.7775 
11 *1015:56 *4376:B 6.45 
*END

*D_NET *1016 0.00745278
*CONN
*I *5108:A I *D sky130_fd_sc_hd__buf_2
*I *5089:A I *D sky130_fd_sc_hd__buf_2
*I *5111:A I *D sky130_fd_sc_hd__buf_2
*I *5110:A I *D sky130_fd_sc_hd__buf_2
*I *5149:A I *D sky130_fd_sc_hd__clkdlybuf4s25_1
*I *5093:A I *D sky130_fd_sc_hd__buf_2
*I *5228:A I *D sky130_fd_sc_hd__clkdlybuf4s25_1
*I *5090:A I *D sky130_fd_sc_hd__buf_2
*I *5097:A I *D sky130_fd_sc_hd__buf_2
*I *5102:A I *D sky130_fd_sc_hd__buf_2
*I *5150:X O *D sky130_fd_sc_hd__clkdlybuf4s25_1
*CAP
1 *5108:A 0.000213937
2 *5089:A 9.85871e-05
3 *5111:A 0
4 *5110:A 0
5 *5149:A 0.000188343
6 *5093:A 0
7 *5228:A 0.000259274
8 *5090:A 0
9 *5097:A 0
10 *5102:A 7.83403e-05
11 *5150:X 0.000288543
12 *1016:59 0.000376885
13 *1016:55 0.000373604
14 *1016:44 0.000381359
15 *1016:34 0.000469853
16 *1016:18 9.99412e-05
17 *1016:16 0.000219707
18 *1016:14 0.000140341
19 *1016:10 0.000331289
20 *1016:6 0.000636802
21 *5089:A *5210:A 0.00011577
22 *5089:A *5224:A 0.000160635
23 *5102:A *5208:A 8.8266e-05
24 *5108:A *5101:A 0.000153217
25 *5108:A *5215:A 6.90876e-05
26 *5108:A *1017:29 0.00012657
27 *5149:A *5229:A 7.4542e-05
28 *5228:A *5204:A 0.000208207
29 *5228:A *5222:A 5.53249e-06
30 *5228:A *5229:A 0
31 *1016:6 *5150:A 0.000117942
32 *1016:6 *5215:A 1.47347e-05
33 *1016:10 *5210:A 0
34 *1016:10 *5218:A 1.26626e-05
35 *1016:10 *1019:46 0
36 *1016:14 *5218:A 4.94326e-05
37 *1016:14 *1019:46 0
38 *1016:16 *5203:A 0.000201503
39 *1016:16 *5208:A 0.000228937
40 *1016:18 *5208:A 3.66286e-05
41 *1016:34 *1019:46 0
42 *1016:44 *5118:A 0
43 *1016:44 *5231:A 4.82863e-05
44 *1016:44 *5232:A 0
45 *1016:55 *5229:A 2.8185e-05
46 *1016:55 *5231:A 0.000144064
47 *1016:59 *5229:A 0
48 *1016:59 *5232:A 7.36562e-05
49 gpio_oeb[21] *1016:6 0.000272584
50 gpio_oeb[28] *5228:A 0.000162409
51 gpio_oeb[5] *5149:A 0.000253495
52 *5092:A *1016:44 4.66108e-05
53 *5092:A *1016:55 1.48813e-05
54 *1014:6 *5149:A 0.000353417
55 *1014:6 *1016:55 0.000183072
56 *1014:21 *1016:44 5.16418e-05
57 *1014:21 *1016:59 0
58 *1014:23 *5228:A 0
*RES
1 *5150:X *1016:6 7.225 
2 *1016:6 *1016:10 4.145 
3 *1016:10 *1016:14 3.635 
4 *1016:14 *1016:16 2.175 
5 *1016:16 *1016:18 0.45 
6 *1016:18 *5102:A 3.085 
7 *1016:18 *5097:A 1.6 
8 *1016:16 *1016:34 4.4 
9 *1016:34 *1016:44 7.19 
10 *1016:44 *5090:A 1.6 
11 *1016:44 *1016:55 2.64 
12 *1016:55 *1016:59 4.145 
13 *1016:59 *5228:A 9.21 
14 *1016:59 *5093:A 3.6 
15 *1016:55 *5149:A 7.585 
16 *1016:34 *5110:A 3.6 
17 *1016:14 *5111:A 1.6 
18 *1016:10 *5089:A 6.135 
19 *1016:6 *5108:A 6.22 
*END

*D_NET *1017 0.00481311
*CONN
*I *5113:A I *D sky130_fd_sc_hd__buf_2
*I *5088:A I *D sky130_fd_sc_hd__buf_2
*I *5107:A I *D sky130_fd_sc_hd__buf_2
*I *5109:A I *D sky130_fd_sc_hd__buf_2
*I *5091:A I *D sky130_fd_sc_hd__buf_2
*I *5116:A I *D sky130_fd_sc_hd__buf_2
*I *5119:A I *D sky130_fd_sc_hd__buf_2
*I *5101:A I *D sky130_fd_sc_hd__buf_2
*I *5104:A I *D sky130_fd_sc_hd__buf_2
*I *4321:A I *D sky130_fd_sc_hd__or3b_2
*I *5151:X O *D sky130_fd_sc_hd__clkdlybuf4s25_1
*CAP
1 *5113:A 5.2934e-05
2 *5088:A 3.37585e-05
3 *5107:A 8.01068e-05
4 *5109:A 0
5 *5091:A 3.37585e-05
6 *5116:A 8.61985e-05
7 *5119:A 0
8 *5101:A 1.84965e-05
9 *5104:A 0
10 *4321:A 0.000156213
11 *5151:X 0
12 *1017:80 8.66925e-05
13 *1017:66 8.01068e-05
14 *1017:43 8.61985e-05
15 *1017:29 0.000165254
16 *1017:23 0.000257708
17 *1017:21 0.000272576
18 *1017:19 0.000275637
19 *1017:17 0.000521578
20 *1017:4 0.000530021
21 *4321:A *4321:B 0.000229861
22 *4321:A *4321:C_N 0.000163204
23 *4321:A *1051:6 0.000111285
24 *5101:A *5215:A 0.000164874
25 *5107:A *5216:A 8.8266e-05
26 *5113:A *5213:A 8.8266e-05
27 *5116:A *5227:A 8.57024e-05
28 *1017:17 *5105:A 0
29 *1017:17 *1018:14 0.000149766
30 *1017:17 *1018:20 0.000208484
31 *1017:17 *1019:12 0.000122331
32 *1017:17 *1051:6 6.90876e-05
33 *1017:17 *1073:12 0
34 *1017:21 *5207:A 2.97004e-06
35 *1017:23 *5207:A 8.56227e-05
36 *1017:29 *5207:A 4.70343e-05
37 *1017:29 *5215:A 8.8266e-05
38 *4320:C *4321:A 1.43717e-05
39 *5043:C *1017:17 7.66908e-05
40 *5108:A *5101:A 0.000153217
41 *5108:A *1017:29 0.00012657
*RES
1 *5151:X *1017:4 1.6 
2 *1017:4 *4321:A 6.19 
3 *1017:4 *1017:17 10.145 
4 *1017:17 *1017:19 2.4 
5 *1017:19 *1017:21 1.89 
6 *1017:21 *1017:23 2.4 
7 *1017:23 *1017:29 5.03 
8 *1017:29 *5104:A 1.6 
9 *1017:29 *5101:A 3.085 
10 *1017:23 *1017:43 2 
11 *1017:43 *5119:A 1.6 
12 *1017:43 *5116:A 3.085 
13 *1017:21 *5091:A 4.05 
14 *1017:19 *1017:66 2 
15 *1017:66 *5109:A 1.6 
16 *1017:66 *5107:A 3.085 
17 *1017:17 *1017:80 2 
18 *1017:80 *5088:A 2.05 
19 *1017:80 *5113:A 2.74 
*END

*D_NET *1018 0.00435403
*CONN
*I *5106:A I *D sky130_fd_sc_hd__buf_2
*I *4332:A I *D sky130_fd_sc_hd__or3b_2
*I *4990:D I *D sky130_fd_sc_hd__or4_2
*I *5100:A I *D sky130_fd_sc_hd__buf_2
*I *5103:A I *D sky130_fd_sc_hd__buf_2
*I *5105:A I *D sky130_fd_sc_hd__buf_2
*I *5152:X O *D sky130_fd_sc_hd__clkdlybuf4s25_1
*CAP
1 *5106:A 3.3189e-05
2 *4332:A 0
3 *4990:D 0.000246857
4 *5100:A 3.84986e-05
5 *5103:A 0
6 *5105:A 0.000116128
7 *5152:X 0.000252818
8 *1018:20 0.000291484
9 *1018:14 0.000349165
10 *1018:12 0.000382168
11 *1018:10 0.000219629
12 *4990:D *5252:A 9.30787e-05
13 *5100:A *5206:A 5.83121e-06
14 *5105:A *5211:A 0.00011852
15 *5105:A *5213:A 0.0001249
16 *5105:A *5220:A 5.34747e-05
17 *5105:A *1019:38 0
18 *5106:A *5252:A 8.57024e-05
19 *1018:10 *4332:B 0.000217747
20 *1018:10 *5252:A 0.000185529
21 *1018:14 *5209:A 4.43871e-06
22 *1018:20 *5209:A 7.63204e-05
23 *1018:20 *1073:12 0.000140145
24 *4990:C *4990:D 0.000201503
25 *5020:C *4990:D 0.000132759
26 *5043:A *4990:D 0.000158297
27 *5043:A *1018:14 0.000178314
28 *5043:C *1018:14 1.95461e-05
29 *5147:A *4990:D 2.05583e-05
30 *5147:A *1018:14 9.44105e-05
31 *899:18 *4990:D 1.25995e-05
32 *903:22 *4990:D 8.08153e-06
33 *981:44 *1018:14 5.98004e-06
34 *981:50 *5100:A 8.40213e-05
35 *981:50 *1018:14 4.40899e-05
36 *1017:17 *5105:A 0
37 *1017:17 *1018:14 0.000149766
38 *1017:17 *1018:20 0.000208484
*RES
1 *5152:X *1018:10 6.31 
2 *1018:10 *1018:12 2 
3 *1018:12 *1018:14 3.93 
4 *1018:14 *1018:20 6.575 
5 *1018:20 *5105:A 8.63 
6 *1018:20 *5103:A 1.6 
7 *1018:14 *5100:A 4.395 
8 *1018:12 *4990:D 9.51 
9 *1018:10 *4332:A 1.6 
10 *5152:X *5106:A 3.995 
*END

*D_NET *1019 0.00633603
*CONN
*I *5150:A I *D sky130_fd_sc_hd__clkdlybuf4s25_1
*I *5114:A I *D sky130_fd_sc_hd__buf_2
*I *5118:A I *D sky130_fd_sc_hd__buf_2
*I *5152:A I *D sky130_fd_sc_hd__clkdlybuf4s25_1
*I *5151:A I *D sky130_fd_sc_hd__clkdlybuf4s25_1
*I *5153:X O *D sky130_fd_sc_hd__clkdlybuf4s25_1
*CAP
1 *5150:A 8.57941e-05
2 *5114:A 0
3 *5118:A 0.000157334
4 *5152:A 6.55342e-05
5 *5151:A 2.08101e-05
6 *5153:X 0.000126042
7 *1019:46 0.000837068
8 *1019:38 0.00163065
9 *1019:21 0.000977324
10 *1019:12 0.000193525
11 *5152:A *4331:A_N 6.10014e-05
12 *5152:A *4332:C_N 0.000115464
13 *5152:A *1040:10 5.16418e-05
14 *5152:A *1062:8 3.68784e-05
15 *1019:12 *5153:A 0
16 *1019:12 *1051:6 0.00015896
17 *1019:21 *1051:6 0.000192125
18 *1019:38 *4331:A_N 4.82919e-05
19 *1019:38 *5206:A 0.000126725
20 *1019:38 *5211:A 0
21 *1019:38 *5212:A 7.16263e-05
22 *1019:38 *5214:A 6.5525e-05
23 *1019:38 *5220:A 5.71917e-05
24 *1019:38 *5223:A 0
25 *1019:38 *5230:A 0
26 *1019:38 *1051:6 0.000309618
27 *1019:46 *5203:A 0
28 *1019:46 *5217:A 9.70988e-05
29 *1019:46 *5221:A 0.000141323
30 *1019:46 *5224:A 0
31 gpio_oeb[14] *1019:38 0
32 gpio_oeb[19] *1019:38 0
33 *1383:DIODE *1019:38 0
34 *5043:A *5151:A 0
35 *5043:A *1019:21 0.000158072
36 *5043:A *1019:38 6.20787e-05
37 *5043:C *1019:12 0.000197397
38 *5043:C *1019:21 9.80943e-06
39 *5043:C *1019:38 2.8185e-05
40 *5105:A *1019:38 0
41 *981:44 *5152:A 1.26626e-05
42 *1016:6 *5150:A 0.000117942
43 *1016:10 *1019:46 0
44 *1016:14 *1019:46 0
45 *1016:34 *1019:46 0
46 *1016:44 *5118:A 0
47 *1017:17 *1019:12 0.000122331
*RES
1 *5153:X *1019:12 9.23 
2 *1019:12 *5151:A 1.96 
3 *1019:12 *1019:21 1.83 
4 *1019:21 *5152:A 7.745 
5 *1019:21 *1019:38 19.25 
6 *1019:38 *1019:46 13.52 
7 *1019:46 *5118:A 7.94 
8 *1019:46 *5114:A 1.6 
9 *1019:38 *5150:A 5.43 
*END

*D_NET *1020 0.0179617
*CONN
*I *4516:A3 I *D sky130_fd_sc_hd__a31o_2
*I *4519:B I *D sky130_fd_sc_hd__or2_2
*I *1170:DIODE I *D sky130_fd_sc_hd__diode_2
*I *4513:B I *D sky130_fd_sc_hd__nand2_2
*I *1173:DIODE I *D sky130_fd_sc_hd__diode_2
*I *4575:A1 I *D sky130_fd_sc_hd__a21o_2
*I *4397:A I *D sky130_fd_sc_hd__nand2_2
*I *1166:DIODE I *D sky130_fd_sc_hd__diode_2
*I *1353:DIODE I *D sky130_fd_sc_hd__diode_2
*I *4523:A I *D sky130_fd_sc_hd__nor2_2
*I *1176:DIODE I *D sky130_fd_sc_hd__diode_2
*I *1165:DIODE I *D sky130_fd_sc_hd__diode_2
*I *4512:B I *D sky130_fd_sc_hd__and2_2
*I *1181:DIODE I *D sky130_fd_sc_hd__diode_2
*I *4550:B I *D sky130_fd_sc_hd__xor2_2
*I *1190:DIODE I *D sky130_fd_sc_hd__diode_2
*I *1148:DIODE I *D sky130_fd_sc_hd__diode_2
*I *4400:A I *D sky130_fd_sc_hd__xor2_2
*I *1147:DIODE I *D sky130_fd_sc_hd__diode_2
*I *1161:DIODE I *D sky130_fd_sc_hd__diode_2
*I *4489:A I *D sky130_fd_sc_hd__xnor2_2
*I *5154:X O *D sky130_fd_sc_hd__clkdlybuf4s25_1
*CAP
1 *4516:A3 0.000210164
2 *4519:B 0.000216392
3 *1170:DIODE 0.000801873
4 *4513:B 2.27658e-05
5 *1173:DIODE 0.000263702
6 *4575:A1 0.000188091
7 *4397:A 9.0983e-05
8 *1166:DIODE 0.000719825
9 *1353:DIODE 0
10 *4523:A 0.000130158
11 *1176:DIODE 0
12 *1165:DIODE 0
13 *4512:B 2.08101e-05
14 *1181:DIODE 0
15 *4550:B 5.91513e-05
16 *1190:DIODE 0.000188091
17 *1148:DIODE 0
18 *4400:A 3.44877e-05
19 *1147:DIODE 0.000183833
20 *1161:DIODE 0
21 *4489:A 8.36237e-05
22 *5154:X 0
23 *1020:139 8.59803e-05
24 *1020:121 0.000130158
25 *1020:60 0.000292468
26 *1020:58 0.00257644
27 *1020:39 0.00253399
28 *1020:30 0.000280298
29 *1020:26 0.000589033
30 *1020:24 0.000687868
31 *1020:18 0.000153625
32 *1020:16 0.000145578
33 *1020:14 0.000458223
34 *1020:10 0.000838801
35 *1020:4 0.000493342
36 *4400:A *1039:51 0.000160635
37 *4516:A3 *1169:DIODE 3.25831e-05
38 *4516:A3 *1117:116 7.35729e-05
39 *4516:A3 *1117:124 6.73839e-05
40 *4523:A *1041:17 0.000119756
41 *1020:10 *5154:A 0.000124384
42 *1020:10 *1034:8 8.17841e-05
43 *1020:14 *1177:DIODE 7.63204e-05
44 *1020:14 *1034:14 2.84224e-05
45 *1020:14 *1041:17 3.86529e-05
46 *1020:14 *1041:19 0.000130072
47 *1020:18 *4512:A 7.66083e-05
48 *1020:24 *1185:DIODE 0.00017688
49 *1020:24 *4512:A 8.65961e-05
50 *1020:26 *1144:DIODE 9.4988e-05
51 *1020:26 *1185:DIODE 0.000499083
52 *1020:26 *1117:169 0.000126399
53 *1020:26 *1117:171 0.000146157
54 *1020:30 *1144:DIODE 7.89767e-05
55 *1182:DIODE *1020:18 3.00381e-05
56 *1182:DIODE *1020:24 3.00381e-05
57 *4385:A_N *1020:58 0.000116158
58 *4386:B *1020:58 0
59 *4387:B *1147:DIODE 0
60 *4399:A2 *1020:60 0
61 *4400:B *1147:DIODE 0.000114492
62 *4400:B *4400:A 8.07672e-05
63 *4400:B *1020:60 3.09233e-05
64 *4492:A *1020:58 3.25831e-05
65 *4493:B *1020:58 3.09233e-05
66 *4495:A *1020:58 0.00015896
67 *4504:A *1020:58 0
68 *4505:B *1020:58 0
69 *4518:B *1170:DIODE 2.75229e-05
70 *4518:B *4516:A3 1.19928e-05
71 *4519:A *4519:B 8.64421e-05
72 *4520:A *1173:DIODE 2.47705e-05
73 *4520:A *4519:B 8.64421e-05
74 *4520:B *4519:B 4.89295e-05
75 *4522:C *1020:14 0
76 *4524:A1 *1020:10 0
77 *4525:B *4516:A3 0
78 *4533:B1 *1020:10 1.94805e-05
79 *4533:B1 *1020:14 4.91189e-05
80 *4534:A1 *1020:14 4.40812e-05
81 *4553:A2 *1020:24 2.97004e-06
82 *4553:A2 *1020:26 7.75325e-05
83 *4553:B1 *1020:24 0
84 *4573:B *1020:26 0
85 *4574:A *1020:58 1.70935e-05
86 *4603:B *1020:58 0
87 *224:96 *1020:26 0
88 *224:96 *1020:30 0
89 *224:96 *1020:58 0
90 *305:10 *1020:58 0
91 *305:10 *1020:60 0
92 *308:8 *4400:A 3.06386e-05
93 *318:8 *4397:A 0
94 *384:14 *1020:58 4.70343e-05
95 *411:16 *1020:58 4.03577e-05
96 *412:10 *1020:58 0.000175901
97 *413:18 *1020:58 0.000239226
98 *424:10 *1020:58 0
99 *434:24 *1170:DIODE 0.000341569
100 *435:10 *1170:DIODE 8.65905e-05
101 *441:8 *1173:DIODE 0
102 *441:8 *1020:10 0
103 *444:6 *4523:A 8.65905e-05
104 *496:8 *4575:A1 8.57024e-05
105 *519:12 *1020:58 0.00013994
106 *519:18 *1020:58 0.000206817
107 *982:21 *1020:14 0
108 *982:30 *1020:16 7.35729e-05
109 *982:30 *1020:18 6.90876e-05
110 *982:34 *1020:14 2.86623e-05
111 *982:34 *1020:24 0
112 *982:42 *1020:26 0
113 *982:65 *1020:16 4.21973e-05
114 *982:78 *1020:14 0
115 *993:14 *1020:10 0.000116165
116 *993:20 *1166:DIODE 3.34738e-05
117 *993:20 *1170:DIODE 0.000124473
118 *993:20 *4513:B 4.89295e-05
119 *993:20 *1020:10 0.000104033
120 *993:20 *1020:139 2.04902e-05
*RES
1 *5154:X *1020:4 1.6 
2 *1020:4 *1020:10 9.74 
3 *1020:10 *1020:14 9.5 
4 *1020:14 *1020:16 1.83 
5 *1020:16 *1020:18 1.485 
6 *1020:18 *1020:24 4.94 
7 *1020:24 *1020:26 13.11 
8 *1020:26 *1020:30 3.635 
9 *1020:30 *4489:A 2.74 
10 *1020:30 *1020:39 1.83 
11 *1020:39 *1161:DIODE 1.6 
12 *1020:39 *1020:58 45.375 
13 *1020:58 *1020:60 2.91 
14 *1020:60 *1147:DIODE 5.43 
15 *1020:60 *4400:A 5.085 
16 *1020:58 *1148:DIODE 3.6 
17 *1020:26 *1190:DIODE 3.6 
18 *1020:24 *4550:B 2.7425 
19 *1020:18 *1181:DIODE 1.6 
20 *1020:16 *4512:B 1.96 
21 *1020:14 *1165:DIODE 1.6 
22 *1020:10 *1020:121 2 
23 *1020:121 *1176:DIODE 1.6 
24 *1020:121 *4523:A 4.15 
25 *1020:4 *1020:139 0.45 
26 *1020:139 *1353:DIODE 1.6 
27 *1020:139 *1166:DIODE 2.395 
28 *1147:DIODE *4397:A 4.7 
29 *1190:DIODE *4575:A1 5.375 
30 *1166:DIODE *1173:DIODE 8.07 
31 *1166:DIODE *4513:B 3.65 
32 *1166:DIODE *1170:DIODE 11.705 
33 *1173:DIODE *4519:B 6.755 
34 *1170:DIODE *4516:A3 10.155 
*END

*D_NET *1021 0.00346915
*CONN
*I *4432:B I *D sky130_fd_sc_hd__nand2_2
*I *4402:B I *D sky130_fd_sc_hd__nand2b_2
*I *4704:B I *D sky130_fd_sc_hd__or2_2
*I *4437:B I *D sky130_fd_sc_hd__nand2_2
*I *5195:X O *D sky130_fd_sc_hd__clkbuf_2
*CAP
1 *4432:B 0.000113022
2 *4402:B 0
3 *4704:B 0.000100029
4 *4437:B 0
5 *5195:X 0.000111456
6 *1021:18 0.000415071
7 *1021:12 0.000399749
8 *1021:8 0.000309185
9 *4432:B *1026:90 0.000276983
10 *4704:B *4437:A 5.4155e-06
11 *4704:B *4704:A 7.60965e-05
12 *4704:B *1033:29 2.7441e-05
13 *1021:12 *4402:A_N 0.000114492
14 *1021:18 *4402:A_N 3.21904e-05
15 *1021:18 *4437:A 1.31519e-05
16 *1021:18 *1033:29 0.000854637
17 *4403:B *1021:18 3.00381e-05
18 *4412:A *4432:B 2.75229e-05
19 *4412:B *1021:12 0.000112123
20 *4427:B1 *1021:8 0
21 *4432:A *4432:B 0.000163204
22 *4705:A *4704:B 4.82919e-05
23 *311:10 *1021:12 1.26548e-05
24 *311:16 *4432:B 4.91952e-05
25 *312:8 *1021:12 0
26 *312:21 *1021:12 0
27 *333:10 *1021:8 5.39718e-05
28 *1004:40 *4432:B 0.000123225
29 *1004:44 *1021:8 0
*RES
1 *5195:X *1021:8 5.49 
2 *1021:8 *1021:12 3.89 
3 *1021:12 *1021:18 8.415 
4 *1021:18 *4437:B 1.6 
5 *1021:18 *4704:B 3.79 
6 *1021:12 *4402:B 1.6 
7 *1021:8 *4432:B 7.845 
*END

*D_NET *1022 0.0062437
*CONN
*I *5059:RESET_B I *D sky130_fd_sc_hd__dfrtp_2
*I *5193:A I *D sky130_fd_sc_hd__buf_4
*I *5061:RESET_B I *D sky130_fd_sc_hd__dfrtp_2
*I *5060:RESET_B I *D sky130_fd_sc_hd__dfrtp_2
*I *5155:X O *D sky130_fd_sc_hd__clkdlybuf4s25_1
*CAP
1 *5059:RESET_B 9.5165e-05
2 *5193:A 5.31433e-05
3 *5061:RESET_B 0.00130495
4 *5060:RESET_B 0.000351815
5 *5155:X 0
6 *1022:21 0.00133962
7 *1022:6 0.00042851
8 *5060:RESET_B *1354:DIODE 5.21046e-05
9 *5061:RESET_B *4784:B 1.56406e-05
10 *5061:RESET_B *1126:88 0.000649228
11 *5193:A *1023:16 1.85674e-05
12 *5193:A *1126:88 0.000114024
13 *4776:A1 *5061:RESET_B 2.73147e-05
14 *4778:B1 *5061:RESET_B 8.57024e-05
15 *4785:A1 *5061:RESET_B 5.10121e-06
16 *4785:A2 *5061:RESET_B 0.000163204
17 *4786:B1 *5061:RESET_B 4.82863e-05
18 *5060:D *5060:RESET_B 0
19 *5060:D *1022:21 0
20 *5061:CLK *5061:RESET_B 4.71234e-05
21 *698:12 *5061:RESET_B 0.000163199
22 *931:10 *5060:RESET_B 0
23 *932:19 *5061:RESET_B 0.000204034
24 *932:30 *5061:RESET_B 5.45262e-05
25 *960:31 *5059:RESET_B 0
26 *983:60 *5061:RESET_B 0.000783571
27 *983:77 *5061:RESET_B 0.000188108
28 *983:77 *5193:A 5.0751e-05
29 *1005:39 *5059:RESET_B 0
*RES
1 *5155:X *1022:6 3.6 
2 *1022:6 *5060:RESET_B 7.76 
3 *1022:6 *1022:21 3.125 
4 *1022:21 *5061:RESET_B 23.3325 
5 *1022:21 *5193:A 3.355 
6 *5061:RESET_B *5059:RESET_B 5.38 
*END

*D_NET *1023 0.0206743
*CONN
*I *5070:RESET_B I *D sky130_fd_sc_hd__dfrtp_2
*I *5058:RESET_B I *D sky130_fd_sc_hd__dfrtp_2
*I *1309:DIODE I *D sky130_fd_sc_hd__diode_2
*I *1307:DIODE I *D sky130_fd_sc_hd__diode_2
*I *1322:DIODE I *D sky130_fd_sc_hd__diode_2
*I *1305:DIODE I *D sky130_fd_sc_hd__diode_2
*I *5056:RESET_B I *D sky130_fd_sc_hd__dfrtp_2
*I *5057:RESET_B I *D sky130_fd_sc_hd__dfrtp_2
*I *5053:RESET_B I *D sky130_fd_sc_hd__dfrtp_2
*I *1301:DIODE I *D sky130_fd_sc_hd__diode_2
*I *5063:RESET_B I *D sky130_fd_sc_hd__dfrtp_2
*I *5052:RESET_B I *D sky130_fd_sc_hd__dfrtp_2
*I *1299:DIODE I *D sky130_fd_sc_hd__diode_2
*I *1315:DIODE I *D sky130_fd_sc_hd__diode_2
*I *1391:DIODE I *D sky130_fd_sc_hd__diode_2
*I *5193:X O *D sky130_fd_sc_hd__buf_4
*CAP
1 *5070:RESET_B 0.000216662
2 *5058:RESET_B 0.000235593
3 *1309:DIODE 0.000188389
4 *1307:DIODE 0
5 *1322:DIODE 0
6 *1305:DIODE 0.000283585
7 *5056:RESET_B 0.000161347
8 *5057:RESET_B 0.0004228
9 *5053:RESET_B 0.000310288
10 *1301:DIODE 0
11 *5063:RESET_B 0.000716513
12 *5052:RESET_B 0.000825172
13 *1299:DIODE 0
14 *1315:DIODE 0.000214428
15 *1391:DIODE 0
16 *5193:X 0.000122807
17 *1023:174 0.000714596
18 *1023:145 0.000227278
19 *1023:131 0.000589354
20 *1023:115 0.00045107
21 *1023:111 0.000696354
22 *1023:83 0.000987604
23 *1023:50 0.000578785
24 *1023:29 0.00130673
25 *1023:16 0.000855566
26 *1309:DIODE *1084:18 0
27 *5057:RESET_B *1122:30 0.000181383
28 *1023:16 *1126:88 0.00012657
29 *1023:83 *4923:C 4.7101e-05
30 *1023:83 *4931:A 2.49909e-05
31 *1023:83 *1024:44 0.000108543
32 *1023:83 *1118:42 0.000795519
33 *1023:83 *1118:51 4.82863e-05
34 *1023:131 *4747:A1 0.000213183
35 *1023:131 *1122:12 0
36 *1023:131 *1122:30 5.16418e-05
37 *1023:145 *4850:B 0
38 *1023:145 *1122:12 0
39 *1023:174 *1357:DIODE 0
40 *1023:174 *1084:18 0
41 *1203:DIODE *5063:RESET_B 0.000268831
42 *1205:DIODE *1309:DIODE 9.71067e-05
43 *1208:DIODE *5057:RESET_B 7.16437e-05
44 *1208:DIODE *1023:131 5.43129e-05
45 *1224:DIODE *1023:50 2.53191e-06
46 *1245:DIODE *5070:RESET_B 3.64998e-06
47 *1282:DIODE *1023:83 7.23533e-05
48 *1295:DIODE *1315:DIODE 0.000123225
49 *1314:DIODE *1315:DIODE 4.82863e-05
50 *4721:A1 *1023:111 0.000113606
51 *4721:A2 *1023:111 1.34503e-05
52 *4739:C *1023:29 0.00011381
53 *4758:B1 *1023:174 0
54 *4764:A1 *5058:RESET_B 4.60584e-05
55 *4764:A2 *1309:DIODE 2.31298e-05
56 *4764:A2 *5058:RESET_B 4.82863e-05
57 *4764:A2 *1023:174 1.52184e-05
58 *4794:A2 *1023:16 4.99619e-05
59 *4794:A2 *1023:29 0.000122331
60 *4798:C *1023:29 5.12942e-05
61 *4799:A1 *1023:29 7.55391e-05
62 *4801:A2 *1023:29 2.7454e-05
63 *4852:A2 *5070:RESET_B 0
64 *4854:A2 *5070:RESET_B 2.3941e-05
65 *4930:B1 *1023:83 3.88358e-05
66 *4931:B *1023:83 4.01778e-05
67 *4932:A2 *1023:83 0.000385322
68 *4937:C_N *1023:83 5.12942e-05
69 *4965:A *1023:111 0
70 *4969:A1 *1315:DIODE 0.000109377
71 *4969:A1 *1023:50 3.18238e-05
72 *4969:A2 *1023:50 0.000119762
73 *4969:C1 *1023:50 0.000108195
74 *4969:D1 *1315:DIODE 4.66108e-05
75 *4969:D1 *1023:50 3.74161e-05
76 *4970:C *1023:29 0
77 *4980:A *1023:29 0
78 *4986:B *1305:DIODE 1.16646e-05
79 *4986:B *1023:145 5.35969e-06
80 *5052:CLK *5052:RESET_B 8.8266e-05
81 *5052:D *5052:RESET_B 0.000111285
82 *5053:CLK *5053:RESET_B 4.99619e-05
83 *5053:CLK *1023:83 8.8266e-05
84 *5058:CLK *5058:RESET_B 0.000158324
85 *5060:D *1023:16 0
86 *5062:D *1023:16 2.39045e-05
87 *5062:D *1023:29 4.80085e-05
88 *5193:A *1023:16 1.85674e-05
89 *376:16 *1023:111 0.000865324
90 *376:16 *1023:115 8.23457e-05
91 *657:21 *1023:83 0
92 *698:37 *1023:29 0.000793632
93 *906:35 *1023:29 0.000467259
94 *907:10 *1315:DIODE 4.82863e-05
95 *907:10 *5063:RESET_B 6.77417e-05
96 *914:12 *5070:RESET_B 1.17309e-05
97 *916:6 *5053:RESET_B 0.0002062
98 *916:10 *5053:RESET_B 3.73232e-05
99 *916:10 *1023:83 4.43682e-05
100 *925:32 *1023:83 0.000158297
101 *927:10 *1023:131 0.000135213
102 *928:10 *5057:RESET_B 4.99619e-05
103 *928:20 *1309:DIODE 0.000275553
104 *929:10 *5058:RESET_B 0.000118178
105 *934:23 *1023:29 3.76596e-05
106 *935:10 *1023:29 5.28714e-05
107 *963:11 *1023:50 0
108 *963:13 *1023:50 0
109 *963:27 *1023:50 6.42013e-05
110 *964:127 *5057:RESET_B 8.92366e-05
111 *964:127 *1023:174 7.25921e-05
112 *983:77 *1023:16 0.000146477
113 *983:77 *1023:29 0.000112349
114 *987:14 *1023:111 0
115 *987:92 *1023:29 2.82846e-05
116 *990:22 *5052:RESET_B 0.000376233
117 *990:22 *1023:50 0.000238919
118 *990:55 *5052:RESET_B 8.40269e-05
119 *990:175 *1023:174 0.000139238
120 *992:86 *1023:50 0.000147436
121 *992:139 *1023:29 0.000797392
122 *1003:12 *1023:131 9.26619e-05
123 *1005:31 *1023:174 0
124 *1012:42 *1315:DIODE 4.43951e-05
125 *1012:42 *5063:RESET_B 4.82919e-05
*RES
1 *5193:X *1023:16 8.765 
2 *1023:16 *1391:DIODE 1.6 
3 *1023:16 *1023:29 24.88 
4 *1023:29 *1315:DIODE 4.81 
5 *1023:29 *1023:50 12.085 
6 *1023:50 *1299:DIODE 1.6 
7 *1023:50 *5052:RESET_B 4.5375 
8 *1315:DIODE *5063:RESET_B 4.0675 
9 *5052:RESET_B *1023:83 20.245 
10 *1023:83 *1301:DIODE 1.6 
11 *1023:83 *5053:RESET_B 6.3975 
12 *5063:RESET_B *1023:111 15.805 
13 *1023:111 *1023:115 2.795 
14 *1023:115 *5057:RESET_B 5.5775 
15 *1023:115 *1023:131 6.78 
16 *1023:131 *5056:RESET_B 4.1225 
17 *1023:131 *1023:145 4.34 
18 *1023:145 *1305:DIODE 2.395 
19 *1023:145 *1322:DIODE 1.6 
20 *1023:111 *1307:DIODE 1.6 
21 *5057:RESET_B *1023:174 7.3775 
22 *1023:174 *1309:DIODE 7.755 
23 *1023:174 *5058:RESET_B 6.5375 
24 *1305:DIODE *5070:RESET_B 8.6225 
*END

*D_NET *1024 0.0123736
*CONN
*I *5066:RESET_B I *D sky130_fd_sc_hd__dfrtp_2
*I *5065:RESET_B I *D sky130_fd_sc_hd__dfrtp_2
*I *5064:RESET_B I *D sky130_fd_sc_hd__dfrtp_2
*I *5054:RESET_B I *D sky130_fd_sc_hd__dfrtp_2
*I *5055:RESET_B I *D sky130_fd_sc_hd__dfrtp_2
*I *5062:RESET_B I *D sky130_fd_sc_hd__dfrtp_2
*I *5156:X O *D sky130_fd_sc_hd__clkdlybuf4s25_1
*CAP
1 *5066:RESET_B 0.000319842
2 *5065:RESET_B 0.000146967
3 *5064:RESET_B 0.000115252
4 *5054:RESET_B 0
5 *5055:RESET_B 0.000451335
6 *5062:RESET_B 0.000203595
7 *5156:X 0
8 *1024:50 0.00110426
9 *1024:44 0.00184681
10 *1024:37 0.000863069
11 *1024:4 0.000476784
12 *5055:RESET_B *1118:10 2.88679e-05
13 *5055:RESET_B *1118:23 0.000120007
14 *5055:RESET_B *1119:10 7.21296e-06
15 *5055:RESET_B *1119:118 0.000163985
16 *5055:RESET_B *1126:88 0.000270415
17 *5062:RESET_B *1218:DIODE 9.14049e-05
18 *5062:RESET_B *4791:B 4.54719e-05
19 *1219:DIODE *5055:RESET_B 0.000104657
20 *1226:DIODE *1024:50 4.82919e-05
21 *1282:DIODE *1024:44 3.67779e-05
22 *1284:DIODE *5064:RESET_B 1.1561e-05
23 *4791:A *5062:RESET_B 3.00381e-05
24 *4792:A2 *5055:RESET_B 7.10578e-05
25 *4792:A2 *5062:RESET_B 9.30717e-05
26 *4792:B1 *5055:RESET_B 1.08758e-05
27 *4803:B *1024:44 0.000155176
28 *4804:A *1024:44 1.86688e-05
29 *4804:B *1024:50 4.82863e-05
30 *4808:A1 *5064:RESET_B 0.000320834
31 *4808:A2 *1024:50 7.10578e-05
32 *4809:B1 *5064:RESET_B 0.000141599
33 *4819:B *5066:RESET_B 0.000155497
34 *4821:A2 *5066:RESET_B 0.000102565
35 *4930:B1 *1024:44 3.50599e-05
36 *4953:B *1024:50 0.00032961
37 *5065:D *5065:RESET_B 2.86623e-05
38 *5066:CLK *5066:RESET_B 0.000376035
39 *657:21 *5066:RESET_B 0
40 *657:21 *1024:44 0
41 *657:34 *5066:RESET_B 0
42 *711:23 *1024:44 0.000856067
43 *716:10 *1024:44 8.97564e-05
44 *716:25 *5066:RESET_B 0.000115609
45 *716:25 *1024:44 1.1561e-05
46 *716:36 *5066:RESET_B 2.14129e-05
47 *723:10 *5066:RESET_B 0.000141606
48 *906:10 *5062:RESET_B 7.25921e-05
49 *906:23 *5062:RESET_B 0
50 *908:16 *1024:44 0.000187759
51 *908:31 *1024:44 0.000225175
52 *909:6 *5065:RESET_B 3.11906e-05
53 *909:16 *5065:RESET_B 4.82919e-05
54 *909:22 *5066:RESET_B 2.75145e-05
55 *909:30 *5066:RESET_B 6.11193e-05
56 *925:10 *1024:44 8.25609e-05
57 *925:32 *1024:44 0.000241323
58 *965:36 *1024:37 0.000225586
59 *965:38 *1024:37 0.000230526
60 *965:53 *5062:RESET_B 0
61 *965:55 *5062:RESET_B 0.00015737
62 *965:167 *5066:RESET_B 0.000151541
63 *983:77 *5055:RESET_B 4.85206e-05
64 *985:116 *1024:37 0.00011335
65 *985:133 *1024:37 0
66 *985:133 *1024:44 0
67 *987:227 *5055:RESET_B 5.02905e-05
68 *990:93 *1024:37 0.000161745
69 *990:93 *1024:44 3.26653e-05
70 *992:30 *5064:RESET_B 2.42236e-05
71 *992:30 *5065:RESET_B 0.000192713
72 *1007:8 *5064:RESET_B 2.03578e-05
73 *1007:8 *5065:RESET_B 0.000114441
74 *1007:10 *5064:RESET_B 2.63378e-05
75 *1007:12 *5064:RESET_B 5.72004e-05
76 *1023:83 *1024:44 0.000108543
*RES
1 *5156:X *1024:4 1.6 
2 *1024:4 *5062:RESET_B 8.8525 
3 *1024:4 *5055:RESET_B 11.47 
4 *5055:RESET_B *1024:37 7.5725 
5 *1024:37 *5054:RESET_B 2 
6 *1024:37 *1024:44 19.485 
7 *1024:44 *1024:50 14.455 
8 *1024:50 *5064:RESET_B 6.44 
9 *1024:50 *5065:RESET_B 6.6725 
10 *1024:44 *5066:RESET_B 10.8125 
*END

*D_NET *1025 0.00571434
*CONN
*I *5194:A I *D sky130_fd_sc_hd__clkbuf_2
*I *5068:RESET_B I *D sky130_fd_sc_hd__dfrtp_2
*I *5085:RESET_B I *D sky130_fd_sc_hd__dfrtp_2
*I *5084:RESET_B I *D sky130_fd_sc_hd__dfrtp_2
*I *5069:RESET_B I *D sky130_fd_sc_hd__dfrtp_2
*I *5067:RESET_B I *D sky130_fd_sc_hd__dfrtp_2
*I *5157:X O *D sky130_fd_sc_hd__clkdlybuf4s25_1
*CAP
1 *5194:A 5.44807e-05
2 *5068:RESET_B 0.000194315
3 *5085:RESET_B 0.000446321
4 *5084:RESET_B 0.000484973
5 *5069:RESET_B 0
6 *5067:RESET_B 0.000199943
7 *5157:X 0.000673755
8 *1025:50 0.000399132
9 *1025:10 0.000518726
10 *1025:6 0.000880853
11 *5194:A *1029:147 0.000114492
12 *5194:A *1121:39 4.66108e-05
13 *5194:A *1124:203 0.000114492
14 *1025:6 *4833:B1 4.82919e-05
15 *1025:10 *1335:DIODE 0.000326036
16 *1293:DIODE *1025:10 0
17 *4831:A1 *5067:RESET_B 9.19672e-05
18 *4831:A1 *1025:10 3.98952e-05
19 *4833:A1 *1025:6 1.12643e-05
20 *4835:B1 *1025:6 4.82919e-05
21 *5085:CLK *5084:RESET_B 1.59221e-05
22 *5085:CLK *5085:RESET_B 0.000136526
23 *5085:CLK *1025:6 0.00015346
24 *5148:A *5194:A 2.49909e-05
25 *5192:A *1025:10 3.15295e-05
26 *939:12 *5067:RESET_B 5.21046e-05
27 *967:16 *1025:6 0.000162311
28 *967:25 *1025:6 6.19997e-05
29 *972:39 *5085:RESET_B 6.96579e-05
30 *1010:8 *1025:10 6.44307e-05
31 *1012:10 *5067:RESET_B 0.000144122
32 *1012:10 *1025:10 0.000103449
*RES
1 *5157:X *1025:6 11.02 
2 *1025:6 *1025:10 9.755 
3 *1025:10 *5067:RESET_B 6.9275 
4 *1025:10 *5069:RESET_B 2 
5 *1025:6 *5084:RESET_B 0.7575 
6 *5084:RESET_B *5085:RESET_B 8.07 
7 *5157:X *1025:50 3.43 
8 *1025:50 *5068:RESET_B 2.4675 
9 *1025:50 *5194:A 7.43 
*END

*D_NET *1026 0.0123571
*CONN
*I *4974:A I *D sky130_fd_sc_hd__xnor2_2
*I *4303:A I *D sky130_fd_sc_hd__inv_2
*I *4402:A_N I *D sky130_fd_sc_hd__nand2b_2
*I *4376:A I *D sky130_fd_sc_hd__or2_2
*I *4421:A I *D sky130_fd_sc_hd__xnor2_2
*I *4377:A I *D sky130_fd_sc_hd__xor2_2
*I *4404:A0 I *D sky130_fd_sc_hd__mux2_1
*I *4338:B I *D sky130_fd_sc_hd__xor2_2
*I *5174:X O *D sky130_fd_sc_hd__buf_2
*CAP
1 *4974:A 0
2 *4303:A 0.000127078
3 *4402:A_N 0.000210607
4 *4376:A 0.00013534
5 *4421:A 0
6 *4377:A 0
7 *4404:A0 0.00112388
8 *4338:B 0.000673643
9 *5174:X 0.000327823
10 *1026:90 0.00111884
11 *1026:69 0.00122878
12 *1026:46 0.000234016
13 *1026:28 0.00173524
14 *1026:22 0.00108227
15 *4376:A *1032:43 0.000492474
16 *4376:A *1033:8 6.20787e-05
17 *1026:46 *1032:43 0.00044463
18 *1026:46 *1033:8 0.000315601
19 *1371:DIODE *4338:B 5.30673e-05
20 *4340:B *1026:22 0
21 *4340:B *1026:28 0
22 *4376:B *4376:A 4.66108e-05
23 *4377:B *4404:A0 8.08818e-05
24 *4389:B *4404:A0 4.82863e-05
25 *4392:A2 *4404:A0 2.75229e-05
26 *4392:B1 *4404:A0 0.000200615
27 *4393:A_N *4404:A0 4.82919e-05
28 *4403:B *4402:A_N 8.40213e-05
29 *4404:A1 *4402:A_N 3.86607e-05
30 *4404:S *1026:69 5.30673e-05
31 *4404:S *1026:90 3.26889e-05
32 *4421:B *4376:A 0.000545978
33 *4432:A *1026:90 4.85494e-05
34 *4432:B *1026:90 0.000276983
35 *4700:A *1026:90 0.000161529
36 *4700:B *1026:90 3.09179e-05
37 *4701:A *1026:90 4.92604e-05
38 *4701:B *1026:90 3.72916e-05
39 *259:8 *1026:22 4.66108e-05
40 *311:16 *4404:A0 3.83041e-05
41 *311:16 *1026:69 0.000124895
42 *311:16 *1026:90 8.34281e-06
43 *311:25 *1026:90 0
44 *312:21 *4404:A0 5.82176e-05
45 *313:6 *4404:A0 6.2061e-05
46 *333:10 *1026:90 8.8266e-05
47 *358:25 *1026:90 7.8192e-05
48 *622:10 *1026:90 0.000164874
49 *622:44 *1026:90 0.000272536
50 *960:31 *4303:A 0
51 *1015:34 *4303:A 9.16315e-05
52 *1021:12 *4402:A_N 0.000114492
53 *1021:18 *4402:A_N 3.21904e-05
*RES
1 *5174:X *4338:B 6.4075 
2 *4338:B *1026:22 7.0475 
3 *1026:22 *1026:28 11.405 
4 *1026:28 *4404:A0 15.085 
5 *1026:28 *4377:A 1.6 
6 *1026:22 *1026:46 6.935 
7 *1026:46 *4421:A 1.6 
8 *1026:46 *4376:A 8.725 
9 *4404:A0 *1026:69 2.74 
10 *1026:69 *4402:A_N 9.08 
11 *1026:69 *1026:90 19.275 
12 *1026:90 *4303:A 8.285 
13 *1026:90 *4974:A 1.6 
*END

*D_NET *1027 0.00927376
*CONN
*I *5080:RESET_B I *D sky130_fd_sc_hd__dfrtp_2
*I *5078:RESET_B I *D sky130_fd_sc_hd__dfrtp_2
*I *5076:RESET_B I *D sky130_fd_sc_hd__dfrtp_2
*I *5077:RESET_B I *D sky130_fd_sc_hd__dfrtp_2
*I *5051:RESET_B I *D sky130_fd_sc_hd__dfrtp_2
*I *5194:X O *D sky130_fd_sc_hd__clkbuf_2
*CAP
1 *5080:RESET_B 0.00151825
2 *5078:RESET_B 0.00172027
3 *5076:RESET_B 0.00016719
4 *5077:RESET_B 0.000820255
5 *5051:RESET_B 0.000397177
6 *5194:X 7.54297e-05
7 *1027:39 0.000867723
8 *5051:RESET_B *1029:147 0.000269952
9 *5077:RESET_B *1338:DIODE 0.000175098
10 *5077:RESET_B *1121:39 0.000252289
11 *5080:RESET_B *5081:RESET_B 0.000349282
12 *1266:DIODE *1027:39 0.000583971
13 *4898:A1 *5076:RESET_B 0.000120741
14 *4899:B1 *1027:39 0
15 *4909:A *1027:39 0.00016163
16 *4913:A2 *5078:RESET_B 1.22762e-05
17 *4913:A2 *1027:39 0.000197988
18 *5080:D *5080:RESET_B 0
19 *5081:CLK *5080:RESET_B 4.35432e-05
20 *5139:A *5080:RESET_B 2.75229e-05
21 *5140:A *5080:RESET_B 2.46089e-05
22 *231:23 *5078:RESET_B 0
23 *847:12 *5051:RESET_B 0.000267591
24 *922:21 *1027:39 0.000355889
25 *922:32 *1027:39 0.000147397
26 *922:47 *1027:39 1.79098e-05
27 *923:10 *5078:RESET_B 1.23706e-05
28 *967:64 *5080:RESET_B 0.000254209
29 *967:84 *5080:RESET_B 0.000180901
30 *1013:106 *5077:RESET_B 0.000252289
*RES
1 *5194:X *5051:RESET_B 8.765 
2 *5051:RESET_B *5077:RESET_B 11.1025 
3 *5077:RESET_B *1027:39 16.43 
4 *1027:39 *5076:RESET_B 4.8125 
5 *1027:39 *5078:RESET_B 5.3075 
6 *5078:RESET_B *5080:RESET_B 23.9275 
*END

*D_NET *1028 0.00192756
*CONN
*I *5303:A I *D sky130_fd_sc_hd__clkbuf_4
*I *5073:RESET_B I *D sky130_fd_sc_hd__dfrtp_2
*I *5072:RESET_B I *D sky130_fd_sc_hd__dfrtp_2
*I *5158:X O *D sky130_fd_sc_hd__clkdlybuf4s25_1
*CAP
1 *5303:A 0.000206257
2 *5073:RESET_B 0.000255936
3 *5072:RESET_B 0.000101937
4 *5158:X 0.000148163
5 *1028:8 0.000299779
6 *4870:A *5303:A 4.82863e-05
7 *4878:A *1028:8 6.97034e-05
8 *4964:B1 *5072:RESET_B 3.57846e-05
9 *4971:A2 *5072:RESET_B 0.000162318
10 *4971:A3 *5072:RESET_B 4.31189e-05
11 *4971:A3 *5073:RESET_B 4.43871e-06
12 *429:12 *5072:RESET_B 0.000183036
13 *592:52 *5072:RESET_B 5.12017e-06
14 *780:12 *5072:RESET_B 2.92496e-05
15 *780:12 *5073:RESET_B 8.55576e-05
16 *780:12 *5303:A 0
17 *780:12 *1028:8 4.66108e-05
18 *781:10 *1028:8 2.0514e-05
19 *844:12 *5303:A 0
20 *918:28 *5303:A 9.5152e-05
21 *990:189 *5073:RESET_B 0
22 *990:189 *5303:A 8.65961e-05
*RES
1 *5158:X *1028:8 5.43 
2 *1028:8 *5072:RESET_B 5.165 
3 *1028:8 *5073:RESET_B 3.125 
4 *5073:RESET_B *5303:A 9.7775 
*END

*D_NET *1029 0.021541
*CONN
*I *5082:RESET_B I *D sky130_fd_sc_hd__dfrtp_2
*I *1336:DIODE I *D sky130_fd_sc_hd__diode_2
*I *5086:RESET_B I *D sky130_fd_sc_hd__dfrtp_2
*I *5083:RESET_B I *D sky130_fd_sc_hd__dfrtp_2
*I *1337:DIODE I *D sky130_fd_sc_hd__diode_2
*I *5157:A I *D sky130_fd_sc_hd__clkdlybuf4s25_1
*I *1356:DIODE I *D sky130_fd_sc_hd__diode_2
*I *1334:DIODE I *D sky130_fd_sc_hd__diode_2
*I *1393:DIODE I *D sky130_fd_sc_hd__diode_2
*I *5074:RESET_B I *D sky130_fd_sc_hd__dfrtp_2
*I *1338:DIODE I *D sky130_fd_sc_hd__diode_2
*I *5071:RESET_B I *D sky130_fd_sc_hd__dfrtp_2
*I *1324:DIODE I *D sky130_fd_sc_hd__diode_2
*I *5079:RESET_B I *D sky130_fd_sc_hd__dfrtp_2
*I *1330:DIODE I *D sky130_fd_sc_hd__diode_2
*I *5075:RESET_B I *D sky130_fd_sc_hd__dfrtp_2
*I *1328:DIODE I *D sky130_fd_sc_hd__diode_2
*I *5303:X O *D sky130_fd_sc_hd__clkbuf_4
*CAP
1 *5082:RESET_B 0.000202228
2 *1336:DIODE 4.29032e-05
3 *5086:RESET_B 0.000459208
4 *5083:RESET_B 0.000375824
5 *1337:DIODE 5.37998e-05
6 *5157:A 0
7 *1356:DIODE 0.000137179
8 *1334:DIODE 8.87502e-05
9 *1393:DIODE 7.68195e-05
10 *5074:RESET_B 7.64383e-05
11 *1338:DIODE 0.00153063
12 *5071:RESET_B 0.000133032
13 *1324:DIODE 0
14 *5079:RESET_B 0.000188603
15 *1330:DIODE 8.87502e-05
16 *5075:RESET_B 0.000109498
17 *1328:DIODE 0
18 *5303:X 0
19 *1029:215 0.000412632
20 *1029:169 0.000726908
21 *1029:147 0.000423418
22 *1029:143 0.000751023
23 *1029:78 0.00147531
24 *1029:67 0.00093267
25 *1029:39 0.000348666
26 *1029:27 0.000936754
27 *1029:23 0.00165953
28 *1029:12 0.00059405
29 *1029:8 0.000373463
30 *1029:4 0.000268529
31 *1356:DIODE *1124:203 5.30144e-05
32 *5071:RESET_B *1123:165 0
33 *1029:27 *1123:116 0
34 *1029:27 *1125:22 0
35 *1029:67 *5164:A 0.000271308
36 *1029:67 *1123:157 0.000104286
37 *1029:67 *1124:19 0.000188063
38 *1029:78 *1360:DIODE 0.000190633
39 *1029:78 *1123:157 0.000148977
40 *1029:78 *1124:19 4.82863e-05
41 *1029:147 *1124:203 0.000192976
42 *1249:DIODE *1029:67 0.000306155
43 *1259:DIODE *1029:27 0.000240183
44 *1263:DIODE *1029:27 0.0011233
45 *1329:DIODE *1334:DIODE 0
46 *4328:B *5086:RESET_B 3.74214e-05
47 *4330:A1 *5086:RESET_B 3.0807e-05
48 *4330:A2 *1029:169 0
49 *4741:C *1029:12 0.000115779
50 *4741:C *1029:23 0.000505109
51 *4741:C *1029:67 0.000215396
52 *4837:A2 *1356:DIODE 6.83659e-05
53 *4858:B1 *1029:67 6.25711e-06
54 *4858:B2 *1029:67 0.000140384
55 *4860:A1 *5071:RESET_B 4.4133e-05
56 *4876:A2 *5074:RESET_B 7.5431e-05
57 *4876:A2 *1029:8 0.000205582
58 *4882:A2 *1029:23 8.57024e-05
59 *4904:A1 *1338:DIODE 2.39981e-05
60 *4904:B1 *1338:DIODE 1.91597e-05
61 *4917:B1 *1029:27 0.000144113
62 *4918:B1 *1029:27 0.000341559
63 *4941:B1 *5086:RESET_B 3.24046e-05
64 *4942:A1 *5083:RESET_B 4.49585e-05
65 *4942:A1 *1029:169 0
66 *4942:A1 *1029:215 0
67 *4942:B1 *5083:RESET_B 7.00889e-06
68 *4943:A2 *5086:RESET_B 1.82563e-05
69 *4949:B *1029:215 3.09164e-05
70 *4952:A *1334:DIODE 0
71 *4952:A *5079:RESET_B 0
72 *4965:B *5079:RESET_B 0
73 *5051:RESET_B *1029:147 0.000269952
74 *5075:CLK *1334:DIODE 4.99619e-05
75 *5075:CLK *5075:RESET_B 0.00014168
76 *5075:CLK *1029:39 3.00381e-05
77 *5077:RESET_B *1338:DIODE 0.000175098
78 *5079:D *5079:RESET_B 0
79 *5082:CLK *1336:DIODE 3.64998e-06
80 *5082:CLK *5082:RESET_B 0.000153449
81 *5082:D *1029:215 4.91927e-05
82 *5083:D *5083:RESET_B 0.000145402
83 *5086:CLK *5086:RESET_B 9.43648e-05
84 *5132:A *1029:147 9.34439e-05
85 *5132:A *1029:169 0.000150019
86 *5194:A *1029:147 0.000114492
87 *553:16 *1334:DIODE 4.82919e-05
88 *553:16 *1029:39 0.000133491
89 *567:12 *5071:RESET_B 0
90 *656:83 *1029:67 0.000116165
91 *804:10 *1338:DIODE 8.23457e-05
92 *844:12 *5074:RESET_B 0.000103974
93 *844:12 *1029:8 0.000281647
94 *847:12 *1356:DIODE 0.000141599
95 *847:12 *5083:RESET_B 0
96 *847:12 *1029:147 0.000266201
97 *847:12 *1029:169 0.000584524
98 *922:8 *1338:DIODE 0.000160635
99 *924:10 *5079:RESET_B 0
100 *924:10 *1029:27 0
101 *924:47 *5079:RESET_B 0
102 *952:8 *5079:RESET_B 0
103 *952:8 *1029:27 0
104 *966:12 *1029:67 6.05513e-05
105 *966:14 *5074:RESET_B 4.24575e-05
106 *967:16 *5086:RESET_B 9.84957e-05
107 *967:62 *1029:215 0.000183043
108 *991:30 *1338:DIODE 3.64998e-06
109 *991:30 *1029:27 5.72004e-05
110 *991:30 *1029:78 0.000113414
111 *1013:145 *1029:169 0
112 *1013:173 *1337:DIODE 2.47313e-05
113 *1013:173 *5083:RESET_B 3.43427e-05
114 *1013:173 *1029:169 0
115 *1013:251 *1338:DIODE 6.91157e-06
*RES
1 *5303:X *1029:4 1.6 
2 *1029:4 *1029:8 7.97 
3 *1029:8 *1029:12 3.83 
4 *1029:12 *1328:DIODE 1.6 
5 *1029:12 *1029:23 7.47 
6 *1029:23 *1029:27 17.405 
7 *1029:27 *1029:39 6.485 
8 *1029:39 *5075:RESET_B 2.1225 
9 *1029:39 *1330:DIODE 1.6 
10 *1029:27 *5079:RESET_B 4.91 
11 *1029:23 *1029:67 16.63 
12 *1029:67 *1324:DIODE 1.6 
13 *1029:67 *1029:78 5.31 
14 *1029:78 *5071:RESET_B 6.2875 
15 *1029:78 *1338:DIODE 15.625 
16 *1029:8 *5074:RESET_B 4.5425 
17 *1029:4 *1393:DIODE 2.395 
18 *1330:DIODE *1334:DIODE 8.775 
19 *1338:DIODE *1029:143 3.6 
20 *1029:143 *1029:147 9.225 
21 *1029:147 *1356:DIODE 6.375 
22 *1029:147 *5157:A 3.6 
23 *1029:143 *1029:169 14.09 
24 *1029:169 *1337:DIODE 2.395 
25 *1029:169 *5083:RESET_B 7.9525 
26 *1338:DIODE *5086:RESET_B 12.005 
27 *5083:RESET_B *1029:215 7.675 
28 *1029:215 *1336:DIODE 2.05 
29 *1029:215 *5082:RESET_B 3.2775 
*END

*D_NET *1030 0.00531784
*CONN
*I *4348:A I *D sky130_fd_sc_hd__nand2_2
*I *4299:A I *D sky130_fd_sc_hd__inv_2
*I *4426:A I *D sky130_fd_sc_hd__xnor2_2
*I *4349:A I *D sky130_fd_sc_hd__xnor2_2
*I *5196:X O *D sky130_fd_sc_hd__buf_2
*CAP
1 *4348:A 0
2 *4299:A 0
3 *4426:A 0.000295804
4 *4349:A 7.54351e-05
5 *5196:X 0.000350353
6 *1030:37 0.00124234
7 *1030:18 0.00112489
8 *1030:14 0.000453273
9 *4426:A *1031:44 0.000163204
10 *1030:14 *1144:DIODE 4.07013e-05
11 *1030:14 *4358:B 0
12 *1030:14 *1039:28 9.37731e-05
13 *1030:18 *4358:B 0
14 *4348:B *1030:18 0.000163019
15 *4356:B1 *1030:37 4.77719e-05
16 *4357:B1 *1030:14 6.74079e-05
17 *4359:B *1030:14 9.29751e-06
18 *4422:A *4426:A 0.000143266
19 *4422:B *4426:A 0
20 *226:28 *1030:14 8.14111e-05
21 *226:28 *1030:18 9.3062e-06
22 *266:10 *4426:A 0.000544561
23 *266:10 *1030:37 0.000129742
24 *270:6 *1030:37 9.4087e-05
25 *277:10 *1030:37 9.64021e-05
26 *279:10 *1030:14 1.94351e-05
27 *281:10 *1030:14 7.23533e-05
*RES
1 *5196:X *1030:14 10.755 
2 *1030:14 *1030:18 4.145 
3 *1030:18 *4349:A 2.755 
4 *1030:18 *1030:37 16.88 
5 *1030:37 *4426:A 11.67 
6 *1030:37 *4299:A 3.6 
7 *1030:14 *4348:A 3.6 
*END

*D_NET *1031 0.0074608
*CONN
*I *4334:A I *D sky130_fd_sc_hd__nand2_2
*I *4428:A I *D sky130_fd_sc_hd__nand2_2
*I *4442:A1 I *D sky130_fd_sc_hd__a31o_2
*I *4300:A I *D sky130_fd_sc_hd__inv_2
*I *4335:A I *D sky130_fd_sc_hd__xnor2_2
*I *5197:X O *D sky130_fd_sc_hd__buf_4
*CAP
1 *4334:A 3.20536e-05
2 *4428:A 4.61676e-05
3 *4442:A1 0.000156738
4 *4300:A 0
5 *4335:A 4.96119e-05
6 *5197:X 0.000168396
7 *1031:44 0.00227666
8 *1031:29 0.00227422
9 *1031:14 0.000353061
10 *1031:10 0.000303436
11 *4334:A *1036:39 0
12 *1031:14 *1036:39 0
13 *4334:B *4334:A 2.92496e-05
14 *4334:B *1031:10 8.65905e-05
15 *4334:B *1031:14 0.000155176
16 *4336:A *1031:44 5.05521e-05
17 *4342:A *1031:44 2.75229e-05
18 *4342:B *1031:44 7.08493e-05
19 *4345:B1 *1031:44 8.73389e-06
20 *4414:A *1031:44 9.73899e-05
21 *4426:A *1031:44 0.000163204
22 *4428:B *4428:A 0.000133068
23 *4428:B *4442:A1 5.23362e-05
24 *4428:B *1031:44 4.35348e-05
25 *4429:A *4442:A1 2.75145e-05
26 *4429:A *1031:44 1.34503e-05
27 *4429:B *4428:A 4.70343e-05
28 *4429:B *4442:A1 3.05238e-05
29 *226:19 *4334:A 9.3062e-06
30 *254:8 *1031:14 3.09233e-05
31 *256:6 *1031:29 4.99619e-05
32 *256:6 *1031:44 9.85276e-05
33 *328:10 *1031:44 8.65961e-05
34 *347:6 *1031:44 0.000356941
35 *348:28 *4442:A1 6.57653e-06
36 *363:20 *1031:44 0.000124895
*RES
1 *5197:X *1031:10 6.135 
2 *1031:10 *1031:14 4.145 
3 *1031:14 *4335:A 2.41 
4 *1031:14 *1031:29 3.33 
5 *1031:29 *4300:A 1.6 
6 *1031:29 *1031:44 33.2 
7 *1031:44 *4442:A1 6.24 
8 *1031:44 *4428:A 5.235 
9 *1031:10 *4334:A 4.215 
*END

*D_NET *1032 0.00897452
*CONN
*I *4339:A I *D sky130_fd_sc_hd__nand2_2
*I *4433:A I *D sky130_fd_sc_hd__and3_2
*I *4435:B1 I *D sky130_fd_sc_hd__a21oi_2
*I *4340:A I *D sky130_fd_sc_hd__xnor2_2
*I *5198:X O *D sky130_fd_sc_hd__buf_2
*CAP
1 *4339:A 0
2 *4433:A 8.95219e-05
3 *4435:B1 1.77753e-05
4 *4340:A 2.08101e-05
5 *5198:X 0.000453943
6 *1032:43 0.00200265
7 *1032:20 0.00219361
8 *1032:14 0.000731395
9 *1032:14 *1035:12 0.000201503
10 *1032:14 *1035:16 0
11 *1032:20 *5199:A 0
12 *1032:20 *1033:8 8.5841e-05
13 *1032:20 *1035:16 0
14 *1032:43 *4431:B 4.99619e-05
15 *1032:43 *1033:8 4.21666e-05
16 *1143:DIODE *1032:43 2.26018e-05
17 *4339:B *1032:20 0.000199953
18 *4340:B *1032:20 0.00011686
19 *4343:A1 *1032:14 5.30673e-05
20 *4343:A2 *1032:14 0.000124895
21 *4343:B1 *1032:14 0.00011686
22 *4375:A *1032:43 5.30673e-05
23 *4376:A *1032:43 0.000492474
24 *4378:B1 *1032:43 2.75229e-05
25 *4421:B *1032:43 4.85494e-05
26 *4433:C *4433:A 3.83041e-05
27 *4435:A1 *4433:A 9.91257e-05
28 *4435:A1 *4435:B1 0
29 *4435:A1 *1032:43 1.61831e-05
30 *5175:A *1032:14 6.99805e-05
31 *226:6 *1032:14 7.68414e-06
32 *227:115 *1032:43 6.27029e-05
33 *227:117 *1032:43 6.52265e-05
34 *228:16 *4433:A 9.80032e-06
35 *228:16 *4435:B1 0
36 *228:16 *1032:43 0.000409399
37 *228:28 *1032:43 0.000236538
38 *261:10 *1032:43 0.000125264
39 *297:8 *1032:43 7.23602e-05
40 *353:12 *4433:A 4.82919e-05
41 *356:8 *4433:A 0.000124007
42 *1026:46 *1032:43 0.00044463
*RES
1 *5198:X *1032:14 12.18 
2 *1032:14 *1032:20 7.76 
3 *1032:20 *4340:A 1.96 
4 *1032:20 *1032:43 31.78 
5 *1032:43 *4435:B1 1.96 
6 *1032:43 *4433:A 4.12 
7 *1032:14 *4339:A 3.6 
*END

*D_NET *1033 0.00790196
*CONN
*I *4378:A1 I *D sky130_fd_sc_hd__a21oi_2
*I *4704:A I *D sky130_fd_sc_hd__or2_2
*I *4437:A I *D sky130_fd_sc_hd__nand2_2
*I *4389:A I *D sky130_fd_sc_hd__xnor2_2
*I *5199:X O *D sky130_fd_sc_hd__buf_2
*CAP
1 *4378:A1 0.000169017
2 *4704:A 8.79382e-05
3 *4437:A 1.41956e-05
4 *4389:A 7.15312e-05
5 *5199:X 0.00079494
6 *1033:29 0.00125937
7 *1033:10 0.00136406
8 *1033:8 0.00109925
9 *1146:DIODE *1033:29 4.40446e-05
10 *4376:A *1033:8 6.20787e-05
11 *4376:B *4378:A1 4.9968e-05
12 *4376:B *1033:10 0.000154488
13 *4378:A2 *4378:A1 9.50342e-06
14 *4388:A *4378:A1 2.50049e-05
15 *4389:B *4389:A 0.000154806
16 *4389:B *1033:10 9.09263e-05
17 *4401:A *1033:29 2.75229e-05
18 *4403:B *1033:29 6.47326e-05
19 *4421:B *1033:8 0.00054624
20 *4704:B *4437:A 5.4155e-06
21 *4704:B *4704:A 7.60965e-05
22 *4704:B *1033:29 2.7441e-05
23 *4705:A *4704:A 3.23663e-05
24 *297:8 *4378:A1 0
25 *299:6 *4378:A1 2.75229e-05
26 *301:10 *4378:A1 2.75229e-05
27 *342:8 *4378:A1 0
28 *1015:56 *4389:A 8.87475e-05
29 *1015:56 *1033:10 0.000196458
30 *1015:56 *1033:29 1.93834e-05
31 *1021:18 *4437:A 1.31519e-05
32 *1021:18 *1033:29 0.000854637
33 *1026:46 *1033:8 0.000315601
34 *1032:20 *1033:8 8.5841e-05
35 *1032:43 *1033:8 4.21666e-05
*RES
1 *5199:X *1033:8 18.195 
2 *1033:8 *1033:10 4.0575 
3 *1033:10 *4389:A 6.0675 
4 *1033:10 *1033:29 21.3275 
5 *1033:29 *4437:A 1.96 
6 *1033:29 *4704:A 3.79 
7 *1033:8 *4378:A1 6.45 
*END

*D_NET *1034 0.0101993
*CONN
*I *4511:A I *D sky130_fd_sc_hd__nand2_2
*I *4503:A1 I *D sky130_fd_sc_hd__a21oi_2
*I *4479:A I *D sky130_fd_sc_hd__xnor2_2
*I *4521:A I *D sky130_fd_sc_hd__or2_2
*I *5200:X O *D sky130_fd_sc_hd__buf_2
*CAP
1 *4511:A 0
2 *4503:A1 0
3 *4479:A 0.000304528
4 *4521:A 1.92299e-05
5 *5200:X 0.000192851
6 *1034:29 0.00192996
7 *1034:14 0.00193123
8 *1034:8 0.000479427
9 *1034:8 *1177:DIODE 3.25831e-05
10 *1034:8 *1041:17 6.28498e-05
11 *1034:8 *1041:19 0.000223727
12 *1034:14 *1177:DIODE 0.000120186
13 *1034:14 *1185:DIODE 7.00889e-06
14 *1034:14 *4534:B1 0.000162311
15 *1034:29 *1150:DIODE 0.000261931
16 *4479:B *4479:A 0.000431333
17 *4497:A *1034:29 0
18 *4523:B *1034:8 0.000183043
19 *4534:A1 *1034:14 2.86975e-05
20 *4535:B *1034:14 5.1997e-05
21 *4535:B *1034:29 4.6368e-06
22 *4539:B *1034:29 2.75145e-05
23 *4555:B *1034:29 0
24 *4559:B *1034:29 0
25 *4570:A_N *1034:29 0
26 *4593:B *1034:29 0.000102184
27 *4599:A2 *1034:29 0
28 *399:8 *4479:A 5.0128e-05
29 *420:30 *1034:29 0
30 *432:10 *1034:8 0.000116853
31 *442:6 *1034:14 2.86975e-05
32 *460:10 *1034:29 5.30673e-05
33 *469:8 *1034:29 0
34 *499:10 *1034:29 0.000156937
35 *982:17 *1034:8 0
36 *982:21 *1034:8 0
37 *982:21 *1034:14 0
38 *982:87 *4521:A 5.12969e-06
39 *982:87 *1034:29 0.000147783
40 *982:139 *1034:29 0.00297322
41 *1020:10 *1034:8 8.17841e-05
42 *1020:14 *1034:14 2.84224e-05
*RES
1 *5200:X *1034:8 9.57 
2 *1034:8 *1034:14 8.045 
3 *1034:14 *4521:A 1.96 
4 *1034:14 *1034:29 45.22 
5 *1034:29 *4479:A 7.945 
6 *1034:29 *4503:A1 1.6 
7 *1034:8 *4511:A 3.6 
*END

*D_NET *1035 0.00164368
*CONN
*I *4333:B I *D sky130_fd_sc_hd__xor2_2
*I *4302:A I *D sky130_fd_sc_hd__inv_2
*I *4338:A I *D sky130_fd_sc_hd__xor2_2
*I *5199:A I *D sky130_fd_sc_hd__buf_2
*I *5175:X O *D sky130_fd_sc_hd__buf_1
*CAP
1 *4333:B 9.91904e-05
2 *4302:A 0
3 *4338:A 0
4 *5199:A 0.000195805
5 *5175:X 0
6 *1035:16 0.000472979
7 *1035:12 0.000416905
8 *1035:6 0.000238921
9 *4333:B *5198:A 0
10 *4333:B *1036:10 0
11 *1035:12 *5198:A 0
12 *4340:B *5199:A 0
13 *226:6 *1035:12 1.83756e-05
14 *226:19 *4333:B 0
15 *226:19 *1035:12 0
16 *1032:14 *1035:12 0.000201503
17 *1032:14 *1035:16 0
18 *1032:20 *5199:A 0
19 *1032:20 *1035:16 0
*RES
1 *5175:X *1035:6 3.6 
2 *1035:6 *1035:12 4.7 
3 *1035:12 *1035:16 6.185 
4 *1035:16 *5199:A 6.63 
5 *1035:16 *4338:A 3.6 
6 *1035:12 *4302:A 1.6 
7 *1035:6 *4333:B 3.635 
*END

*D_NET *1036 0.00174923
*CONN
*I *4347:B I *D sky130_fd_sc_hd__xor2_2
*I *4301:A I *D sky130_fd_sc_hd__inv_2
*I *4333:A I *D sky130_fd_sc_hd__xor2_2
*I *5198:A I *D sky130_fd_sc_hd__buf_2
*I *5176:X O *D sky130_fd_sc_hd__buf_1
*CAP
1 *4347:B 0.000148113
2 *4301:A 0
3 *4333:A 0
4 *5198:A 0.000163786
5 *5176:X 0.000488859
6 *1036:39 0.000512703
7 *1036:10 0.000288056
8 *4347:B *4358:B 0
9 *4347:B *5197:A 0
10 *4347:B *1037:21 0
11 *1036:39 *5197:A 0
12 *1373:DIODE *1036:10 2.75229e-05
13 *1373:DIODE *1036:39 2.11084e-05
14 *4333:B *5198:A 0
15 *4333:B *1036:10 0
16 *4334:A *1036:39 0
17 *4346:B1 *1036:39 4.91189e-05
18 *5175:A *5198:A 4.99619e-05
19 *212:13 *1036:39 0
20 *213:13 *1036:39 0
21 *226:19 *4347:B 0
22 *226:19 *1036:39 0
23 *226:28 *4347:B 0
24 *1031:14 *1036:39 0
25 *1035:12 *5198:A 0
*RES
1 *5176:X *1036:10 5.43 
2 *1036:10 *5198:A 6.45 
3 *1036:10 *4333:A 3.6 
4 *5176:X *1036:39 8.85 
5 *1036:39 *4301:A 3.6 
6 *1036:39 *4347:B 4.4 
*END

*D_NET *1037 0.00147953
*CONN
*I *4358:B I *D sky130_fd_sc_hd__xor2_2
*I *4347:A I *D sky130_fd_sc_hd__xor2_2
*I *5197:A I *D sky130_fd_sc_hd__buf_4
*I *5177:X O *D sky130_fd_sc_hd__buf_1
*CAP
1 *4358:B 0.000389723
2 *4347:A 0
3 *5197:A 0.000167528
4 *5177:X 3.72196e-05
5 *1037:21 0.000492142
6 *1037:8 0.000307166
7 *1374:DIODE *1037:8 1.83847e-05
8 *4347:B *4358:B 0
9 *4347:B *5197:A 0
10 *4347:B *1037:21 0
11 *213:13 *5197:A 6.73665e-05
12 *279:10 *4358:B 0
13 *1030:14 *4358:B 0
14 *1030:18 *4358:B 0
15 *1036:39 *5197:A 0
*RES
1 *5177:X *1037:8 4.05 
2 *1037:8 *5197:A 6.705 
3 *1037:8 *1037:21 1.635 
4 *1037:21 *4347:A 3.6 
5 *1037:21 *4358:B 8.3675 
*END

*D_NET *1038 0.00164321
*CONN
*I *4466:B I *D sky130_fd_sc_hd__xor2_2
*I *5196:A I *D sky130_fd_sc_hd__buf_2
*I *4358:A I *D sky130_fd_sc_hd__xor2_2
*I *5178:X O *D sky130_fd_sc_hd__buf_1
*CAP
1 *4466:B 6.49078e-05
2 *5196:A 5.66328e-05
3 *4358:A 0.000234403
4 *5178:X 0
5 *1038:12 0.000546332
6 *1038:6 0.000320204
7 *4466:B *1039:14 9.50342e-06
8 *4466:B *1039:22 0.000133763
9 *1038:12 *1039:22 0.000208491
10 *4359:B *4358:A 0
11 *4359:B *1038:12 0
12 *4465:B1 *1038:12 0
13 *203:13 *1038:12 6.89705e-05
14 *279:10 *4358:A 0
15 *387:10 *4466:B 0
*RES
1 *5178:X *1038:6 3.6 
2 *1038:6 *1038:12 5.505 
3 *1038:12 *4358:A 7.53 
4 *1038:12 *5196:A 4.395 
5 *1038:6 *4466:B 3.635 
*END

*D_NET *1039 0.0137923
*CONN
*I *4298:A I *D sky130_fd_sc_hd__inv_2
*I *4487:B I *D sky130_fd_sc_hd__and2_2
*I *4488:B I *D sky130_fd_sc_hd__xor2_2
*I *4466:A I *D sky130_fd_sc_hd__xor2_2
*I *4359:A I *D sky130_fd_sc_hd__nand2_2
*I *4419:A I *D sky130_fd_sc_hd__xnor2_2
*I *4415:A1 I *D sky130_fd_sc_hd__a21o_2
*I *4360:A I *D sky130_fd_sc_hd__xnor2_2
*I *5179:X O *D sky130_fd_sc_hd__buf_2
*CAP
1 *4298:A 0.000891697
2 *4487:B 2.2266e-05
3 *4488:B 0.000891697
4 *4466:A 0
5 *4359:A 0
6 *4419:A 5.97313e-05
7 *4415:A1 0.000105644
8 *4360:A 0.000110242
9 *5179:X 6.32303e-05
10 *1039:51 0.00212432
11 *1039:28 0.00218384
12 *1039:22 0.000432014
13 *1039:14 0.0010682
14 *1039:10 0.00083127
15 *1039:8 0.000165925
16 *4298:A *1160:DIODE 2.20732e-05
17 *4298:A *1041:108 0.000105466
18 *4487:B *4487:A 4.82919e-05
19 *1039:8 *1041:93 6.11019e-05
20 *1039:8 *1041:97 1.52184e-05
21 *1039:10 *1041:97 9.24049e-05
22 *1039:14 *1041:97 1.01661e-05
23 *1039:14 *1041:114 0
24 *1039:14 *1041:179 0
25 *1039:22 *1095:23 5.78185e-05
26 *1039:28 *1144:DIODE 0
27 *1039:51 *1144:DIODE 0.000537243
28 *1039:51 *4387:A 0.000201508
29 *1039:51 *1117:217 3.23663e-05
30 *1386:DIODE *1039:22 0.000162311
31 *4359:B *1039:28 0.000189291
32 *4361:B *1039:22 4.00541e-06
33 *4361:B *1039:28 8.6099e-05
34 *4364:A *1039:51 0.0001947
35 *4365:A *1039:51 4.82863e-05
36 *4366:A *1039:51 5.93081e-05
37 *4366:B *1039:51 8.64421e-05
38 *4369:A *1039:51 4.82919e-05
39 *4400:A *1039:51 0.000160635
40 *4409:A_N *1039:51 6.57653e-06
41 *4409:B *1039:51 0
42 *4410:B *1039:51 0.00015896
43 *4415:B1 *4415:A1 5.56629e-05
44 *4417:A_N *1039:51 0.000121152
45 *4417:B *1039:51 0.000166346
46 *4419:B *4415:A1 0.00019408
47 *4446:A *1039:51 6.44134e-05
48 *4466:B *1039:14 9.50342e-06
49 *4466:B *1039:22 0.000133763
50 *4467:B *1039:14 0
51 *4472:B *1039:14 0
52 *4486:A1 *4298:A 2.75145e-05
53 *4486:A2 *4298:A 4.77719e-05
54 *4486:B1 *4298:A 4.77757e-05
55 *4491:A *4298:A 8.65961e-05
56 *214:13 *1039:22 6.96978e-05
57 *215:9 *1039:8 4.05569e-05
58 *281:10 *1039:28 3.95347e-05
59 *281:10 *1039:51 8.65905e-05
60 *287:10 *1039:51 0.000235238
61 *305:10 *1039:51 0.00010768
62 *308:8 *1039:51 9.18083e-05
63 *329:10 *4415:A1 2.24992e-05
64 *329:10 *1039:51 4.93992e-05
65 *335:12 *4415:A1 1.82563e-05
66 *336:10 *4415:A1 0.000141599
67 *336:10 *1039:51 0.000179922
68 *343:10 *4415:A1 1.34594e-05
69 *387:10 *1039:14 0
70 *391:10 *1039:14 0
71 *407:10 *4298:A 9.80943e-06
72 *409:10 *4298:A 4.4133e-05
73 *412:10 *4298:A 4.66742e-05
74 *1030:14 *1039:28 9.37731e-05
75 *1038:12 *1039:22 0.000208491
*RES
1 *5179:X *1039:8 5.235 
2 *1039:8 *1039:10 1.89 
3 *1039:10 *1039:14 12.795 
4 *1039:14 *1039:22 9.155 
5 *1039:22 *1039:28 7.93 
6 *1039:28 *4360:A 3.1 
7 *1039:28 *1039:51 39.68 
8 *1039:51 *4415:A1 6.96 
9 *1039:51 *4419:A 4.395 
10 *1039:22 *4359:A 1.6 
11 *1039:14 *4466:A 3.6 
12 *1039:10 *4488:B 2 
13 *1039:8 *4487:B 4.05 
14 *4488:B *4298:A 14.8975 
*END

*D_NET *1040 0.00169565
*CONN
*I *4332:C_N I *D sky130_fd_sc_hd__or3b_2
*I *4331:B I *D sky130_fd_sc_hd__and3b_2
*I *5180:X O *D sky130_fd_sc_hd__clkdlybuf4s25_1
*CAP
1 *4332:C_N 3.70241e-05
2 *4331:B 0
3 *5180:X 0.000498632
4 *1040:10 0.000535656
5 *1040:10 *4331:A_N 7.21296e-06
6 *1040:10 *5206:A 0.000156426
7 *1040:10 *5212:A 0
8 gpio_oeb[16] *1040:10 3.1562e-06
9 *5152:A *4332:C_N 0.000115464
10 *5152:A *1040:10 5.16418e-05
11 *981:44 *4332:C_N 0.000104287
12 *981:44 *1040:10 9.30787e-05
13 *981:50 *1040:10 9.30717e-05
*RES
1 *5180:X *1040:10 10.68 
2 *1040:10 *4331:B 3.6 
3 *1040:10 *4332:C_N 4.98 
*END

*D_NET *1041 0.018332
*CONN
*I *4408:B2 I *D sky130_fd_sc_hd__a2bb2oi_2
*I *4416:A I *D sky130_fd_sc_hd__xnor2_2
*I *1149:DIODE I *D sky130_fd_sc_hd__diode_2
*I *1150:DIODE I *D sky130_fd_sc_hd__diode_2
*I *4560:B I *D sky130_fd_sc_hd__and2_2
*I *1158:DIODE I *D sky130_fd_sc_hd__diode_2
*I *4468:A I *D sky130_fd_sc_hd__xnor2_2
*I *4561:B I *D sky130_fd_sc_hd__xor2_2
*I *1184:DIODE I *D sky130_fd_sc_hd__diode_2
*I *1159:DIODE I *D sky130_fd_sc_hd__diode_2
*I *4487:A I *D sky130_fd_sc_hd__and2_2
*I *1160:DIODE I *D sky130_fd_sc_hd__diode_2
*I *4467:A I *D sky130_fd_sc_hd__nand2_2
*I *1157:DIODE I *D sky130_fd_sc_hd__diode_2
*I *4488:A I *D sky130_fd_sc_hd__xor2_2
*I *4534:B1 I *D sky130_fd_sc_hd__a21o_2
*I *1185:DIODE I *D sky130_fd_sc_hd__diode_2
*I *1175:DIODE I *D sky130_fd_sc_hd__diode_2
*I *4522:A I *D sky130_fd_sc_hd__nand3_2
*I *1177:DIODE I *D sky130_fd_sc_hd__diode_2
*I *1379:DIODE I *D sky130_fd_sc_hd__diode_2
*I *5181:X O *D sky130_fd_sc_hd__buf_2
*CAP
1 *4408:B2 3.61981e-05
2 *4416:A 0.000105499
3 *1149:DIODE 0.00018273
4 *1150:DIODE 0.00249663
5 *4560:B 8.69859e-05
6 *1158:DIODE 0.00274416
7 *4468:A 7.54351e-05
8 *4561:B 3.25158e-05
9 *1184:DIODE 0.000120463
10 *1159:DIODE 4.43379e-05
11 *4487:A 7.4029e-05
12 *1160:DIODE 6.66566e-05
13 *4467:A 0
14 *1157:DIODE 0.000193032
15 *4488:A 3.18738e-05
16 *4534:B1 4.74221e-05
17 *1185:DIODE 0.000827501
18 *1175:DIODE 0
19 *4522:A 6.28862e-05
20 *1177:DIODE 0.000767158
21 *1379:DIODE 0
22 *5181:X 7.57003e-05
23 *1041:236 0.000252031
24 *1041:179 0.000388824
25 *1041:114 0.000282174
26 *1041:108 0.000385565
27 *1041:97 0.000275967
28 *1041:93 0.000198842
29 *1041:91 0.00033348
30 *1041:89 0.000524006
31 *1041:83 0.000428125
32 *1041:19 0.000163266
33 *1041:17 0.000716129
34 *1041:6 0.000733275
35 *1150:DIODE *1145:DIODE 0.000116158
36 *1150:DIODE *1117:221 6.45236e-05
37 *1185:DIODE *1164:DIODE 0
38 *1185:DIODE *1106:10 0
39 *1185:DIODE *1117:75 0
40 *1185:DIODE *1117:169 7.23533e-05
41 *1041:89 *4560:A 0.000118513
42 *1041:89 *4561:A 3.03775e-05
43 *1041:89 *1117:171 0
44 *1041:91 *1144:DIODE 0
45 *1041:91 *1117:171 0
46 *1041:97 *1144:DIODE 0
47 *1041:114 *1144:DIODE 0.000167709
48 *1376:DIODE *1041:91 0
49 *4298:A *1160:DIODE 2.20732e-05
50 *4298:A *1041:108 0.000105466
51 *4371:B *1150:DIODE 9.24127e-05
52 *4383:A *1150:DIODE 3.84409e-05
53 *4383:B *1150:DIODE 0.000291365
54 *4384:B1 *1150:DIODE 0.000517454
55 *4386:B *1150:DIODE 0
56 *4387:B *1150:DIODE 0
57 *4395:B *1149:DIODE 0.000160651
58 *4396:B *1149:DIODE 8.08439e-05
59 *4408:A1_N *1149:DIODE 4.82919e-05
60 *4408:A1_N *4408:B2 0.0001249
61 *4408:B1 *4408:B2 4.99619e-05
62 *4416:B *1149:DIODE 0.000119521
63 *4463:B1 *1150:DIODE 0
64 *4467:B *1041:114 5.53249e-06
65 *4467:B *1041:179 6.55406e-05
66 *4468:B *1158:DIODE 4.82863e-05
67 *4469:A *1158:DIODE 2.75229e-05
68 *4469:B *1158:DIODE 1.83756e-05
69 *4470:B *1158:DIODE 1.83847e-05
70 *4487:B *4487:A 4.82919e-05
71 *4499:A *1150:DIODE 6.97202e-05
72 *4499:B *1150:DIODE 2.54431e-05
73 *4502:A *1150:DIODE 9.5433e-05
74 *4505:B *1150:DIODE 0
75 *4522:B *4522:A 5.4155e-06
76 *4523:A *1041:17 0.000119756
77 *4535:B *4534:B1 5.05521e-05
78 *4566:B1 *1185:DIODE 0
79 *4575:A2 *1041:91 3.26084e-05
80 *4575:A2 *1041:93 4.49498e-05
81 *4575:A2 *1041:97 8.08153e-06
82 *215:9 *1041:91 0
83 *228:36 *1149:DIODE 0
84 *228:36 *1150:DIODE 0.000272984
85 *291:8 *1150:DIODE 0.000113964
86 *294:27 *1150:DIODE 4.40123e-05
87 *305:10 *1150:DIODE 0
88 *319:10 *1149:DIODE 0
89 *409:10 *1041:97 5.92849e-05
90 *409:10 *1041:108 2.65337e-05
91 *424:10 *1150:DIODE 0
92 *432:37 *4522:A 4.80285e-05
93 *482:8 *1041:83 4.92935e-05
94 *482:8 *1041:89 1.83847e-05
95 *982:21 *1185:DIODE 0
96 *982:34 *1185:DIODE 0
97 *982:139 *1150:DIODE 7.1245e-05
98 *1020:14 *1177:DIODE 7.63204e-05
99 *1020:14 *1041:17 3.86529e-05
100 *1020:14 *1041:19 0.000130072
101 *1020:24 *1185:DIODE 0.00017688
102 *1020:26 *1185:DIODE 0.000499083
103 *1034:8 *1177:DIODE 3.25831e-05
104 *1034:8 *1041:17 6.28498e-05
105 *1034:8 *1041:19 0.000223727
106 *1034:14 *1177:DIODE 0.000120186
107 *1034:14 *1185:DIODE 7.00889e-06
108 *1034:14 *4534:B1 0.000162311
109 *1034:29 *1150:DIODE 0.000261931
110 *1039:8 *1041:93 6.11019e-05
111 *1039:8 *1041:97 1.52184e-05
112 *1039:10 *1041:97 9.24049e-05
113 *1039:14 *1041:97 1.01661e-05
114 *1039:14 *1041:114 0
115 *1039:14 *1041:179 0
*RES
1 *5181:X *1041:6 2.395 
2 *1041:6 *1379:DIODE 1.6 
3 *1041:6 *1041:17 9.875 
4 *1041:17 *1041:19 2.655 
5 *1041:19 *1177:DIODE 5.235 
6 *1041:19 *4522:A 4.755 
7 *1041:17 *1175:DIODE 3.6 
8 *1177:DIODE *1185:DIODE 19.44 
9 *1177:DIODE *4534:B1 4.685 
10 *1185:DIODE *1041:83 3.43 
11 *1041:83 *1041:89 5.63 
12 *1041:89 *1041:91 4.185 
13 *1041:91 *1041:93 1.38 
14 *1041:93 *1041:97 4.4 
15 *1041:97 *4488:A 2.05 
16 *1041:97 *1041:108 3.135 
17 *1041:108 *1041:114 7.42 
18 *1041:114 *1157:DIODE 3.445 
19 *1041:114 *4467:A 1.6 
20 *1041:108 *1160:DIODE 2.395 
21 *1041:93 *4487:A 4.74 
22 *1041:91 *1159:DIODE 4.05 
23 *1041:89 *1184:DIODE 4.05 
24 *1041:83 *4561:B 0.5625 
25 *1157:DIODE *1041:179 6.98 
26 *1041:179 *4468:A 2.755 
27 *1041:179 *1158:DIODE 5.5 
28 *1184:DIODE *4560:B 4.6925 
29 *1158:DIODE *1150:DIODE 46.725 
30 *1150:DIODE *1041:236 1.6 
31 *1041:236 *1149:DIODE 9.725 
32 *1041:236 *4416:A 3.085 
33 *1149:DIODE *4408:B2 4.34 
*END

*D_NET *1042 0.00339326
*CONN
*I *5201:A I *D sky130_fd_sc_hd__clkdlybuf4s25_1
*I *5080:Q O *D sky130_fd_sc_hd__dfrtp_2
*CAP
1 *5201:A 0.00109945
2 *5080:Q 0.00109945
3 *5201:A *5269:A 0.000198789
4 *5018:A *5201:A 6.01037e-05
5 *5018:B *5201:A 0
6 *5022:B *5201:A 0.00011379
7 *5036:A *5201:A 2.03321e-05
8 *5038:A *5201:A 0.000335163
9 *5044:B *5201:A 5.16418e-05
10 *892:36 *5201:A 3.16707e-06
11 *897:10 *5201:A 0.000134242
12 *904:79 *5201:A 0
13 *904:94 *5201:A 0.000127373
14 *904:109 *5201:A 0.000149766
*RES
1 *5080:Q *5201:A 20.0966 
*END

*D_NET *1043 0.000443355
*CONN
*I *5202:A I *D sky130_fd_sc_hd__clkdlybuf4s25_1
*I *5087:X O *D sky130_fd_sc_hd__buf_2
*CAP
1 *5202:A 0.000114913
2 *5087:X 0.000114913
3 *5202:A *5235:A 1.07797e-05
4 *1014:41 *5202:A 0.000202749
*RES
1 *5087:X *5202:A 9.63 
*END

*D_NET *1044 0.00129952
*CONN
*I *5203:A I *D sky130_fd_sc_hd__clkdlybuf4s25_1
*I *5097:X O *D sky130_fd_sc_hd__buf_2
*CAP
1 *5203:A 0.000495228
2 *5097:X 0.000495228
3 *5203:A *5208:A 2.30292e-05
4 *5203:A *5224:A 2.97746e-05
5 gpio_oeb[15] *5203:A 5.83121e-06
6 gpio_oeb[27] *5203:A 4.89295e-05
7 *1016:16 *5203:A 0.000201503
8 *1019:46 *5203:A 0
*RES
1 *5097:X *5203:A 15.255 
*END

*D_NET *1045 0.00108111
*CONN
*I *5204:A I *D sky130_fd_sc_hd__clkdlybuf4s25_1
*I *5098:X O *D sky130_fd_sc_hd__buf_2
*CAP
1 *5204:A 0.00043645
2 *5098:X 0.00043645
3 *5228:A *5204:A 0.000208207
*RES
1 *5098:X *5204:A 14.19 
*END

*D_NET *1046 0.000402082
*CONN
*I *5205:A I *D sky130_fd_sc_hd__clkdlybuf4s25_1
*I *5099:X O *D sky130_fd_sc_hd__buf_2
*CAP
1 *5205:A 0.000201041
2 *5099:X 0.000201041
*RES
1 *5099:X *5205:A 6.095 
*END

*D_NET *1047 0.00172827
*CONN
*I *5206:A I *D sky130_fd_sc_hd__clkdlybuf4s25_1
*I *5100:X O *D sky130_fd_sc_hd__buf_2
*CAP
1 *5206:A 0.000416267
2 *5100:X 0.000416267
3 *5206:A *5220:A 3.64998e-06
4 gpio_oeb[16] *5206:A 0.000380166
5 gpio_oeb[1] *5206:A 1.76907e-05
6 *1383:DIODE *5206:A 0.000162332
7 *5100:A *5206:A 5.83121e-06
8 *981:50 *5206:A 4.29198e-05
9 *1019:38 *5206:A 0.000126725
10 *1040:10 *5206:A 0.000156426
*RES
1 *5100:X *5206:A 17.295 
*END

*D_NET *1048 0.00106195
*CONN
*I *5207:A I *D sky130_fd_sc_hd__clkdlybuf4s25_1
*I *5101:X O *D sky130_fd_sc_hd__buf_2
*CAP
1 *5207:A 0.000314255
2 *5101:X 0.000314255
3 *5207:A *5215:A 0.000241483
4 *5207:A *5223:A 5.63318e-05
5 *5207:A *5230:A 0
6 *1017:21 *5207:A 2.97004e-06
7 *1017:23 *5207:A 8.56227e-05
8 *1017:29 *5207:A 4.70343e-05
*RES
1 *5101:X *5207:A 13.05 
*END

*D_NET *1049 0.000764945
*CONN
*I *5208:A I *D sky130_fd_sc_hd__clkdlybuf4s25_1
*I *5102:X O *D sky130_fd_sc_hd__buf_2
*CAP
1 *5208:A 0.000194042
2 *5102:X 0.000194042
3 *5102:A *5208:A 8.8266e-05
4 *5203:A *5208:A 2.30292e-05
5 *1016:16 *5208:A 0.000228937
6 *1016:18 *5208:A 3.66286e-05
*RES
1 *5102:X *5208:A 7.475 
*END

*D_NET *1050 0.000443034
*CONN
*I *5209:A I *D sky130_fd_sc_hd__clkdlybuf4s25_1
*I *5103:X O *D sky130_fd_sc_hd__buf_2
*CAP
1 *5209:A 0.000137004
2 *5103:X 0.000137004
3 *5209:A *5212:A 0
4 *5209:A *1073:12 8.8266e-05
5 *1018:14 *5209:A 4.43871e-06
6 *1018:20 *5209:A 7.63204e-05
*RES
1 *5103:X *5209:A 9.63 
*END

*D_NET *1051 0.00251097
*CONN
*I *4320:B I *D sky130_fd_sc_hd__and3b_2
*I *4321:C_N I *D sky130_fd_sc_hd__or3b_2
*I *5182:X O *D sky130_fd_sc_hd__clkdlybuf4s25_1
*CAP
1 *4320:B 2.08101e-05
2 *4321:C_N 6.88525e-05
3 *5182:X 0.000570682
4 *1051:6 0.000660344
5 *4321:C_N *4321:B 5.83121e-06
6 *1381:DIODE *1051:6 2.86975e-05
7 *4321:A *4321:C_N 0.000163204
8 *4321:A *1051:6 0.000111285
9 *5147:A *1051:6 0.000121437
10 *244:20 *4321:C_N 3.00381e-05
11 *1017:17 *1051:6 6.90876e-05
12 *1019:12 *1051:6 0.00015896
13 *1019:21 *1051:6 0.000192125
14 *1019:38 *1051:6 0.000309618
*RES
1 *5182:X *1051:6 12.055 
2 *1051:6 *4321:C_N 3.445 
3 *1051:6 *4320:B 1.96 
*END

*D_NET *1052 0.000984458
*CONN
*I *5210:A I *D sky130_fd_sc_hd__clkdlybuf4s25_1
*I *5104:X O *D sky130_fd_sc_hd__buf_2
*CAP
1 *5210:A 0.00035045
2 *5104:X 0.00035045
3 *5210:A *5224:A 7.03608e-05
4 gpio_oeb[24] *5210:A 9.74276e-05
5 *5089:A *5210:A 0.00011577
6 *1016:10 *5210:A 0
*RES
1 *5104:X *5210:A 13.875 
*END

*D_NET *1053 0.000234044
*CONN
*I *5211:A I *D sky130_fd_sc_hd__clkdlybuf4s25_1
*I *5105:X O *D sky130_fd_sc_hd__buf_2
*CAP
1 *5211:A 5.77622e-05
2 *5105:X 5.77622e-05
3 *5105:A *5211:A 0.00011852
4 *1019:38 *5211:A 0
*RES
1 *5105:X *5211:A 8.58 
*END

*D_NET *1054 0.00130561
*CONN
*I *5212:A I *D sky130_fd_sc_hd__clkdlybuf4s25_1
*I *5106:X O *D sky130_fd_sc_hd__buf_2
*CAP
1 *5212:A 0.000360006
2 *5106:X 0.000360006
3 *5212:A *4331:A_N 4.92096e-05
4 *5212:A *5252:A 0.00023468
5 *5212:A *1062:8 4.7043e-05
6 *5043:B *5212:A 0.000183043
7 *5209:A *5212:A 0
8 *981:50 *5212:A 0
9 *1019:38 *5212:A 7.16263e-05
10 *1040:10 *5212:A 0
*RES
1 *5106:X *5212:A 14.07 
*END

*D_NET *1055 0.000732489
*CONN
*I *5213:A I *D sky130_fd_sc_hd__clkdlybuf4s25_1
*I *5088:X O *D sky130_fd_sc_hd__buf_2
*CAP
1 *5213:A 0.000239667
2 *5088:X 0.000239667
3 *5213:A *5220:A 3.99879e-05
4 *5105:A *5213:A 0.0001249
5 *5113:A *5213:A 8.8266e-05
*RES
1 *5088:X *5213:A 7.475 
*END

*D_NET *1056 0.00110059
*CONN
*I *5214:A I *D sky130_fd_sc_hd__clkdlybuf4s25_1
*I *5107:X O *D sky130_fd_sc_hd__buf_2
*CAP
1 *5214:A 0.000439359
2 *5107:X 0.000439359
3 *5214:A *5216:A 8.8266e-05
4 gpio_oeb[22] *5214:A 4.82863e-05
5 gpio_oeb[29] *5214:A 1.97962e-05
6 gpio_oeb[4] *5214:A 0
7 *1019:38 *5214:A 6.5525e-05
*RES
1 *5107:X *5214:A 13.275 
*END

*D_NET *1057 0.000866384
*CONN
*I *5215:A I *D sky130_fd_sc_hd__clkdlybuf4s25_1
*I *5108:X O *D sky130_fd_sc_hd__buf_2
*CAP
1 *5215:A 0.00014397
2 *5108:X 0.00014397
3 *5101:A *5215:A 0.000164874
4 *5108:A *5215:A 6.90876e-05
5 *5207:A *5215:A 0.000241483
6 *1016:6 *5215:A 1.47347e-05
7 *1017:29 *5215:A 8.8266e-05
*RES
1 *5108:X *5215:A 7.475 
*END

*D_NET *1058 0.000473036
*CONN
*I *5216:A I *D sky130_fd_sc_hd__clkdlybuf4s25_1
*I *5109:X O *D sky130_fd_sc_hd__buf_2
*CAP
1 *5216:A 0.000148252
2 *5109:X 0.000148252
3 *5107:A *5216:A 8.8266e-05
4 *5214:A *5216:A 8.8266e-05
*RES
1 *5109:X *5216:A 6.095 
*END

*D_NET *1059 0.00121424
*CONN
*I *5217:A I *D sky130_fd_sc_hd__clkdlybuf4s25_1
*I *5110:X O *D sky130_fd_sc_hd__buf_2
*CAP
1 *5217:A 0.000423583
2 *5110:X 0.000423583
3 *5217:A *5221:A 8.8266e-05
4 gpio_oeb[27] *5217:A 0.000162409
5 gpio_oeb[31] *5217:A 1.92979e-05
6 *1019:46 *5217:A 9.70988e-05
*RES
1 *5110:X *5217:A 13.17 
*END

*D_NET *1060 0.000209478
*CONN
*I *5218:A I *D sky130_fd_sc_hd__clkdlybuf4s25_1
*I *5111:X O *D sky130_fd_sc_hd__buf_2
*CAP
1 *5218:A 7.36913e-05
2 *5111:X 7.36913e-05
3 *1016:10 *5218:A 1.26626e-05
4 *1016:14 *5218:A 4.94326e-05
*RES
1 *5111:X *5218:A 8.58 
*END

*D_NET *1061 0.000948043
*CONN
*I *5219:A I *D sky130_fd_sc_hd__clkdlybuf4s25_1
*I *5112:X O *D sky130_fd_sc_hd__buf_2
*CAP
1 *5219:A 0.000377594
2 *5112:X 0.000377594
3 *5219:A *5235:A 7.70938e-05
4 gpio_oeb[25] *5219:A 0
5 *1014:41 *5219:A 0.000115762
*RES
1 *5112:X *5219:A 12.495 
*END

*D_NET *1062 0.00127821
*CONN
*I *4332:B I *D sky130_fd_sc_hd__or3b_2
*I *4331:A_N I *D sky130_fd_sc_hd__and3b_2
*I *5183:X O *D sky130_fd_sc_hd__clkdlybuf4s25_1
*CAP
1 *4332:B 0.000202774
2 *4331:A_N 7.54501e-05
3 *5183:X 0.00010221
4 *1062:8 0.000380434
5 *5043:A *4331:A_N 4.99619e-05
6 *5043:B *1062:8 0
7 *5152:A *4331:A_N 6.10014e-05
8 *5152:A *1062:8 3.68784e-05
9 *5212:A *4331:A_N 4.92096e-05
10 *5212:A *1062:8 4.7043e-05
11 *981:44 *1062:8 0
12 *1018:10 *4332:B 0.000217747
13 *1019:38 *4331:A_N 4.82919e-05
14 *1040:10 *4331:A_N 7.21296e-06
*RES
1 *5183:X *1062:8 5.745 
2 *1062:8 *4331:A_N 5.685 
3 *1062:8 *4332:B 6.12 
*END

*D_NET *1063 0.00121369
*CONN
*I *5220:A I *D sky130_fd_sc_hd__clkdlybuf4s25_1
*I *5113:X O *D sky130_fd_sc_hd__buf_2
*CAP
1 *5220:A 0.000450038
2 *5113:X 0.000450038
3 gpio_oeb[22] *5220:A 8.69583e-05
4 gpio_oeb[26] *5220:A 0
5 *1383:DIODE *5220:A 7.23533e-05
6 *5105:A *5220:A 5.34747e-05
7 *5206:A *5220:A 3.64998e-06
8 *5213:A *5220:A 3.99879e-05
9 *1019:38 *5220:A 5.71917e-05
*RES
1 *5113:X *5220:A 13.875 
*END

*D_NET *1064 0.0004871
*CONN
*I *5221:A I *D sky130_fd_sc_hd__clkdlybuf4s25_1
*I *5114:X O *D sky130_fd_sc_hd__buf_2
*CAP
1 *5221:A 0.000128756
2 *5114:X 0.000128756
3 *5217:A *5221:A 8.8266e-05
4 *1019:46 *5221:A 0.000141323
*RES
1 *5114:X *5221:A 6.095 
*END

*D_NET *1065 0.000177703
*CONN
*I *5222:A I *D sky130_fd_sc_hd__clkdlybuf4s25_1
*I *5115:X O *D sky130_fd_sc_hd__buf_2
*CAP
1 *5222:A 8.60851e-05
2 *5115:X 8.60851e-05
3 *5228:A *5222:A 5.53249e-06
4 *1014:23 *5222:A 0
5 *1014:25 *5222:A 0
*RES
1 *5115:X *5222:A 8.58 
*END

*D_NET *1066 0.000490405
*CONN
*I *5223:A I *D sky130_fd_sc_hd__clkdlybuf4s25_1
*I *5116:X O *D sky130_fd_sc_hd__buf_2
*CAP
1 *5223:A 0.000179681
2 *5116:X 0.000179681
3 *5223:A *5230:A 7.47116e-05
4 *5207:A *5223:A 5.63318e-05
5 *1019:38 *5223:A 0
*RES
1 *5116:X *5223:A 10.665 
*END

*D_NET *1067 0.00127724
*CONN
*I *5224:A I *D sky130_fd_sc_hd__clkdlybuf4s25_1
*I *5089:X O *D sky130_fd_sc_hd__buf_2
*CAP
1 *5224:A 0.000427033
2 *5089:X 0.000427033
3 gpio_oeb[24] *5224:A 0.000162409
4 *5089:A *5224:A 0.000160635
5 *5203:A *5224:A 2.97746e-05
6 *5210:A *5224:A 7.03608e-05
7 *1019:46 *5224:A 0
*RES
1 *5089:X *5224:A 13.17 
*END

*D_NET *1068 0.0011414
*CONN
*I *5225:A I *D sky130_fd_sc_hd__clkdlybuf4s25_1
*I *5117:X O *D sky130_fd_sc_hd__buf_2
*CAP
1 *5225:A 0.000494078
2 *5117:X 0.000494078
3 *5225:A *5233:A 1.33293e-05
4 *5225:A *5234:A 4.95182e-05
5 *5225:A *5235:A 4.55864e-06
6 gpio_oeb[30] *5225:A 0
7 *5115:A *5225:A 8.5841e-05
*RES
1 *5117:X *5225:A 13.875 
*END

*D_NET *1069 0.000709291
*CONN
*I *5226:A I *D sky130_fd_sc_hd__clkdlybuf4s25_1
*I *5118:X O *D sky130_fd_sc_hd__buf_2
*CAP
1 *5226:A 0.000230195
2 *5118:X 0.000230195
3 *5226:A *5232:A 0.000198939
4 gpio_oeb[6] *5226:A 4.99619e-05
*RES
1 *5118:X *5226:A 7.475 
*END

*D_NET *1070 0.000450162
*CONN
*I *5227:A I *D sky130_fd_sc_hd__clkdlybuf4s25_1
*I *5119:X O *D sky130_fd_sc_hd__buf_2
*CAP
1 *5227:A 0.00018223
2 *5119:X 0.00018223
3 *5116:A *5227:A 8.57024e-05
*RES
1 *5119:X *5227:A 6.095 
*END

*D_NET *1071 0.000957588
*CONN
*I *5153:A I *D sky130_fd_sc_hd__clkdlybuf4s25_1
*I *4295:Y O *D sky130_fd_sc_hd__inv_2
*CAP
1 *5153:A 0.000334145
2 *4295:Y 0.000334145
3 *5153:A *4321:B 0
4 *5153:A *1073:12 3.39151e-05
5 *4320:C *5153:A 0.000255382
6 *5043:C *5153:A 0
7 *244:20 *5153:A 0
8 *1019:12 *5153:A 0
*RES
1 *4295:Y *5153:A 12.36 
*END

*D_NET *1072 0.00120681
*CONN
*I *5229:A I *D sky130_fd_sc_hd__clkdlybuf4s25_1
*I *5090:X O *D sky130_fd_sc_hd__buf_2
*CAP
1 *5229:A 0.000436399
2 *5090:X 0.000436399
3 *5229:A *5231:A 8.65905e-05
4 gpio_oeb[12] *5229:A 1.97962e-05
5 gpio_oeb[5] *5229:A 0.000124895
6 *5149:A *5229:A 7.4542e-05
7 *5228:A *5229:A 0
8 *1016:55 *5229:A 2.8185e-05
9 *1016:59 *5229:A 0
*RES
1 *5090:X *5229:A 13.275 
*END

*D_NET *1073 0.00317805
*CONN
*I *4320:A_N I *D sky130_fd_sc_hd__and3b_2
*I *4321:B I *D sky130_fd_sc_hd__or3b_2
*I *5184:X O *D sky130_fd_sc_hd__clkdlybuf4s25_1
*CAP
1 *4320:A_N 0
2 *4321:B 0.000423343
3 *5184:X 0.000809595
4 *1073:12 0.00123294
5 gpio_oeb[18] *1073:12 4.29016e-05
6 *1132:DIODE *4321:B 5.53249e-06
7 *1380:DIODE *1073:12 4.77757e-05
8 *1383:DIODE *1073:12 2.68526e-05
9 *4320:C *4321:B 1.43717e-05
10 *4320:C *1073:12 0
11 *4321:A *4321:B 0.000229861
12 *4321:C_N *4321:B 5.83121e-06
13 *5043:C *1073:12 0
14 *5153:A *4321:B 0
15 *5153:A *1073:12 3.39151e-05
16 *5209:A *1073:12 8.8266e-05
17 *244:20 *4321:B 8.53113e-06
18 *245:23 *4321:B 6.81892e-05
19 *1017:17 *1073:12 0
20 *1018:20 *1073:12 0.000140145
*RES
1 *5184:X *1073:12 18.095 
2 *1073:12 *4321:B 11.69 
3 *1073:12 *4320:A_N 1.6 
*END

*D_NET *1074 0.00140561
*CONN
*I *5230:A I *D sky130_fd_sc_hd__clkdlybuf4s25_1
*I *5091:X O *D sky130_fd_sc_hd__buf_2
*CAP
1 *5230:A 0.000530182
2 *5091:X 0.000530182
3 gpio_oeb[14] *5230:A 0.000106973
4 gpio_oeb[32] *5230:A 0.000163567
5 *5207:A *5230:A 0
6 *5223:A *5230:A 7.47116e-05
7 *1019:38 *5230:A 0
*RES
1 *5091:X *5230:A 15.255 
*END

*D_NET *1075 0.000554092
*CONN
*I *5231:A I *D sky130_fd_sc_hd__clkdlybuf4s25_1
*I *5092:X O *D sky130_fd_sc_hd__buf_2
*CAP
1 *5231:A 0.000126061
2 *5092:X 0.000126061
3 *5092:A *5231:A 2.30292e-05
4 *5229:A *5231:A 8.65905e-05
5 *1016:44 *5231:A 4.82863e-05
6 *1016:55 *5231:A 0.000144064
*RES
1 *5092:X *5231:A 6.095 
*END

*D_NET *1076 0.000928862
*CONN
*I *5232:A I *D sky130_fd_sc_hd__clkdlybuf4s25_1
*I *5093:X O *D sky130_fd_sc_hd__buf_2
*CAP
1 *5232:A 0.000328133
2 *5093:X 0.000328133
3 *5226:A *5232:A 0.000198939
4 *1014:21 *5232:A 0
5 *1016:44 *5232:A 0
6 *1016:59 *5232:A 7.36562e-05
*RES
1 *5093:X *5232:A 12.705 
*END

*D_NET *1077 0.000840284
*CONN
*I *5233:A I *D sky130_fd_sc_hd__clkdlybuf4s25_1
*I *5094:X O *D sky130_fd_sc_hd__buf_2
*CAP
1 *5233:A 0.000225295
2 *5094:X 0.000225295
3 *5094:A *5233:A 8.8266e-05
4 *5115:A *5233:A 0.000239813
5 *5225:A *5233:A 1.33293e-05
6 *1014:77 *5233:A 4.82863e-05
*RES
1 *5094:X *5233:A 7.475 
*END

*D_NET *1078 0.00105151
*CONN
*I *5234:A I *D sky130_fd_sc_hd__clkdlybuf4s25_1
*I *5095:X O *D sky130_fd_sc_hd__buf_2
*CAP
1 *5234:A 0.000500993
2 *5095:X 0.000500993
3 *5234:A *5235:A 0
4 *5225:A *5234:A 4.95182e-05
*RES
1 *5095:X *5234:A 13.17 
*END

*D_NET *1079 0.00135011
*CONN
*I *5235:A I *D sky130_fd_sc_hd__clkdlybuf4s25_1
*I *5096:X O *D sky130_fd_sc_hd__buf_2
*CAP
1 *5235:A 0.000406996
2 *5096:X 0.000406996
3 *5096:A *5235:A 0.00025995
4 *5202:A *5235:A 1.07797e-05
5 *5219:A *5235:A 7.70938e-05
6 *5225:A *5235:A 4.55864e-06
7 *5234:A *5235:A 0
8 *1014:41 *5235:A 0.000183738
*RES
1 *5096:X *5235:A 14.835 
*END

*D_NET *1080 0.00273866
*CONN
*I *5236:A I *D sky130_fd_sc_hd__clkdlybuf4s25_1
*I *4991:Y O *D sky130_fd_sc_hd__nor2_2
*CAP
1 *5236:A 0.000737206
2 *4991:Y 0.000737206
3 *4990:A *5236:A 0.000120647
4 *4990:B *5236:A 0
5 *4991:A *5236:A 0
6 *4991:B *5236:A 5.30673e-05
7 *4999:B1 *5236:A 0.000230429
8 *5007:A_N *5236:A 0.000270415
9 *5029:C *5236:A 7.35813e-05
10 *5049:A_N *5236:A 0.000224532
11 *5135:A *5236:A 0
12 *244:20 *5236:A 9.14049e-05
13 *899:12 *5236:A 7.34364e-05
14 *899:18 *5236:A 5.03222e-05
15 *903:22 *5236:A 6.78785e-05
16 *995:10 *5236:A 8.53113e-06
*RES
1 *4991:Y *5236:A 25.525 
*END

*D_NET *1081 0.00107516
*CONN
*I *5237:A I *D sky130_fd_sc_hd__clkdlybuf4s25_1
*I *5023:X O *D sky130_fd_sc_hd__and3_2
*CAP
1 *5237:A 0.000248441
2 *5023:X 0.000248441
3 *5237:A *5248:A 2.23407e-05
4 gpio_out[0] *5237:A 1.88656e-05
5 gpio_out[16] *5237:A 0.000105806
6 *5029:C *5237:A 2.03343e-05
7 *5029:D *5237:A 0
8 *5037:A *5237:A 0.000195865
9 *995:104 *5237:A 4.75576e-05
10 *995:119 *5237:A 0.000167513
*RES
1 *5023:X *5237:A 12.45 
*END

*D_NET *1082 0.00103796
*CONN
*I *5238:A I *D sky130_fd_sc_hd__clkdlybuf4s25_1
*I *5025:Y O *D sky130_fd_sc_hd__nor2_2
*CAP
1 *5238:A 0.000358693
2 *5025:Y 0.000358693
3 *5014:C *5238:A 2.30292e-05
4 *884:53 *5238:A 0.00023468
5 *997:58 *5238:A 6.28687e-05
*RES
1 *5025:Y *5238:A 12.135 
*END

*D_NET *1083 0.00147857
*CONN
*I *5239:A I *D sky130_fd_sc_hd__clkdlybuf4s25_1
*I *5026:X O *D sky130_fd_sc_hd__and3_2
*CAP
1 *5239:A 0.000336789
2 *5026:X 0.000336789
3 *5239:A *5245:A 0
4 *5016:C *5239:A 0.000347029
5 *895:12 *5239:A 7.23602e-05
6 *904:60 *5239:A 0.00027529
7 *997:43 *5239:A 0.000110315
*RES
1 *5026:X *5239:A 13.83 
*END

*D_NET *1084 0.0289045
*CONN
*I *5156:A I *D sky130_fd_sc_hd__clkdlybuf4s25_1
*I *5081:RESET_B I *D sky130_fd_sc_hd__dfrtp_2
*I *1355:DIODE I *D sky130_fd_sc_hd__diode_2
*I *5155:A I *D sky130_fd_sc_hd__clkdlybuf4s25_1
*I *1335:DIODE I *D sky130_fd_sc_hd__diode_2
*I *5158:A I *D sky130_fd_sc_hd__clkdlybuf4s25_1
*I *1385:DIODE I *D sky130_fd_sc_hd__diode_2
*I *1354:DIODE I *D sky130_fd_sc_hd__diode_2
*I *1357:DIODE I *D sky130_fd_sc_hd__diode_2
*I *5185:X O *D sky130_fd_sc_hd__clkdlybuf4s25_1
*CAP
1 *5156:A 7.6748e-06
2 *5081:RESET_B 0.000103243
3 *1355:DIODE 0.000139073
4 *5155:A 0
5 *1335:DIODE 0.00531177
6 *5158:A 0.000166552
7 *1385:DIODE 4.20117e-05
8 *1354:DIODE 0.00077572
9 *1357:DIODE 0.0062745
10 *5185:X 0
11 *1084:104 0.000190243
12 *1084:18 0.0026028
13 *1084:10 0.00326138
14 *1084:4 0.000883129
15 *1355:DIODE *1122:254 0.000203402
16 *5156:A *1126:88 2.3192e-05
17 *1084:104 *1122:254 0.000188169
18 *1134:DIODE *1335:DIODE 0.000114492
19 *1217:DIODE *1084:18 3.59997e-05
20 *1309:DIODE *1084:18 0
21 *1326:DIODE *1357:DIODE 4.05358e-05
22 *4325:B1 *1335:DIODE 0.000166943
23 *4326:C *1335:DIODE 9.3062e-06
24 *4761:A *1084:18 0
25 *4764:A2 *1084:18 0
26 *4771:B1 *1084:18 7.7615e-05
27 *4772:B1 *1084:18 0.000136884
28 *4781:A *1084:10 3.09164e-05
29 *4783:A *1354:DIODE 0.000164874
30 *4787:A1 *1084:18 6.35622e-05
31 *4877:B *5158:A 3.74161e-05
32 *4944:A2 *1335:DIODE 0.00011379
33 *4946:A2 *1335:DIODE 0
34 *4946:A3 *1335:DIODE 2.7881e-05
35 *4948:B *1335:DIODE 3.39151e-05
36 *4948:C *1335:DIODE 2.39187e-05
37 *4949:A *1335:DIODE 0
38 *4964:A2 *1357:DIODE 0
39 *4971:A3 *5158:A 5.4155e-06
40 *4973:D_N *1335:DIODE 0
41 *5057:D *1357:DIODE 0.000109355
42 *5060:RESET_B *1354:DIODE 5.21046e-05
43 *5069:CLK *1335:DIODE 0
44 *5070:CLK *1357:DIODE 0.000365641
45 *5080:RESET_B *5081:RESET_B 0.000349282
46 *5081:CLK *1335:DIODE 2.11084e-05
47 *5081:CLK *5081:RESET_B 4.99619e-05
48 *5081:D *1335:DIODE 0.000130714
49 *5148:A *1335:DIODE 0
50 *5192:A *1335:DIODE 6.62343e-05
51 *241:45 *1335:DIODE 0
52 *241:58 *1335:DIODE 0
53 *248:10 *1335:DIODE 0.000269053
54 *248:12 *1335:DIODE 1.34361e-05
55 *429:36 *1335:DIODE 2.75229e-05
56 *429:36 *5158:A 4.85494e-05
57 *601:16 *1335:DIODE 0.000535153
58 *698:31 *1355:DIODE 0.000277223
59 *698:31 *1084:104 0.000312964
60 *698:37 *1355:DIODE 6.10014e-05
61 *780:12 *5158:A 1.08758e-05
62 *781:10 *5158:A 0.000148801
63 *844:12 *1335:DIODE 1.93834e-05
64 *844:12 *1357:DIODE 0.00151445
65 *906:10 *1355:DIODE 2.97004e-06
66 *906:23 *1355:DIODE 5.12946e-05
67 *917:19 *1335:DIODE 7.9642e-06
68 *917:32 *1335:DIODE 9.98943e-06
69 *929:44 *1084:18 0
70 *931:10 *1354:DIODE 0
71 *942:12 *1357:DIODE 0
72 *964:133 *1357:DIODE 0.000312092
73 *964:133 *1084:18 3.84636e-05
74 *964:135 *1084:18 6.47594e-05
75 *964:139 *1084:18 0.000429744
76 *964:143 *1084:18 7.17569e-05
77 *964:186 *1357:DIODE 0.000680052
78 *971:8 *1335:DIODE 0
79 *971:29 *1335:DIODE 0
80 *974:8 *1335:DIODE 0.000116158
81 *983:77 *5156:A 4.99619e-05
82 *984:53 *1335:DIODE 0.000108523
83 *984:74 *1335:DIODE 0.0007374
84 *987:182 *1084:18 0
85 *987:227 *1355:DIODE 4.35348e-05
86 *990:189 *1357:DIODE 0
87 *992:153 *1084:18 0.000150206
88 *992:173 *1084:18 6.44229e-05
89 *994:27 *1335:DIODE 0
90 *999:25 *1335:DIODE 0
91 *1000:29 *1335:DIODE 0
92 *1000:31 *1335:DIODE 0
93 *1000:51 *1335:DIODE 0
94 *1000:144 *1335:DIODE 0
95 *1005:39 *1084:18 0
96 *1023:174 *1357:DIODE 0
97 *1023:174 *1084:18 0
98 *1025:10 *1335:DIODE 0.000326036
*RES
1 *5185:X *1084:4 1.6 
2 *1084:4 *1084:10 18.13 
3 *1084:10 *1084:18 34.3625 
4 *1084:18 *1357:DIODE 28.9125 
5 *1084:10 *1354:DIODE 16.49 
6 *1084:4 *1385:DIODE 2.05 
7 *1357:DIODE *5158:A 6.53 
8 *1357:DIODE *1335:DIODE 46.5338 
9 *1354:DIODE *1084:104 4.465 
10 *1084:104 *5155:A 1.6 
11 *1084:104 *1355:DIODE 10.445 
12 *1335:DIODE *5081:RESET_B 4.7575 
13 *1355:DIODE *5156:A 3.65 
*END

*D_NET *1085 0.000810211
*CONN
*I *5240:A I *D sky130_fd_sc_hd__clkdlybuf4s25_1
*I *5027:X O *D sky130_fd_sc_hd__and4_2
*CAP
1 *5240:A 0.000148494
2 *5027:X 0.000148494
3 *5037:B *5240:A 0.000297747
4 *248:46 *5240:A 1.91597e-05
5 *891:14 *5240:A 4.82863e-05
6 *998:75 *5240:A 0.00014803
*RES
1 *5027:X *5240:A 11.415 
*END

*D_NET *1086 0.00105414
*CONN
*I *5241:A I *D sky130_fd_sc_hd__clkdlybuf4s25_1
*I *5029:X O *D sky130_fd_sc_hd__and4_2
*CAP
1 *5241:A 0.000354596
2 *5029:X 0.000354596
3 *5241:A *5248:A 0.000344951
*RES
1 *5029:X *5241:A 13.905 
*END

*D_NET *1087 0.00356489
*CONN
*I *5242:A I *D sky130_fd_sc_hd__clkdlybuf4s25_1
*I *5030:X O *D sky130_fd_sc_hd__and4b_2
*CAP
1 *5242:A 0.00109074
2 *5030:X 0.00109074
3 *5242:A *5249:A 0.000198127
4 *5242:A *5269:A 0.000275542
5 gpio_out[27] *5242:A 0.000214836
6 gpio_out[9] *5242:A 4.89295e-05
7 *4997:B *5242:A 0
8 *5021:A_N *5242:A 5.14161e-05
9 *5022:A *5242:A 0
10 *5024:B *5242:A 0.000286088
11 *5036:A *5242:A 0
12 *5038:A *5242:A 7.22588e-05
13 *5038:B *5242:A 4.66108e-05
14 *5044:A *5242:A 0
15 *968:10 *5242:A 9.14049e-05
16 *999:114 *5242:A 0
17 *1002:22 *5242:A 2.75229e-05
18 *1002:57 *5242:A 7.06865e-05
*RES
1 *5030:X *5242:A 28.695 
*END

*D_NET *1088 0.00114834
*CONN
*I *5243:A I *D sky130_fd_sc_hd__clkdlybuf4s25_1
*I *5031:X O *D sky130_fd_sc_hd__o211a_2
*CAP
1 *5243:A 0.000184866
2 *5031:X 0.000184866
3 *5243:A *5260:A 0.000128537
4 *4312:A *5243:A 9.60974e-05
5 *4999:B1 *5243:A 0.000137571
6 *5037:A *5243:A 0.00015896
7 *236:12 *5243:A 0.000206123
8 *891:22 *5243:A 0
9 *893:12 *5243:A 5.13155e-05
*RES
1 *5031:X *5243:A 13.05 
*END

*D_NET *1089 0.00129903
*CONN
*I *5244:A I *D sky130_fd_sc_hd__clkdlybuf4s25_1
*I *5034:Y O *D sky130_fd_sc_hd__nor2_2
*CAP
1 *5244:A 0.000389952
2 *5034:Y 0.000389952
3 *5011:B *5244:A 7.8936e-05
4 *5030:D *5244:A 0
5 *5141:A *5244:A 0
6 *891:104 *5244:A 0
7 *892:27 *5244:A 0
8 *998:19 *5244:A 0.000200156
9 *998:60 *5244:A 6.74794e-05
10 *998:75 *5244:A 0.000121807
11 *1001:6 *5244:A 5.0751e-05
12 *1001:10 *5244:A 0
*RES
1 *5034:Y *5244:A 15.405 
*END

*D_NET *1090 0.00291681
*CONN
*I *5245:A I *D sky130_fd_sc_hd__clkdlybuf4s25_1
*I *5035:X O *D sky130_fd_sc_hd__and3_2
*CAP
1 *5245:A 0.000535967
2 *5035:X 0.000535967
3 *5245:A *5264:A 0.000101345
4 *5011:A_N *5245:A 1.26548e-05
5 *5011:B *5245:A 3.5644e-05
6 *5035:B *5245:A 2.66935e-05
7 *5037:A *5245:A 0.00015829
8 *5040:A *5245:A 4.82863e-05
9 *5040:B *5245:A 4.82863e-05
10 *5045:B *5245:A 0.000312083
11 *5239:A *5245:A 0
12 *238:23 *5245:A 3.18137e-05
13 *884:14 *5245:A 0
14 *891:14 *5245:A 4.99619e-05
15 *896:10 *5245:A 0.000505654
16 *898:10 *5245:A 0.000185398
17 *904:60 *5245:A 0
18 *997:43 *5245:A 0.000119232
19 *998:23 *5245:A 9.82082e-05
20 *998:36 *5245:A 0.000111324
*RES
1 *5035:X *5245:A 22.53 
*END

*D_NET *1091 0.000297546
*CONN
*I *5246:A I *D sky130_fd_sc_hd__clkdlybuf4s25_1
*I *5036:Y O *D sky130_fd_sc_hd__nor2_2
*CAP
1 *5246:A 0.000122341
2 *5036:Y 0.000122341
3 *5036:A *5246:A 5.83121e-06
4 *5036:B *5246:A 4.70326e-05
*RES
1 *5036:Y *5246:A 9.03 
*END

*D_NET *1092 0.00177474
*CONN
*I *5247:A I *D sky130_fd_sc_hd__clkdlybuf4s25_1
*I *5002:X O *D sky130_fd_sc_hd__and4bb_2
*CAP
1 *5247:A 0.000303192
2 *5002:X 0.000303192
3 *4998:A *5247:A 8.49205e-05
4 *5002:B_N *5247:A 9.14035e-05
5 *5002:C *5247:A 3.83194e-05
6 *5002:D *5247:A 0.000119762
7 *5033:A *5247:A 4.82919e-05
8 *5045:A *5247:A 0.000390079
9 *885:6 *5247:A 7.15377e-05
10 *904:6 *5247:A 0.000192125
11 *904:21 *5247:A 0.000120655
12 *1001:27 *5247:A 1.12578e-05
*RES
1 *5002:X *5247:A 11.6 
*END

*D_NET *1093 0.00374931
*CONN
*I *5248:A I *D sky130_fd_sc_hd__clkdlybuf4s25_1
*I *5037:Y O *D sky130_fd_sc_hd__nor2_2
*CAP
1 *5248:A 0.000874976
2 *5037:Y 0.000874976
3 *5248:A *5250:A 0
4 *5248:A *5258:A 0
5 *5248:A *5266:A 0
6 gpio_out[12] *5248:A 0.000123592
7 gpio_out[16] *5248:A 7.4027e-05
8 gpio_out[28] *5248:A 0.00015259
9 gpio_out[30] *5248:A 0.000106973
10 *5016:B *5248:A 0.000752161
11 *5029:B *5248:A 2.06929e-05
12 *5037:B *5248:A 0.0001005
13 *5039:B *5248:A 0.000250623
14 *5237:A *5248:A 2.23407e-05
15 *5241:A *5248:A 0.000344951
16 *904:60 *5248:A 0
17 *995:119 *5248:A 5.09129e-05
18 *998:75 *5248:A 0
*RES
1 *5037:Y *5248:A 29.28 
*END

*D_NET *1094 0.00153428
*CONN
*I *5249:A I *D sky130_fd_sc_hd__clkdlybuf4s25_1
*I *5038:Y O *D sky130_fd_sc_hd__nor2_2
*CAP
1 *5249:A 0.000575929
2 *5038:Y 0.000575929
3 *5249:A *5253:A 0
4 *5249:A *5269:A 0.000159305
5 done *5249:A 0
6 *5038:B *5249:A 2.49909e-05
7 *5242:A *5249:A 0.000198127
*RES
1 *5038:Y *5249:A 14.895 
*END

*D_NET *1095 0.0189354
*CONN
*I *1151:DIODE I *D sky130_fd_sc_hd__diode_2
*I *4420:A I *D sky130_fd_sc_hd__nor2_2
*I *4971:B2 I *D sky130_fd_sc_hd__o32a_2
*I *4306:A I *D sky130_fd_sc_hd__inv_2
*I *4431:B I *D sky130_fd_sc_hd__or2_2
*I *4427:A2 I *D sky130_fd_sc_hd__a22o_2
*I *1152:DIODE I *D sky130_fd_sc_hd__diode_2
*I *5195:A I *D sky130_fd_sc_hd__clkbuf_2
*I *1392:DIODE I *D sky130_fd_sc_hd__diode_2
*I *1296:DIODE I *D sky130_fd_sc_hd__diode_2
*I *1130:DIODE I *D sky130_fd_sc_hd__diode_2
*I *1154:DIODE I *D sky130_fd_sc_hd__diode_2
*I *1387:DIODE I *D sky130_fd_sc_hd__diode_2
*I *5186:X O *D sky130_fd_sc_hd__buf_1
*CAP
1 *1151:DIODE 0.000141634
2 *4420:A 0
3 *4971:B2 9.02993e-05
4 *4306:A 9.03838e-05
5 *4431:B 7.39647e-06
6 *4427:A2 0
7 *1152:DIODE 5.0038e-05
8 *5195:A 7.99822e-05
9 *1392:DIODE 6.92946e-05
10 *1296:DIODE 0.000936615
11 *1130:DIODE 0.000401419
12 *1154:DIODE 0.0012833
13 *1387:DIODE 0
14 *5186:X 4.53158e-05
15 *1095:166 0.000210929
16 *1095:81 0.000148528
17 *1095:75 0.000126525
18 *1095:73 0.000123
19 *1095:25 0.00230728
20 *1095:23 0.00447651
21 *1095:6 0.00284011
22 *1143:DIODE *1152:DIODE 0.000241483
23 *1143:DIODE *1095:73 6.5273e-05
24 *1143:DIODE *1095:75 1.1679e-05
25 *1143:DIODE *1095:81 3.90349e-05
26 *1386:DIODE *1095:6 5.05521e-05
27 *1386:DIODE *1095:23 3.00381e-05
28 *4361:A *1095:23 6.97202e-05
29 *4361:B *1095:23 4.82919e-05
30 *4385:B *1095:23 0.000352161
31 *4421:B *1151:DIODE 2.75229e-05
32 *4427:B1 *1095:81 5.13155e-05
33 *4427:B2 *1151:DIODE 4.66108e-05
34 *4427:B2 *1095:81 0
35 *4427:B2 *1095:166 6.77501e-05
36 *4441:A1 *1154:DIODE 0.000129056
37 *4448:B *1095:23 0.00011964
38 *4449:B *1296:DIODE 0.000154288
39 *4449:B *1095:23 2.11084e-05
40 *4452:A *1095:25 0.000298442
41 *4455:B *1095:25 0
42 *4456:A *1154:DIODE 7.44453e-05
43 *4458:A1 *1154:DIODE 5.28859e-05
44 *4460:C *4306:A 0.000139245
45 *4461:D *1154:DIODE 1.03423e-05
46 *4462:B *1095:25 0
47 *4462:C *1154:DIODE 0.000587792
48 *4462:C *1095:25 0
49 *4463:A1 *1095:23 5.63701e-05
50 *4463:A2 *1095:23 2.66586e-05
51 *4463:B1 *1095:23 0.000239813
52 *4483:B1 *1095:23 0.000146622
53 *4506:A2 *1095:23 3.72916e-05
54 *4509:A *1296:DIODE 1.4399e-05
55 *4509:B *1296:DIODE 0
56 *4509:B *1095:25 0
57 *4971:A1 *4971:B2 4.66108e-05
58 *4971:A3 *4971:B2 3.29195e-05
59 *1:6 *4306:A 7.63204e-05
60 *227:89 *1151:DIODE 1.91597e-05
61 *227:89 *5195:A 3.72916e-05
62 *227:89 *1095:166 0.000237249
63 *228:16 *1152:DIODE 2.42087e-05
64 *228:16 *4431:B 2.78409e-05
65 *228:16 *1095:73 0.000206183
66 *228:16 *1095:75 3.1638e-05
67 *228:28 *1152:DIODE 0.000153493
68 *230:12 *1154:DIODE 0
69 *230:12 *1095:25 0
70 *282:10 *1095:23 3.23663e-05
71 *306:6 *1095:23 0.000159951
72 *333:10 *1154:DIODE 2.87867e-05
73 *351:10 *1154:DIODE 0.000186635
74 *351:12 *1154:DIODE 4.13249e-05
75 *355:21 *1154:DIODE 0.000141888
76 *364:10 *1095:25 0
77 *367:25 *1296:DIODE 0
78 *367:25 *1095:25 0
79 *367:38 *1296:DIODE 0
80 *370:31 *1296:DIODE 0.000136382
81 *370:31 *4971:B2 8.20141e-05
82 *373:12 *1095:25 0
83 *374:8 *1095:25 0
84 *375:10 *1095:25 0
85 *384:14 *1095:23 3.06846e-05
86 *945:14 *1296:DIODE 0.000158066
87 *945:14 *4971:B2 0.000271526
88 *1004:57 *1154:DIODE 2.66935e-05
89 *1032:43 *4431:B 4.99619e-05
90 *1039:22 *1095:23 5.78185e-05
*RES
1 *5186:X *1095:6 2.395 
2 *1095:6 *1387:DIODE 1.6 
3 *1095:6 *1095:23 43.745 
4 *1095:23 *1095:25 14.64 
5 *1095:25 *1154:DIODE 28.195 
6 *1095:25 *1130:DIODE 6.81 
7 *1095:23 *1296:DIODE 15.57 
8 *1154:DIODE *1095:73 4.735 
9 *1095:73 *1095:75 0.3 
10 *1095:75 *1095:81 5.38 
11 *1095:81 *1392:DIODE 1.6 
12 *1095:81 *5195:A 2.755 
13 *1095:75 *1152:DIODE 4.135 
14 *1095:73 *4427:A2 1.6 
15 *1154:DIODE *4431:B 3.65 
16 *1130:DIODE *4306:A 9.285 
17 *1296:DIODE *4971:B2 6.65 
18 *1392:DIODE *1095:166 3.775 
19 *1095:166 *4420:A 1.6 
20 *1095:166 *1151:DIODE 3.79 
*END

*D_NET *1096 0.00144294
*CONN
*I *5250:A I *D sky130_fd_sc_hd__clkdlybuf4s25_1
*I *5039:X O *D sky130_fd_sc_hd__and3b_2
*CAP
1 *5250:A 0.000625151
2 *5039:X 0.000625151
3 gpio_out[13] *5250:A 0.000192635
4 gpio_out[14] *5250:A 0
5 gpio_out[22] *5250:A 0
6 gpio_out[28] *5250:A 0
7 gpio_out[29] *5250:A 0
8 gpio_out[30] *5250:A 0
9 *5248:A *5250:A 0
*RES
1 *5039:X *5250:A 17.295 
*END

*D_NET *1097 0.00165108
*CONN
*I *5251:A I *D sky130_fd_sc_hd__clkdlybuf4s25_1
*I *5040:Y O *D sky130_fd_sc_hd__nor2_2
*CAP
1 *5251:A 0.00069283
2 *5040:Y 0.00069283
3 *5251:A *5266:A 6.69608e-06
4 gpio_out[11] *5251:A 1.16854e-05
5 *5009:D_N *5251:A 8.49205e-05
6 *5021:C *5251:A 0
7 *5040:A *5251:A 0.000123225
8 *5040:B *5251:A 2.17931e-05
9 *904:60 *5251:A 1.70993e-05
10 *997:58 *5251:A 0
*RES
1 *5040:Y *5251:A 15.585 
*END

*D_NET *1098 0.0015611
*CONN
*I *5252:A I *D sky130_fd_sc_hd__clkdlybuf4s25_1
*I *5041:X O *D sky130_fd_sc_hd__and3_2
*CAP
1 *5252:A 0.000391641
2 *5041:X 0.000391641
3 *4990:D *5252:A 9.30787e-05
4 *5043:C *5252:A 4.50017e-05
5 *5106:A *5252:A 8.57024e-05
6 *5147:A *5252:A 8.53113e-06
7 *5212:A *5252:A 0.00023468
8 *253:16 *5252:A 0.000119762
9 *903:22 *5252:A 5.53249e-06
10 *1018:10 *5252:A 0.000185529
*RES
1 *5041:X *5252:A 15.345 
*END

*D_NET *1099 0.00168391
*CONN
*I *5253:A I *D sky130_fd_sc_hd__clkdlybuf4s25_1
*I *5042:Y O *D sky130_fd_sc_hd__nor2_2
*CAP
1 *5253:A 0.000436792
2 *5042:Y 0.000436792
3 *5253:A *5263:A 0
4 *5253:A *5267:A 4.40725e-05
5 done *5253:A 0
6 *5021:B *5253:A 0
7 *5042:A *5253:A 0.000717707
8 *5249:A *5253:A 0
9 *904:79 *5253:A 0
10 *904:109 *5253:A 4.85494e-05
*RES
1 *5042:Y *5253:A 17.13 
*END

*D_NET *1100 0.000826292
*CONN
*I *5254:A I *D sky130_fd_sc_hd__clkdlybuf4s25_1
*I *5043:X O *D sky130_fd_sc_hd__and3_2
*CAP
1 *5254:A 0.000294916
2 *5043:X 0.000294916
3 *1382:DIODE *5254:A 0
4 *5043:B *5254:A 0.000148194
5 *5183:A *5254:A 8.8266e-05
*RES
1 *5043:X *5254:A 12.555 
*END

*D_NET *1101 0.000545638
*CONN
*I *5255:A I *D sky130_fd_sc_hd__clkdlybuf4s25_1
*I *5044:Y O *D sky130_fd_sc_hd__nor2_2
*CAP
1 *5255:A 0.000124322
2 *5044:Y 0.000124322
3 *5255:A *5265:A 8.73389e-06
4 *5255:A *5269:A 9.50342e-06
5 *5042:A *5255:A 0
6 *5044:B *5255:A 7.58604e-05
7 *904:79 *5255:A 5.67938e-05
8 *904:94 *5255:A 0.000137571
9 *904:109 *5255:A 8.53113e-06
*RES
1 *5044:Y *5255:A 9.885 
*END

*D_NET *1102 0.000645178
*CONN
*I *5256:A I *D sky130_fd_sc_hd__clkdlybuf4s25_1
*I *5045:X O *D sky130_fd_sc_hd__and3_2
*CAP
1 *5256:A 0.00015921
2 *5045:X 0.00015921
3 *5256:A *5264:A 0.000140912
4 *5037:B *5256:A 9.54399e-05
5 *904:21 *5256:A 2.49909e-05
6 *904:60 *5256:A 6.54163e-05
*RES
1 *5045:X *5256:A 10.665 
*END

*D_NET *1103 0.000927884
*CONN
*I *5257:A I *D sky130_fd_sc_hd__clkdlybuf4s25_1
*I *5046:X O *D sky130_fd_sc_hd__and4_2
*CAP
1 *5257:A 0.000122613
2 *5046:X 0.000122613
3 *5257:A *5260:A 0.000314452
4 *5039:C *5257:A 4.82863e-05
5 *998:75 *5257:A 0.000247567
6 *998:81 *5257:A 7.23533e-05
*RES
1 *5046:X *5257:A 11.325 
*END

*D_NET *1104 0.00259918
*CONN
*I *5258:A I *D sky130_fd_sc_hd__clkdlybuf4s25_1
*I *5008:X O *D sky130_fd_sc_hd__and3_2
*CAP
1 *5258:A 0.000767139
2 *5008:X 0.000767139
3 *5258:A *5260:A 5.83121e-06
4 *5258:A *5264:A 1.19928e-05
5 gpio_out[17] *5258:A 2.86975e-05
6 gpio_out[30] *5258:A 6.3124e-06
7 *5013:B *5258:A 4.82863e-05
8 *5016:B *5258:A 0.000214505
9 *5037:A *5258:A 8.23457e-05
10 *5248:A *5258:A 0
11 *998:75 *5258:A 0.000666933
*RES
1 *5008:X *5258:A 21.375 
*END

*D_NET *1105 0.002758
*CONN
*I *5259:A I *D sky130_fd_sc_hd__clkdlybuf4s25_1
*I *5047:X O *D sky130_fd_sc_hd__and3_2
*CAP
1 *5259:A 0.000366388
2 *5047:X 0.000366388
3 *5259:A *5262:A 0.000159964
4 *5259:A *5264:A 0.000247036
5 *5005:B *5259:A 0.000118081
6 *5008:A *5259:A 6.73424e-05
7 *5008:C *5259:A 4.60518e-05
8 *5013:A *5259:A 7.58604e-05
9 *5013:B *5259:A 0.000182874
10 *5037:A *5259:A 3.66286e-05
11 *248:46 *5259:A 0.000711203
12 *891:6 *5259:A 0.000380189
*RES
1 *5047:X *5259:A 19.05 
*END

*D_NET *1106 0.00483479
*CONN
*I *5154:A I *D sky130_fd_sc_hd__clkdlybuf4s25_1
*I *4561:A I *D sky130_fd_sc_hd__xor2_2
*I *4560:A I *D sky130_fd_sc_hd__and2_2
*I *5187:X O *D sky130_fd_sc_hd__clkdlybuf4s25_1
*CAP
1 *5154:A 0.000519529
2 *4561:A 7.02954e-05
3 *4560:A 0.000103491
4 *5187:X 0
5 *1106:10 0.00106392
6 *1106:4 0.00140966
7 *1106:10 *1164:DIODE 7.26629e-05
8 *1106:10 *1117:10 3.86607e-05
9 *1106:10 *1117:14 0.000628482
10 *1106:10 *1117:75 0.00018116
11 *1185:DIODE *1106:10 0
12 *1388:DIODE *5154:A 4.99619e-05
13 *1388:DIODE *1106:10 2.0514e-05
14 *4562:B *4560:A 0.000121829
15 *4562:B *1106:10 8.53113e-06
16 *4566:A2 *1106:10 0.000176873
17 *993:20 *5154:A 9.59402e-05
18 *1020:10 *5154:A 0.000124384
19 *1041:89 *4560:A 0.000118513
20 *1041:89 *4561:A 3.03775e-05
*RES
1 *5187:X *1106:4 1.6 
2 *1106:4 *1106:10 22.19 
3 *1106:10 *4560:A 6.3 
4 *1106:10 *4561:A 4.74 
5 *1106:4 *5154:A 10.015 
*END

*D_NET *1107 0.00246581
*CONN
*I *5260:A I *D sky130_fd_sc_hd__clkdlybuf4s25_1
*I *5048:X O *D sky130_fd_sc_hd__and4bb_2
*CAP
1 *5260:A 0.00067935
2 *5048:X 0.00067935
3 gpio_out[29] *5260:A 2.86975e-05
4 gpio_out[30] *5260:A 7.20038e-05
5 *5016:B *5260:A 6.95335e-05
6 *5027:A *5260:A 0.000127373
7 *5037:A *5260:A 5.90938e-05
8 *5039:B *5260:A 1.73877e-05
9 *5048:A_N *5260:A 3.31103e-05
10 *5048:B_N *5260:A 0
11 *5243:A *5260:A 0.000128537
12 *5257:A *5260:A 0.000314452
13 *5258:A *5260:A 5.83121e-06
14 *995:119 *5260:A 0.000164686
15 *998:81 *5260:A 2.1112e-05
16 *998:83 *5260:A 6.52906e-05
*RES
1 *5048:X *5260:A 21.33 
*END

*D_NET *1108 0.00173833
*CONN
*I *5261:A I *D sky130_fd_sc_hd__clkdlybuf4s25_1
*I *5049:X O *D sky130_fd_sc_hd__and4bb_2
*CAP
1 *5261:A 0.000489683
2 *5049:X 0.000489683
3 *1377:DIODE *5261:A 2.86975e-05
4 *5020:B *5261:A 0
5 *5028:A2 *5261:A 5.83121e-06
6 *5028:B1 *5261:A 4.82919e-05
7 *5029:D *5261:A 0.000141999
8 *5049:D *5261:A 0.000200615
9 *891:54 *5261:A 3.65279e-05
10 *893:12 *5261:A 1.91597e-05
11 *995:65 *5261:A 9.80032e-06
12 *995:78 *5261:A 0.000210762
13 *995:82 *5261:A 4.82863e-05
14 *995:104 *5261:A 8.99634e-06
*RES
1 *5049:X *5261:A 15.69 
*END

*D_NET *1109 0.00339935
*CONN
*I *5262:A I *D sky130_fd_sc_hd__clkdlybuf4s25_1
*I *5050:X O *D sky130_fd_sc_hd__and3_2
*CAP
1 *5262:A 0.000962942
2 *5050:X 0.000962942
3 gpio_out[13] *5262:A 5.79443e-05
4 *4312:B *5262:A 0
5 *4999:B1 *5262:A 2.11084e-05
6 *5006:A *5262:A 6.00111e-05
7 *5006:B *5262:A 0.000160408
8 *5008:A *5262:A 2.66765e-05
9 *5013:A *5262:A 2.9463e-05
10 *5033:A *5262:A 1.52184e-05
11 *5045:A *5262:A 2.49909e-05
12 *5045:C *5262:A 6.19801e-05
13 *5046:C *5262:A 0
14 *5050:C *5262:A 6.28843e-05
15 *5259:A *5262:A 0.000159964
16 *238:15 *5262:A 2.0514e-05
17 *238:23 *5262:A 0.000193801
18 *889:10 *5262:A 0.000172198
19 *903:14 *5262:A 0.000354215
20 *903:20 *5262:A 5.2089e-05
21 *903:22 *5262:A 0
*RES
1 *5050:X *5262:A 26.535 
*END

*D_NET *1110 0.00170788
*CONN
*I *5263:A I *D sky130_fd_sc_hd__clkdlybuf4s25_1
*I *5010:Y O *D sky130_fd_sc_hd__nor2_2
*CAP
1 *5263:A 0.000632216
2 *5010:Y 0.000632216
3 *5263:A *5267:A 0.000117942
4 *5015:B *5263:A 3.64998e-06
5 *5018:A *5263:A 1.48096e-05
6 *5022:B *5263:A 0.000307043
7 *5253:A *5263:A 0
*RES
1 *5010:Y *5263:A 15.24 
*END

*D_NET *1111 0.00214787
*CONN
*I *5264:A I *D sky130_fd_sc_hd__clkdlybuf4s25_1
*I *5013:Y O *D sky130_fd_sc_hd__nor2_2
*CAP
1 *5264:A 0.000436118
2 *5013:Y 0.000436118
3 *5008:B *5264:A 2.49909e-05
4 *5013:A *5264:A 4.82919e-05
5 *5016:A_N *5264:A 0.000134434
6 *5016:C *5264:A 1.61831e-05
7 *5037:A *5264:A 7.1496e-05
8 *5037:B *5264:A 0.00013532
9 *5045:B *5264:A 0.000272313
10 *5245:A *5264:A 0.000101345
11 *5256:A *5264:A 0.000140912
12 *5258:A *5264:A 1.19928e-05
13 *5259:A *5264:A 0.000247036
14 *895:12 *5264:A 2.30292e-05
15 *904:60 *5264:A 0
16 *997:33 *5264:A 4.82919e-05
*RES
1 *5013:Y *5264:A 18.69 
*END

*D_NET *1112 0.00132086
*CONN
*I *5265:A I *D sky130_fd_sc_hd__clkdlybuf4s25_1
*I *5015:Y O *D sky130_fd_sc_hd__nor2_2
*CAP
1 *5265:A 0.000420572
2 *5015:Y 0.000420572
3 *5265:A *5267:A 3.45679e-05
4 *5022:A *5265:A 7.4027e-05
5 *5022:B *5265:A 0.00022786
6 *5044:A *5265:A 6.73839e-05
7 *5044:B *5265:A 1.37328e-05
8 *5255:A *5265:A 8.73389e-06
9 *904:79 *5265:A 5.34064e-05
*RES
1 *5015:Y *5265:A 13.995 
*END

*D_NET *1113 0.00111782
*CONN
*I *5266:A I *D sky130_fd_sc_hd__clkdlybuf4s25_1
*I *5016:X O *D sky130_fd_sc_hd__and3b_2
*CAP
1 *5266:A 0.000495081
2 *5016:X 0.000495081
3 gpio_out[11] *5266:A 0.000114852
4 gpio_out[12] *5266:A 0
5 gpio_out[4] *5266:A 6.11525e-06
6 gpio_out[6] *5266:A 0
7 *5248:A *5266:A 0
8 *5251:A *5266:A 6.69608e-06
*RES
1 *5016:X *5266:A 15.195 
*END

*D_NET *1114 0.00104354
*CONN
*I *5267:A I *D sky130_fd_sc_hd__clkdlybuf4s25_1
*I *5018:Y O *D sky130_fd_sc_hd__nor2_2
*CAP
1 *5267:A 0.000409132
2 *5018:Y 0.000409132
3 gpio_out[25] *5267:A 2.86975e-05
4 *5253:A *5267:A 4.40725e-05
5 *5263:A *5267:A 0.000117942
6 *5265:A *5267:A 3.45679e-05
*RES
1 *5018:Y *5267:A 13.275 
*END

*D_NET *1115 0.000674102
*CONN
*I *5268:A I *D sky130_fd_sc_hd__clkdlybuf4s25_1
*I *5020:X O *D sky130_fd_sc_hd__and3_2
*CAP
1 *5268:A 0.000108035
2 *5020:X 0.000108035
3 *5020:B *5268:A 0.000136884
4 *5043:B *5268:A 0
5 *981:6 *5268:A 0.00011964
6 *995:78 *5268:A 0.000201508
*RES
1 *5020:X *5268:A 10.665 
*END

*D_NET *1116 0.00204172
*CONN
*I *5269:A I *D sky130_fd_sc_hd__clkdlybuf4s25_1
*I *5022:Y O *D sky130_fd_sc_hd__nor2_2
*CAP
1 *5269:A 0.000472025
2 *5022:Y 0.000472025
3 *5022:B *5269:A 2.94604e-05
4 *5036:A *5269:A 0.000229029
5 *5038:A *5269:A 0.000114492
6 *5042:A *5269:A 0
7 *5044:A *5269:A 2.49909e-05
8 *5201:A *5269:A 0.000198789
9 *5242:A *5269:A 0.000275542
10 *5249:A *5269:A 0.000159305
11 *5255:A *5269:A 9.50342e-06
12 *904:109 *5269:A 5.65627e-05
*RES
1 *5022:Y *5269:A 21.445 
*END

*D_NET *1117 0.0198885
*CONN
*I *4384:A1 I *D sky130_fd_sc_hd__a21o_2
*I *4387:A I *D sky130_fd_sc_hd__xnor2_2
*I *1145:DIODE I *D sky130_fd_sc_hd__diode_2
*I *4512:A I *D sky130_fd_sc_hd__and2_2
*I *4562:A I *D sky130_fd_sc_hd__xnor2_2
*I *1186:DIODE I *D sky130_fd_sc_hd__diode_2
*I *1144:DIODE I *D sky130_fd_sc_hd__diode_2
*I *4518:A I *D sky130_fd_sc_hd__xor2_2
*I *1172:DIODE I *D sky130_fd_sc_hd__diode_2
*I *4516:A2 I *D sky130_fd_sc_hd__a31o_2
*I *1169:DIODE I *D sky130_fd_sc_hd__diode_2
*I *4514:B I *D sky130_fd_sc_hd__nand2_2
*I *1164:DIODE I *D sky130_fd_sc_hd__diode_2
*I *4566:A1 I *D sky130_fd_sc_hd__a21o_2
*I *1188:DIODE I *D sky130_fd_sc_hd__diode_2
*I *1390:DIODE I *D sky130_fd_sc_hd__diode_2
*I *4536:B I *D sky130_fd_sc_hd__or2_2
*I *1168:DIODE I *D sky130_fd_sc_hd__diode_2
*I *1179:DIODE I *D sky130_fd_sc_hd__diode_2
*I *4550:A I *D sky130_fd_sc_hd__xor2_2
*I *1180:DIODE I *D sky130_fd_sc_hd__diode_2
*I *5188:X O *D sky130_fd_sc_hd__buf_2
*CAP
1 *4384:A1 0
2 *4387:A 5.19169e-05
3 *1145:DIODE 6.38896e-05
4 *4512:A 9.35385e-05
5 *4562:A 0
6 *1186:DIODE 0.000138402
7 *1144:DIODE 0.00202561
8 *4518:A 0
9 *1172:DIODE 0.000183707
10 *4516:A2 0
11 *1169:DIODE 0.000262193
12 *4514:B 1.86751e-05
13 *1164:DIODE 0.000337239
14 *4566:A1 0
15 *1188:DIODE 0.000382549
16 *1390:DIODE 0
17 *4536:B 0
18 *1168:DIODE 0.000381908
19 *1179:DIODE 0
20 *4550:A 5.85242e-05
21 *1180:DIODE 0
22 *5188:X 7.57003e-05
23 *1117:221 0.000154806
24 *1117:217 0.000198808
25 *1117:171 0.00212958
26 *1117:169 0.000463086
27 *1117:124 0.000379305
28 *1117:118 0.000300819
29 *1117:116 5.0086e-05
30 *1117:107 0.00028486
31 *1117:75 0.000203885
32 *1117:71 0.000402748
33 *1117:41 0.000181387
34 *1117:34 0.00107238
35 *1117:14 0.000647759
36 *1117:10 0.0018153
37 *1117:6 0.000244966
38 *1150:DIODE *1145:DIODE 0.000116158
39 *1150:DIODE *1117:221 6.45236e-05
40 *1167:DIODE *1168:DIODE 0.000136037
41 *1171:DIODE *4514:B 4.82863e-05
42 *1171:DIODE *1117:107 0.000163199
43 *1178:DIODE *1117:34 2.11084e-05
44 *1178:DIODE *1117:41 9.80032e-06
45 *1185:DIODE *1164:DIODE 0
46 *1185:DIODE *1117:75 0
47 *1185:DIODE *1117:169 7.23533e-05
48 *1366:DIODE *1117:34 3.23663e-05
49 *1368:DIODE *1117:34 0.000109947
50 *1378:DIODE *1117:14 0
51 *4361:B *1144:DIODE 8.97486e-05
52 *4364:A *1144:DIODE 7.46855e-05
53 *4365:A *1144:DIODE 2.75145e-05
54 *4366:A *1144:DIODE 0.000235339
55 *4369:A *1144:DIODE 2.75229e-05
56 *4384:A2 *4387:A 8.8266e-05
57 *4387:B *1145:DIODE 0
58 *4465:B1 *1144:DIODE 6.55328e-05
59 *4467:B *1144:DIODE 0
60 *4469:A *1144:DIODE 0.000131401
61 *4470:B *1144:DIODE 6.5525e-05
62 *4491:A *1144:DIODE 9.28101e-05
63 *4515:A *1169:DIODE 0
64 *4515:A *1117:124 0
65 *4516:A3 *1169:DIODE 3.25831e-05
66 *4516:A3 *1117:116 7.35729e-05
67 *4516:A3 *1117:124 6.73839e-05
68 *4518:B *1117:107 0
69 *4518:B *1117:116 0.000188957
70 *4533:A2 *1117:34 0.000124915
71 *4541:B1 *1169:DIODE 0
72 *4562:B *1117:169 0
73 *4566:B1 *1117:169 9.41425e-05
74 *4575:A2 *1144:DIODE 0
75 *4575:B1 *1144:DIODE 5.72004e-05
76 *5181:A *1117:14 0
77 *205:9 *1117:10 0
78 *205:9 *1117:14 0
79 *206:13 *1117:14 0
80 *207:15 *1117:14 0
81 *207:15 *1117:34 1.08758e-05
82 *225:31 *1144:DIODE 0.000144973
83 *226:28 *1144:DIODE 0.00111467
84 *281:10 *1144:DIODE 7.89689e-05
85 *305:10 *4387:A 6.65725e-05
86 *305:10 *1117:217 0.00016063
87 *387:10 *1144:DIODE 0
88 *409:10 *1144:DIODE 0
89 *410:8 *1144:DIODE 0
90 *434:24 *1168:DIODE 0.000112631
91 *434:24 *4514:B 8.40213e-05
92 *434:24 *1117:116 1.08758e-05
93 *445:10 *1169:DIODE 9.91257e-05
94 *487:14 *1117:169 5.35969e-06
95 *982:17 *1117:34 9.0308e-05
96 *982:106 *1117:41 3.00381e-05
97 *982:178 *1168:DIODE 4.99619e-05
98 *982:178 *1117:107 4.60584e-05
99 *993:10 *1117:34 0.000145523
100 *993:28 *1168:DIODE 0
101 *993:28 *1117:34 0.00012657
102 *993:28 *1117:41 8.65905e-05
103 *1020:18 *4512:A 7.66083e-05
104 *1020:24 *4512:A 8.65961e-05
105 *1020:26 *1144:DIODE 9.4988e-05
106 *1020:26 *1117:169 0.000126399
107 *1020:26 *1117:171 0.000146157
108 *1020:30 *1144:DIODE 7.89767e-05
109 *1030:14 *1144:DIODE 4.07013e-05
110 *1039:28 *1144:DIODE 0
111 *1039:51 *1144:DIODE 0.000537243
112 *1039:51 *4387:A 0.000201508
113 *1039:51 *1117:217 3.23663e-05
114 *1041:89 *1117:171 0
115 *1041:91 *1144:DIODE 0
116 *1041:91 *1117:171 0
117 *1041:97 *1144:DIODE 0
118 *1041:114 *1144:DIODE 0.000167709
119 *1106:10 *1164:DIODE 7.26629e-05
120 *1106:10 *1117:10 3.86607e-05
121 *1106:10 *1117:14 0.000628482
122 *1106:10 *1117:75 0.00018116
*RES
1 *5188:X *1117:6 2.395 
2 *1117:6 *1117:10 4.91 
3 *1117:10 *1117:14 14.855 
4 *1117:14 *1180:DIODE 1.6 
5 *1117:14 *4550:A 2.395 
6 *1117:10 *1117:34 17.06 
7 *1117:34 *1179:DIODE 1.6 
8 *1117:34 *1117:41 0.795 
9 *1117:41 *1168:DIODE 9.155 
10 *1117:41 *4536:B 1.6 
11 *1117:6 *1390:DIODE 1.6 
12 *4550:A *1117:71 3.6 
13 *1117:71 *1117:75 5.675 
14 *1117:75 *1188:DIODE 2.395 
15 *1117:75 *4566:A1 1.6 
16 *1117:71 *1164:DIODE 7.065 
17 *1168:DIODE *1117:107 4.735 
18 *1117:107 *4514:B 2.395 
19 *1117:107 *1117:116 1.83 
20 *1117:116 *1117:118 2 
21 *1117:118 *1117:124 1.935 
22 *1117:124 *1169:DIODE 7.23 
23 *1117:124 *4516:A2 3.6 
24 *1117:118 *1172:DIODE 6.03 
25 *1117:116 *4518:A 1.6 
26 *1188:DIODE *1117:169 9.54 
27 *1117:169 *1117:171 2.91 
28 *1117:171 *1144:DIODE 44.565 
29 *1117:171 *1186:DIODE 5.085 
30 *1117:169 *4562:A 3.6 
31 *1164:DIODE *4512:A 5.03 
32 *1144:DIODE *1117:217 3.775 
33 *1117:217 *1117:221 2.87 
34 *1117:221 *1145:DIODE 4.98 
35 *1117:221 *4387:A 5.79 
36 *1117:217 *4384:A1 1.6 
*END

*D_NET *1118 0.0134011
*CONN
*I *4935:B I *D sky130_fd_sc_hd__and3_2
*I *4937:A I *D sky130_fd_sc_hd__nor3b_2
*I *4795:B I *D sky130_fd_sc_hd__and3_2
*I *4815:A1 I *D sky130_fd_sc_hd__a211o_2
*I *4807:A1 I *D sky130_fd_sc_hd__a211o_2
*I *4925:A I *D sky130_fd_sc_hd__nor2_2
*I *4929:B I *D sky130_fd_sc_hd__and3_2
*I *4923:B I *D sky130_fd_sc_hd__and3_2
*I *4931:A I *D sky130_fd_sc_hd__nor3_2
*I *4792:A1 I *D sky130_fd_sc_hd__a211o_2
*I *5159:X O *D sky130_fd_sc_hd__clkdlybuf4s25_1
*CAP
1 *4935:B 0.000226456
2 *4937:A 4.74009e-05
3 *4795:B 0.000572313
4 *4815:A1 0.000401582
5 *4807:A1 0
6 *4925:A 0.000128123
7 *4929:B 0.000173204
8 *4923:B 0
9 *4931:A 7.00675e-05
10 *4792:A1 0
11 *5159:X 0.000107447
12 *1118:97 0.000639708
13 *1118:79 0.000567321
14 *1118:62 0.000537597
15 *1118:51 0.000444307
16 *1118:42 0.000586756
17 *1118:31 0.00101492
18 *1118:27 0.000588102
19 *1118:23 0.000789327
20 *1118:10 0.000487675
21 *4795:B *1119:118 2.39642e-05
22 *4795:B *1119:141 0.000181383
23 *4795:B *1124:73 5.11148e-06
24 *4815:A1 *4813:B 7.63204e-05
25 *4815:A1 *1122:201 0.000234847
26 *4935:B *1124:100 0.000120655
27 *4937:A *1124:73 9.82856e-06
28 *1118:23 *1119:118 0.000415669
29 *1118:27 *1289:DIODE 1.71013e-05
30 *1118:27 *1119:118 0
31 *1118:27 *1124:73 6.44663e-05
32 *1118:62 *1124:124 0
33 *1118:79 *1122:183 4.68291e-05
34 *1118:79 *1122:201 9.428e-05
35 *1118:97 *1119:118 0
36 *1118:97 *1124:73 2.06083e-05
37 *1286:DIODE *4935:B 8.53113e-06
38 *1290:DIODE *4935:B 7.23533e-05
39 *4737:A1 *4795:B 0.000500239
40 *4737:B1 *4795:B 1.61831e-05
41 *4737:C1 *4795:B 0.000119631
42 *4738:B *4795:B 0
43 *4738:C *4795:B 1.07797e-05
44 *4738:C *4937:A 4.82919e-05
45 *4790:C1 *1118:10 4.82919e-05
46 *4807:A2 *4815:A1 9.50342e-06
47 *4807:A2 *1118:79 0.000141606
48 *4815:A2 *4815:A1 0.000137563
49 *4815:B1 *4815:A1 0
50 *4924:B *1118:62 0
51 *4925:B *1118:62 4.75576e-05
52 *4925:B *1118:79 1.26626e-05
53 *4926:A1 *1118:62 0
54 *4926:A2 *4925:A 4.66108e-05
55 *4926:A2 *1118:62 7.88397e-05
56 *4931:B *4931:A 8.40213e-05
57 *4931:B *1118:31 8.26175e-05
58 *4932:A2 *4929:B 0
59 *4933:A *4929:B 5.47453e-05
60 *4937:B *4937:A 1.78424e-05
61 *4937:B *1118:31 4.77277e-05
62 *4940:A1 *4935:B 2.75229e-05
63 *4940:A1 *1118:23 2.75145e-05
64 *4940:A1 *1118:27 0.000208484
65 *4940:A2 *4935:B 9.80032e-06
66 *4940:A2 *1118:23 3.23663e-05
67 *4940:B1_N *1118:23 4.05358e-05
68 *4968:B1 *4935:B 5.30673e-05
69 *4969:C1 *1118:62 0.000116158
70 *4969:C1 *1118:79 0.000148145
71 *5055:D *1118:23 4.62396e-05
72 *5055:RESET_B *1118:10 2.88679e-05
73 *5055:RESET_B *1118:23 0.000120007
74 *664:18 *4937:A 8.49205e-05
75 *664:18 *1118:31 0.000120655
76 *916:18 *1118:62 0.00011852
77 *926:47 *4935:B 2.16389e-05
78 *954:12 *1118:23 1.53032e-05
79 *965:22 *1118:62 9.9535e-05
80 *965:28 *4929:B 0.000202712
81 *965:28 *1118:62 4.92206e-05
82 *965:53 *1118:10 0.000200429
83 *965:53 *1118:23 0.000394788
84 *965:114 *1118:62 3.13537e-05
85 *965:114 *1118:79 1.65192e-05
86 *965:161 *4815:A1 0
87 *983:105 *1118:62 0
88 *987:136 *4815:A1 0
89 *987:227 *1118:10 3.90266e-05
90 *1007:12 *1118:79 0
91 *1023:83 *4931:A 2.49909e-05
92 *1023:83 *1118:42 0.000795519
93 *1023:83 *1118:51 4.82863e-05
*RES
1 *5159:X *1118:10 6.45 
2 *1118:10 *4792:A1 3.6 
3 *1118:10 *1118:23 11.33 
4 *1118:23 *1118:27 6.185 
5 *1118:27 *1118:31 6.59 
6 *1118:31 *4931:A 3.265 
7 *1118:31 *1118:42 7.695 
8 *1118:42 *4923:B 1.6 
9 *1118:42 *1118:51 2.45 
10 *1118:51 *4929:B 7.785 
11 *1118:51 *1118:62 6.48 
12 *1118:62 *4925:A 5.445 
13 *1118:62 *1118:79 4.995 
14 *1118:79 *4807:A1 3.6 
15 *1118:79 *4815:A1 11.865 
16 *1118:27 *1118:97 0.4875 
17 *1118:97 *4795:B 14.5425 
18 *1118:97 *4937:A 4.9875 
19 *1118:23 *4935:B 9.095 
*END

*D_NET *1119 0.0216829
*CONN
*I *4920:A2 I *D sky130_fd_sc_hd__a31o_2
*I *4919:A2 I *D sky130_fd_sc_hd__o21ai_2
*I *4798:A I *D sky130_fd_sc_hd__nor3_2
*I *4778:A1 I *D sky130_fd_sc_hd__a211o_2
*I *4747:A1 I *D sky130_fd_sc_hd__a211o_2
*I *4756:A1 I *D sky130_fd_sc_hd__a211o_2
*I *4763:A2 I *D sky130_fd_sc_hd__a32o_2
*I *4770:A1 I *D sky130_fd_sc_hd__a211o_2
*I *4786:A1 I *D sky130_fd_sc_hd__a211o_2
*I *5159:A I *D sky130_fd_sc_hd__clkdlybuf4s25_1
*I *5160:X O *D sky130_fd_sc_hd__clkdlybuf4s25_1
*CAP
1 *4920:A2 0
2 *4919:A2 0.000118464
3 *4798:A 0.000360185
4 *4778:A1 9.54771e-06
5 *4747:A1 0.000288285
6 *4756:A1 0.00011542
7 *4763:A2 0
8 *4770:A1 0.00025585
9 *4786:A1 0.000242054
10 *5159:A 0.000197837
11 *5160:X 0.000664674
12 *1119:141 0.00071609
13 *1119:118 0.00143785
14 *1119:74 0.000834326
15 *1119:57 0.000669329
16 *1119:44 0.000748232
17 *1119:29 0.00157627
18 *1119:25 0.00275056
19 *1119:10 0.00204294
20 *4747:A1 *1122:30 0.000212608
21 *4747:A1 *1126:20 0
22 *4786:A1 *4785:B1 0
23 *5159:A *4790:B1 5.19573e-05
24 *1119:44 *1122:83 0.000114492
25 *1119:44 *1122:87 1.52945e-05
26 *1119:57 *1122:83 0.000749676
27 *1119:74 *1122:30 0.000136884
28 *1119:74 *1122:77 3.91574e-05
29 *1119:74 *1122:83 8.7152e-06
30 *1119:74 *1126:28 0
31 *1119:118 *1289:DIODE 0
32 *1119:141 *1124:65 8.49205e-05
33 *1119:141 *1124:73 0.000263489
34 *1208:DIODE *1119:74 0
35 *1219:DIODE *5159:A 5.02126e-06
36 *1219:DIODE *1119:10 0.000133574
37 *1290:DIODE *1119:118 0
38 *1291:DIODE *1119:118 2.05641e-05
39 *4738:A *4798:A 4.66108e-05
40 *4738:A *1119:118 0
41 *4738:B *1119:118 0
42 *4738:C *4798:A 0.000163199
43 *4738:C *1119:141 0.000245212
44 *4738:D_N *4798:A 0.000302903
45 *4739:C *4798:A 0.000310389
46 *4746:A1 *4747:A1 8.89751e-05
47 *4747:B1 *4747:A1 1.73877e-05
48 *4756:A2 *4747:A1 1.22762e-05
49 *4756:A2 *4756:A1 4.82919e-05
50 *4756:A2 *1119:74 7.21296e-06
51 *4758:A2 *4747:A1 0.000176647
52 *4778:A2 *4778:A1 8.7152e-06
53 *4779:A2 *1119:25 0.000122141
54 *4785:A1 *4786:A1 1.88904e-05
55 *4785:A1 *1119:44 0.000288177
56 *4786:B1 *4786:A1 4.92096e-05
57 *4786:C1 *4786:A1 4.99619e-05
58 *4790:C1 *5159:A 0.000181699
59 *4795:B *1119:118 2.39642e-05
60 *4795:B *1119:141 0.000181383
61 *4798:B *4798:A 8.23457e-05
62 *4919:A1 *4919:A2 0.0001249
63 *4920:B1 *4919:A2 3.96653e-05
64 *4922:B1 *1119:141 5.33085e-05
65 *4940:B1_N *1119:118 2.03321e-05
66 *4969:C1 *4919:A2 0.000232999
67 *4969:C1 *1119:141 6.07575e-06
68 *4970:B *4756:A1 8.57322e-05
69 *5052:D *1119:141 0
70 *5055:RESET_B *1119:10 7.21296e-06
71 *5055:RESET_B *1119:118 0.000163985
72 *626:14 *4770:A1 0.000268734
73 *635:12 *1119:74 0.00030358
74 *657:10 *1119:10 0
75 *664:18 *4798:A 8.43423e-05
76 *664:27 *1119:74 0
77 *672:8 *1119:74 4.40643e-05
78 *908:12 *4919:A2 0
79 *928:10 *4756:A1 4.66108e-05
80 *928:10 *1119:74 0.000106648
81 *928:14 *1119:74 0.000374246
82 *930:55 *4770:A1 1.47256e-05
83 *930:61 *1119:44 0
84 *931:21 *4778:A1 1.88602e-05
85 *954:12 *1119:118 0
86 *963:13 *1119:141 0
87 *983:35 *1119:74 0.000239883
88 *983:43 *4786:A1 0
89 *983:43 *1119:44 0
90 *987:182 *1119:57 0
91 *987:188 *4786:A1 0.000162311
92 *987:203 *4786:A1 3.66286e-05
93 *990:20 *1119:141 7.21296e-06
94 *1005:31 *1119:57 0.000634257
95 *1005:31 *1119:74 4.0388e-05
96 *1005:57 *1119:25 3.90812e-05
97 *1005:57 *1119:29 0.000558446
98 *1007:50 *1119:118 4.9968e-05
99 *1023:131 *4747:A1 0.000213183
100 *1118:23 *1119:118 0.000415669
101 *1118:27 *1119:118 0
102 *1118:97 *1119:118 0
*RES
1 *5160:X *1119:10 6.5925 
2 *1119:10 *5159:A 7.2675 
3 *1119:10 *1119:25 3.04347 
4 *1119:25 *1119:29 2.57733 
5 *1119:29 *4786:A1 8.0625 
6 *1119:29 *1119:44 5.3325 
7 *1119:44 *4770:A1 7.08 
8 *1119:44 *1119:57 8.775 
9 *1119:57 *4763:A2 3.6 
10 *1119:57 *1119:74 14.98 
11 *1119:74 *4756:A1 5.79 
12 *1119:74 *4747:A1 10.785 
13 *1119:25 *4778:A1 4.3325 
14 *5160:X *1119:118 15.65 
15 *1119:118 *4798:A 9.655 
16 *1119:118 *1119:141 15.7 
17 *1119:141 *4919:A2 5.005 
18 *1119:141 *4920:A2 1.6 
*END

*D_NET *1120 0.0194451
*CONN
*I *4852:A1 I *D sky130_fd_sc_hd__a211o_2
*I *4916:A2 I *D sky130_fd_sc_hd__a31o_2
*I *4896:A I *D sky130_fd_sc_hd__nor3_2
*I *4893:B I *D sky130_fd_sc_hd__and3_2
*I *4858:A2 I *D sky130_fd_sc_hd__a32o_2
*I *4890:A1 I *D sky130_fd_sc_hd__a211o_2
*I *4882:A1 I *D sky130_fd_sc_hd__a211o_2
*I *4874:A2 I *D sky130_fd_sc_hd__a32o_2
*I *4867:A1 I *D sky130_fd_sc_hd__a211o_2
*I *4820:B1_N I *D sky130_fd_sc_hd__a21bo_2
*I *5161:X O *D sky130_fd_sc_hd__clkdlybuf4s25_1
*CAP
1 *4852:A1 7.37015e-05
2 *4916:A2 0.000185106
3 *4896:A 0.00017534
4 *4893:B 0
5 *4858:A2 0
6 *4890:A1 0.000372678
7 *4882:A1 0
8 *4874:A2 0
9 *4867:A1 0
10 *4820:B1_N 8.66136e-05
11 *5161:X 0
12 *1120:100 0.000941375
13 *1120:96 0.00113363
14 *1120:87 0.00059175
15 *1120:61 0.0005695
16 *1120:55 0.000808292
17 *1120:42 0.000498479
18 *1120:29 0.00128537
19 *1120:23 0.00288853
20 *1120:6 0.00191234
21 *4820:B1_N *1123:249 2.58137e-05
22 *4916:A2 *4889:B1 3.51596e-05
23 *4916:A2 *4915:A2 3.31282e-05
24 *4916:A2 *1123:105 1.32017e-05
25 *4916:A2 *1125:12 0.00029067
26 *4916:A2 *1125:22 8.08153e-06
27 *1120:23 *1127:66 0
28 *1120:29 *1127:30 0
29 *1120:42 *1251:DIODE 0.000180887
30 *1120:42 *1123:47 0.000110683
31 *1120:42 *1127:30 0
32 *1120:55 *1123:45 0.000323305
33 *1120:55 *1123:47 9.50342e-06
34 *1120:61 *4880:B 3.69251e-05
35 *1120:61 *1123:45 9.61344e-05
36 *1120:61 *1127:22 9.78798e-05
37 *1120:87 *4858:A3 0.000113797
38 *1120:96 *4915:A2 4.31189e-05
39 *1120:100 *1123:105 1.39431e-05
40 *1120:100 *1123:139 1.87119e-05
41 *1245:DIODE *1120:29 0
42 *1262:DIODE *4890:A1 0
43 *4653:A *1120:100 1.4389e-05
44 *4653:B *1120:100 1.4389e-05
45 *4732:A2 *1120:55 2.76356e-05
46 *4732:A2 *1120:87 0.000253118
47 *4822:A1 *4820:B1_N 0
48 *4822:A2 *4820:B1_N 2.41381e-05
49 *4850:A *4852:A1 3.79595e-05
50 *4852:A2 *4852:A1 1.36204e-05
51 *4852:C1 *4852:A1 4.66108e-05
52 *4854:A2 *1120:29 0
53 *4856:A *1120:87 0.00015896
54 *4856:B *1120:87 0.000110259
55 *4857:C1 *1120:96 0
56 *4867:A2 *1120:29 9.50342e-06
57 *4867:A2 *1120:42 0.000132089
58 *4869:A2 *1120:29 6.5525e-05
59 *4870:B *1120:42 2.9031e-05
60 *4870:B *1120:55 5.72742e-05
61 *4873:C1 *1120:42 0.000120186
62 *4873:C1 *1120:55 2.14129e-05
63 *4880:A *1120:61 3.42142e-05
64 *4882:A2 *1120:61 0.000293726
65 *4882:B1 *1120:61 0.000314445
66 *4884:A2 *4890:A1 4.99619e-05
67 *4885:A2 *4890:A1 4.70343e-05
68 *4890:A2 *4890:A1 9.50342e-06
69 *4897:A1 *4896:A 6.99988e-05
70 *4904:A1 *4896:A 9.54469e-05
71 *4910:A1 *4896:A 7.35729e-05
72 *4910:A1 *1120:100 0.000159867
73 *4914:A *4916:A2 0.000183745
74 *4915:C1 *4916:A2 0.000138544
75 *4917:A1 *4916:A2 6.48692e-05
76 *4987:A *1120:23 0
77 *5129:A *4852:A1 0
78 *1:10 *1120:23 0.000769179
79 *1:10 *1120:29 0.000329074
80 *374:27 *1120:23 0
81 *374:27 *1120:29 0
82 *574:19 *1120:100 8.65905e-05
83 *653:26 *1120:61 2.24905e-05
84 *653:52 *1120:87 0.0002014
85 *653:52 *1120:96 0.000404402
86 *656:83 *4916:A2 2.54692e-05
87 *775:23 *4890:A1 8.69126e-05
88 *910:33 *1120:23 0.000290616
89 *910:81 *4820:B1_N 5.64768e-05
90 *919:23 *4890:A1 5.92191e-05
91 *919:38 *4890:A1 0.000225175
92 *937:14 *1120:23 0
93 *966:191 *4896:A 0.00011852
94 *984:12 *1120:100 9.55201e-05
95 *984:20 *4916:A2 2.14129e-05
96 *984:20 *1120:96 0.000286642
97 *984:20 *1120:100 0.000121044
98 *984:28 *1120:96 4.01535e-05
99 *988:10 *1120:29 0
100 *988:32 *1120:29 0
101 *988:223 *4890:A1 0
102 *991:30 *4916:A2 0
103 *994:142 *1120:87 0.000496897
104 *994:162 *1120:29 0
105 *994:162 *1120:42 0
106 *994:172 *1120:29 0
107 *1009:51 *4890:A1 4.43871e-06
108 *1009:51 *1120:42 0
109 *1009:51 *1120:55 0
110 *1009:64 *4890:A1 0
111 *1013:251 *4890:A1 5.8825e-05
*RES
1 *5161:X *1120:6 3.6 
2 *1120:6 *4820:B1_N 5.2125 
3 *1120:6 *1120:23 4.50013 
4 *1120:23 *1120:29 10.3728 
5 *1120:29 *4867:A1 3.6 
6 *1120:29 *1120:42 6.78 
7 *1120:42 *4874:A2 3.6 
8 *1120:42 *1120:55 6.725 
9 *1120:55 *1120:61 10.48 
10 *1120:61 *4882:A1 1.6 
11 *1120:61 *4890:A1 13.67 
12 *1120:55 *1120:87 12.44 
13 *1120:87 *4858:A2 3.6 
14 *1120:87 *1120:96 5.715 
15 *1120:96 *1120:100 11.765 
16 *1120:100 *4893:B 1.6 
17 *1120:100 *4896:A 9.395 
18 *1120:96 *4916:A2 9.1725 
19 *1120:23 *4852:A1 5.3975 
*END

*D_NET *1121 0.00827212
*CONN
*I *4829:A1 I *D sky130_fd_sc_hd__a211o_2
*I *4835:A1 I *D sky130_fd_sc_hd__a211o_2
*I *4911:A1 I *D sky130_fd_sc_hd__a211o_2
*I *4902:S I *D sky130_fd_sc_hd__mux2_1
*I *4844:A1 I *D sky130_fd_sc_hd__a211o_2
*I *5162:X O *D sky130_fd_sc_hd__clkdlybuf4s25_1
*CAP
1 *4829:A1 2.11983e-05
2 *4835:A1 1.11608e-05
3 *4911:A1 0.000207117
4 *4902:S 0.00024428
5 *4844:A1 0
6 *5162:X 0.000343691
7 *1121:39 0.00111052
8 *1121:29 0.0013793
9 *1121:14 0.00100855
10 *1121:10 0.000664423
11 *1121:10 *1235:DIODE 5.12772e-05
12 *1121:14 *1235:DIODE 6.28843e-05
13 *1269:DIODE *4902:S 0.000147089
14 *1319:DIODE *1121:10 0
15 *4829:A2 *1121:10 4.43871e-06
16 *4829:A2 *1121:14 5.00699e-05
17 *4831:A2 *1121:14 0
18 *4835:B1 *4835:A1 1.85674e-05
19 *4835:B1 *1121:29 0.000257957
20 *4844:A2 *1121:14 0.000136877
21 *4844:A2 *1121:29 9.50342e-06
22 *4910:A1 *4911:A1 0.000137571
23 *4911:A2 *4911:A1 4.43871e-06
24 *4911:B1 *4911:A1 8.89751e-05
25 *4912:A2 *4911:A1 0
26 *4972:B *4829:A1 4.82919e-05
27 *5069:CLK *1121:14 0
28 *5069:CLK *1121:29 0
29 *5077:RESET_B *1121:39 0.000252289
30 *5084:D *1121:29 0
31 *5124:A *4902:S 6.98956e-05
32 *5148:A *1121:29 6.34376e-05
33 *5148:A *1121:39 0.000140133
34 *5162:A *1121:10 2.11084e-05
35 *5194:A *1121:39 4.66108e-05
36 *653:84 *4902:S 0.000425307
37 *847:12 *4911:A1 0.00014077
38 *847:12 *1121:39 7.24779e-05
39 *963:49 *4902:S 9.13796e-05
40 *967:16 *1121:29 6.36578e-05
41 *988:85 *4911:A1 0.000123838
42 *988:85 *1121:39 0.000194192
43 *988:163 *1121:29 0.000136207
44 *988:165 *1121:14 4.18603e-06
45 *988:165 *1121:29 5.30057e-05
46 *988:167 *1121:14 0.000156446
47 *1011:30 *1121:39 0
48 *1013:100 *1121:39 0
49 *1013:106 *4911:A1 1.71013e-05
50 *1013:106 *1121:39 0.00019189
*RES
1 *5162:X *1121:10 8.1 
2 *1121:10 *1121:14 6.42 
3 *1121:14 *4844:A1 3.6 
4 *1121:14 *1121:29 14.015 
5 *1121:29 *1121:39 15.395 
6 *1121:39 *4902:S 9.915 
7 *1121:39 *4911:A1 9.825 
8 *1121:29 *4835:A1 1.96 
9 *1121:10 *4829:A1 4.05 
*END

*D_NET *1122 0.0268664
*CONN
*I *4795:C I *D sky130_fd_sc_hd__and3_2
*I *4777:B I *D sky130_fd_sc_hd__nand2_2
*I *4791:B I *D sky130_fd_sc_hd__nand2_2
*I *1218:DIODE I *D sky130_fd_sc_hd__diode_2
*I *4745:B I *D sky130_fd_sc_hd__nand2_2
*I *4813:B I *D sky130_fd_sc_hd__nand2_2
*I *1228:DIODE I *D sky130_fd_sc_hd__diode_2
*I *4805:B I *D sky130_fd_sc_hd__nand2_2
*I *1225:DIODE I *D sky130_fd_sc_hd__diode_2
*I *1221:DIODE I *D sky130_fd_sc_hd__diode_2
*I *1204:DIODE I *D sky130_fd_sc_hd__diode_2
*I *4763:A3 I *D sky130_fd_sc_hd__a32o_2
*I *4768:B I *D sky130_fd_sc_hd__nand2_2
*I *1212:DIODE I *D sky130_fd_sc_hd__diode_2
*I *1209:DIODE I *D sky130_fd_sc_hd__diode_2
*I *1215:DIODE I *D sky130_fd_sc_hd__diode_2
*I *4784:B I *D sky130_fd_sc_hd__nand2_2
*I *1359:DIODE I *D sky130_fd_sc_hd__diode_2
*I *1198:DIODE I *D sky130_fd_sc_hd__diode_2
*I *4754:B I *D sky130_fd_sc_hd__nand2_2
*I *1201:DIODE I *D sky130_fd_sc_hd__diode_2
*I *5163:X O *D sky130_fd_sc_hd__clkdlybuf4s25_1
*CAP
1 *4795:C 0.000112094
2 *4777:B 0
3 *4791:B 9.68994e-06
4 *1218:DIODE 3.30293e-05
5 *4745:B 0.000201468
6 *4813:B 7.47976e-05
7 *1228:DIODE 4.43494e-05
8 *4805:B 0
9 *1225:DIODE 3.64111e-05
10 *1221:DIODE 0.000144212
11 *1204:DIODE 0
12 *4763:A3 0
13 *4768:B 0
14 *1212:DIODE 0.000965982
15 *1209:DIODE 0
16 *1215:DIODE 0
17 *4784:B 7.17693e-05
18 *1359:DIODE 0.000223852
19 *1198:DIODE 0.000316617
20 *4754:B 0
21 *1201:DIODE 5.25043e-05
22 *5163:X 0
23 *1122:254 0.000964403
24 *1122:244 0.00097889
25 *1122:201 0.000476801
26 *1122:185 3.64111e-05
27 *1122:183 0.00141722
28 *1122:162 0.0022288
29 *1122:107 0.00100361
30 *1122:100 9.48369e-05
31 *1122:87 0.000194106
32 *1122:83 0.000480617
33 *1122:77 0.000539459
34 *1122:71 0.000239757
35 *1122:65 0.00123841
36 *1122:30 0.000348846
37 *1122:12 0.000795021
38 *1122:4 0.00056467
39 *1212:DIODE *4776:B1 3.69913e-05
40 *1212:DIODE *1126:74 3.86529e-05
41 *1359:DIODE *5163:A 1.83756e-05
42 *1122:12 *4850:B 0
43 *1122:12 *1126:10 0.000116158
44 *1122:30 *1126:10 5.98004e-06
45 *1122:65 *1126:28 0.000177568
46 *1122:71 *1126:28 7.23602e-05
47 *1122:77 *1126:28 1.52945e-05
48 *1122:83 *1126:36 0.000265784
49 *1199:DIODE *1122:12 2.25075e-05
50 *1203:DIODE *1201:DIODE 2.75145e-05
51 *1205:DIODE *1122:71 3.74161e-05
52 *1205:DIODE *1122:77 0.000123225
53 *1205:DIODE *1122:162 3.96653e-05
54 *1205:DIODE *1122:183 6.71882e-05
55 *1206:DIODE *1122:162 0.000964647
56 *1208:DIODE *1122:30 0
57 *1222:DIODE *1122:183 0.000607676
58 *1282:DIODE *1122:183 2.7289e-05
59 *1321:DIODE *1359:DIODE 0.000161529
60 *1341:DIODE *1122:183 3.00381e-05
61 *1355:DIODE *1122:254 0.000203402
62 *4721:A1 *1122:162 0.000183043
63 *4739:C *4795:C 5.99393e-05
64 *4740:B *4745:B 0
65 *4740:C *1122:162 0
66 *4745:A *1122:12 3.69338e-05
67 *4745:A *1122:30 6.45236e-05
68 *4746:A2 *1122:12 5.83121e-06
69 *4746:C1 *1122:30 0.000302194
70 *4747:A1 *1122:30 0.000212608
71 *4753:A *1122:162 4.82863e-05
72 *4753:B *1122:162 4.82863e-05
73 *4757:A1 *1201:DIODE 4.99619e-05
74 *4758:A2 *1122:30 8.23457e-05
75 *4759:B *1122:77 3.68862e-05
76 *4759:B *1122:83 7.61339e-05
77 *4762:C1 *1122:77 0.000132714
78 *4762:C1 *1122:83 8.7152e-06
79 *4770:B1 *1122:83 0.000123225
80 *4775:A *1212:DIODE 4.66108e-05
81 *4775:B *1212:DIODE 4.82919e-05
82 *4776:A1 *1212:DIODE 0.000112147
83 *4776:C1 *1212:DIODE 0.000316415
84 *4777:A *1122:254 4.82919e-05
85 *4778:C1 *1212:DIODE 0
86 *4785:A1 *4784:B 6.10014e-05
87 *4785:A1 *1122:83 4.66826e-05
88 *4785:A1 *1122:87 0.00010954
89 *4786:B1 *4784:B 2.75145e-05
90 *4789:A *1122:254 5.05437e-05
91 *4790:C1 *1122:254 3.03684e-05
92 *4791:A *1218:DIODE 9.30717e-05
93 *4791:A *4791:B 5.4003e-05
94 *4799:A1 *1122:183 4.82919e-05
95 *4799:A2 *1221:DIODE 7.4027e-05
96 *4799:A2 *1122:183 8.63479e-05
97 *4807:C1 *1122:201 0
98 *4815:A1 *4813:B 7.63204e-05
99 *4815:A1 *1122:201 0.000234847
100 *4924:B *1122:183 2.75145e-05
101 *4925:B *1122:183 2.42236e-05
102 *4926:A2 *1122:183 9.30787e-05
103 *4969:A1 *1122:162 0.000382677
104 *4980:A *1221:DIODE 0.00011852
105 *4986:B *1359:DIODE 2.97473e-05
106 *5057:RESET_B *1122:30 0.000181383
107 *5061:RESET_B *4784:B 1.56406e-05
108 *5062:RESET_B *1218:DIODE 9.14049e-05
109 *5062:RESET_B *4791:B 4.54719e-05
110 *5125:A *1198:DIODE 0.000119756
111 *375:54 *1198:DIODE 0.000413366
112 *375:54 *4745:B 0.00012657
113 *375:54 *1122:12 8.49205e-05
114 *376:16 *1122:30 0.000316047
115 *698:31 *1122:244 0.000164874
116 *698:31 *1122:254 0.00016887
117 *907:63 *4795:C 4.66108e-05
118 *908:12 *1225:DIODE 8.65905e-05
119 *927:25 *1122:30 9.37731e-05
120 *930:61 *1122:87 9.50342e-06
121 *930:73 *1122:83 3.54109e-05
122 *932:30 *4784:B 8.49205e-05
123 *964:27 *1122:12 0
124 *965:20 *1122:183 0.000260552
125 *983:6 *1198:DIODE 0.000137397
126 *983:6 *1122:12 4.41506e-05
127 *983:23 *1122:30 1.07797e-05
128 *983:35 *1122:65 0.000185411
129 *983:35 *1122:71 7.06865e-05
130 *983:39 *1122:83 0
131 *983:43 *1122:83 2.97004e-06
132 *983:105 *1122:183 0
133 *983:105 *1122:201 0
134 *986:141 *1122:183 4.38278e-05
135 *986:227 *1122:183 5.68717e-05
136 *987:14 *4745:B 0
137 *987:125 *1122:201 0
138 *987:136 *4813:B 0
139 *987:136 *1122:201 0
140 *987:188 *4784:B 6.28843e-05
141 *987:188 *1122:87 0.000129871
142 *987:227 *1122:254 7.02738e-05
143 *990:113 *1122:183 0.000904511
144 *992:139 *1221:DIODE 2.4997e-05
145 *992:151 *1212:DIODE 0.000406818
146 *992:151 *1122:107 6.71882e-05
147 *1005:31 *1122:77 0.000104313
148 *1013:38 *1122:12 9.30717e-05
149 *1023:131 *1122:12 0
150 *1023:131 *1122:30 5.16418e-05
151 *1023:145 *1122:12 0
152 *1084:104 *1122:254 0.000188169
153 *1118:79 *1122:183 4.68291e-05
154 *1118:79 *1122:201 9.428e-05
155 *1119:44 *1122:83 0.000114492
156 *1119:44 *1122:87 1.52945e-05
157 *1119:57 *1122:83 0.000749676
158 *1119:74 *1122:30 0.000136884
159 *1119:74 *1122:77 3.91574e-05
160 *1119:74 *1122:83 8.7152e-06
*RES
1 *5163:X *1122:4 1.6 
2 *1122:4 *1122:12 10.255 
3 *1122:12 *1122:30 18.095 
4 *1122:30 *1201:DIODE 2.05 
5 *1122:30 *4754:B 1.6 
6 *1122:12 *1198:DIODE 5.5 
7 *1122:4 *1359:DIODE 4.465 
8 *1201:DIODE *1122:65 5.745 
9 *1122:65 *1122:71 3.32 
10 *1122:71 *1122:77 6.05 
11 *1122:77 *1122:83 13.535 
12 *1122:83 *1122:87 4.91 
13 *1122:87 *4784:B 5.775 
14 *1122:87 *1122:100 2 
15 *1122:100 *1215:DIODE 1.6 
16 *1122:100 *1122:107 1.14 
17 *1122:107 *1209:DIODE 1.6 
18 *1122:107 *1212:DIODE 18.275 
19 *1122:83 *4768:B 1.6 
20 *1122:77 *4763:A3 3.6 
21 *1122:71 *1204:DIODE 1.6 
22 *1122:65 *1122:162 25.845 
23 *1122:162 *1221:DIODE 6.98 
24 *1122:162 *1122:183 26.42 
25 *1122:183 *1122:185 2 
26 *1122:185 *1225:DIODE 2.395 
27 *1122:185 *4805:B 1.6 
28 *1122:183 *1122:201 7.185 
29 *1122:201 *1228:DIODE 4.05 
30 *1122:201 *4813:B 5.235 
31 *1198:DIODE *4745:B 9.975 
32 *1212:DIODE *1122:244 3.085 
33 *1122:244 *1122:254 15.35 
34 *1122:254 *1218:DIODE 4.725 
35 *1122:254 *4791:B 4.215 
36 *1122:244 *4777:B 1.6 
37 *1221:DIODE *4795:C 4.805 
*END

*D_NET *1123 0.0268486
*CONN
*I *4827:B I *D sky130_fd_sc_hd__nand2_2
*I *4820:A2 I *D sky130_fd_sc_hd__a21bo_2
*I *1235:DIODE I *D sky130_fd_sc_hd__diode_2
*I *4850:B I *D sky130_fd_sc_hd__nand2_2
*I *4865:B I *D sky130_fd_sc_hd__nand2_2
*I *1361:DIODE I *D sky130_fd_sc_hd__diode_2
*I *1231:DIODE I *D sky130_fd_sc_hd__diode_2
*I *1244:DIODE I *D sky130_fd_sc_hd__diode_2
*I *4893:C I *D sky130_fd_sc_hd__and3_2
*I *1264:DIODE I *D sky130_fd_sc_hd__diode_2
*I *1275:DIODE I *D sky130_fd_sc_hd__diode_2
*I *1261:DIODE I *D sky130_fd_sc_hd__diode_2
*I *4888:B I *D sky130_fd_sc_hd__nand2_2
*I *4916:A3 I *D sky130_fd_sc_hd__a31o_2
*I *1247:DIODE I *D sky130_fd_sc_hd__diode_2
*I *4858:A3 I *D sky130_fd_sc_hd__a32o_2
*I *1258:DIODE I *D sky130_fd_sc_hd__diode_2
*I *4874:A3 I *D sky130_fd_sc_hd__a32o_2
*I *1254:DIODE I *D sky130_fd_sc_hd__diode_2
*I *1251:DIODE I *D sky130_fd_sc_hd__diode_2
*I *4880:B I *D sky130_fd_sc_hd__nand2_2
*I *5164:X O *D sky130_fd_sc_hd__clkdlybuf4s25_1
*CAP
1 *4827:B 7.87918e-06
2 *4820:A2 0
3 *1235:DIODE 0.000536186
4 *4850:B 0.000232712
5 *4865:B 7.00326e-06
6 *1361:DIODE 0
7 *1231:DIODE 0.000490787
8 *1244:DIODE 0.000943488
9 *4893:C 0.000104106
10 *1264:DIODE 0
11 *1275:DIODE 8.71201e-05
12 *1261:DIODE 0
13 *4888:B 2.9853e-05
14 *4916:A3 0
15 *1247:DIODE 0
16 *4858:A3 5.62327e-05
17 *1258:DIODE 0
18 *4874:A3 0
19 *1254:DIODE 3.38648e-05
20 *1251:DIODE 0.000190687
21 *4880:B 0.000111389
22 *5164:X 0
23 *1123:249 0.000602989
24 *1123:165 0.00203633
25 *1123:157 0.00110704
26 *1123:139 0.000440158
27 *1123:118 0.000519551
28 *1123:116 0.000660257
29 *1123:105 0.000691762
30 *1123:99 0.00123468
31 *1123:47 0.000275353
32 *1123:45 0.000219099
33 *1123:28 0.000359981
34 *1123:26 0.000597995
35 *1123:24 0.0008309
36 *1123:22 0.000727225
37 *1123:8 0.00084245
38 *1123:4 0.000286482
39 *1231:DIODE *1124:56 0.000926621
40 *1251:DIODE *1127:30 0
41 *1123:45 *1127:22 0.000118744
42 *1123:45 *1127:30 0
43 *1123:47 *1127:30 0
44 *1123:105 *1125:22 6.27529e-05
45 *1123:157 *1124:42 4.82863e-05
46 *1123:165 *1124:42 0.000250609
47 *1123:165 *1124:44 0.0016589
48 *1123:165 *1124:56 9.42145e-05
49 *1236:DIODE *1235:DIODE 0.000141599
50 *1249:DIODE *1123:8 0.000120655
51 *1249:DIODE *1123:22 4.34365e-05
52 *1249:DIODE *1123:99 8.08153e-06
53 *1249:DIODE *1123:157 8.40269e-05
54 *1259:DIODE *4858:A3 0
55 *1262:DIODE *1123:118 2.75145e-05
56 *1276:DIODE *1275:DIODE 0.000115779
57 *1276:DIODE *1123:118 9.45488e-05
58 *1319:DIODE *1235:DIODE 0
59 *1321:DIODE *4850:B 0
60 *1347:DIODE *1235:DIODE 0.00018352
61 *4653:A *1123:139 4.82863e-05
62 *4653:B *1123:139 4.82863e-05
63 *4692:A *1231:DIODE 0.00022786
64 *4694:B1 *1244:DIODE 1.30972e-05
65 *4694:B1 *1123:165 1.1561e-05
66 *4732:A2 *4880:B 8.65905e-05
67 *4732:A2 *1123:26 0.000749023
68 *4732:A2 *1123:28 0.00010978
69 *4740:B *1244:DIODE 4.66474e-05
70 *4741:B *1123:99 0
71 *4741:C *1123:22 0.000139888
72 *4741:C *1123:99 4.39079e-05
73 *4741:D *1123:22 8.78219e-05
74 *4820:A1 *1235:DIODE 9.53428e-06
75 *4820:A1 *1123:249 3.95698e-05
76 *4820:B1_N *1123:249 2.58137e-05
77 *4821:A3 *1231:DIODE 9.54469e-05
78 *4822:A2 *1235:DIODE 0.000415093
79 *4822:A2 *1123:249 0.000205337
80 *4850:A *4850:B 5.53249e-06
81 *4855:B *4858:A3 0
82 *4856:A *1123:24 1.19928e-05
83 *4859:A2 *1123:22 2.16917e-05
84 *4859:A2 *1123:24 5.83121e-06
85 *4859:B1 *1123:22 1.19928e-05
86 *4860:A1 *1123:165 0
87 *4880:A *4880:B 9.50342e-06
88 *4893:A *4893:C 7.66083e-05
89 *4893:A *1123:139 0.000163204
90 *4910:A1 *4893:C 3.23663e-05
91 *4914:A *1123:105 0.000105068
92 *4914:A *1123:116 2.97561e-05
93 *4915:C1 *1123:105 5.20968e-05
94 *4916:A2 *1123:105 1.32017e-05
95 *4917:B1 *1123:105 0
96 *4918:B1 *1123:116 0
97 *4961:B *1231:DIODE 0.000229541
98 *4985:A1 *1123:165 0.000328371
99 *4986:B *1123:165 0
100 *4986:C *1123:165 4.76647e-05
101 *4986:D *1123:165 0.000189065
102 *4987:C *1123:165 6.95753e-05
103 *5071:RESET_B *1123:165 0
104 *5127:A *1244:DIODE 3.11635e-05
105 *5127:A *1123:165 1.32017e-05
106 *5129:A *4850:B 0
107 *5131:A *1235:DIODE 0.000163204
108 *5143:A *1244:DIODE 0.000138799
109 *5143:A *4850:B 2.77183e-05
110 *5165:A *1123:99 0
111 *374:27 *1244:DIODE 1.88656e-05
112 *374:40 *1244:DIODE 4.1574e-05
113 *374:40 *1123:165 0.000139238
114 *573:8 *1123:99 0
115 *574:19 *1123:139 1.03423e-05
116 *656:83 *1123:99 0
117 *732:6 *1231:DIODE 0.000312964
118 *765:32 *1123:22 8.8266e-05
119 *766:25 *1123:165 0.000112123
120 *910:27 *1123:249 0.000239807
121 *911:34 *4827:B 4.99619e-05
122 *915:30 *1123:165 0.000118438
123 *915:108 *4858:A3 2.46089e-05
124 *924:27 *1123:116 6.00003e-05
125 *963:11 *1231:DIODE 0
126 *964:42 *1244:DIODE 0.000196287
127 *984:12 *1123:99 2.03578e-05
128 *984:12 *1123:105 0.000139937
129 *984:20 *1123:105 1.6503e-05
130 *986:64 *1123:22 6.65725e-05
131 *986:122 *1231:DIODE 9.80032e-06
132 *987:77 *1244:DIODE 5.05521e-05
133 *987:88 *1231:DIODE 2.96334e-05
134 *987:88 *1244:DIODE 0.000679653
135 *987:159 *1235:DIODE 0.000132663
136 *988:167 *1235:DIODE 0.000116165
137 *990:10 *1235:DIODE 3.00381e-05
138 *990:10 *1123:249 9.80943e-06
139 *990:239 *1254:DIODE 4.82919e-05
140 *991:30 *1123:99 0.000203762
141 *994:142 *1123:22 2.8585e-06
142 *994:142 *1123:24 2.81884e-05
143 *994:156 *1251:DIODE 2.96426e-05
144 *994:156 *4865:B 4.99619e-05
145 *1008:24 *4827:B 2.11084e-05
146 *1009:51 *4880:B 4.40812e-05
147 *1009:51 *1123:45 0
148 *1012:30 *1231:DIODE 1.16578e-05
149 *1023:145 *4850:B 0
150 *1029:27 *1123:116 0
151 *1029:67 *1123:157 0.000104286
152 *1029:78 *1123:157 0.000148977
153 *1120:42 *1251:DIODE 0.000180887
154 *1120:42 *1123:47 0.000110683
155 *1120:55 *1123:45 0.000323305
156 *1120:55 *1123:47 9.50342e-06
157 *1120:61 *4880:B 3.69251e-05
158 *1120:61 *1123:45 9.61344e-05
159 *1120:87 *4858:A3 0.000113797
160 *1120:100 *1123:105 1.39431e-05
161 *1120:100 *1123:139 1.87119e-05
162 *1121:10 *1235:DIODE 5.12772e-05
163 *1121:14 *1235:DIODE 6.28843e-05
164 *1122:12 *4850:B 0
*RES
1 *5164:X *1123:4 1.6 
2 *1123:4 *1123:8 3.14 
3 *1123:8 *1123:22 9.0928 
4 *1123:22 *1123:24 2.865 
5 *1123:24 *1123:26 7.005 
6 *1123:26 *1123:28 1.14 
7 *1123:28 *4880:B 7.775 
8 *1123:28 *1123:45 6.95 
9 *1123:45 *1123:47 1.38 
10 *1123:47 *1251:DIODE 6.885 
11 *1123:47 *1254:DIODE 4.05 
12 *1123:45 *4874:A3 3.6 
13 *1123:26 *1258:DIODE 1.6 
14 *1123:24 *4858:A3 6.98 
15 *1123:22 *1247:DIODE 1.6 
16 *1123:8 *1123:99 7.46 
17 *1123:99 *1123:105 10.955 
18 *1123:105 *4916:A3 3.6 
19 *1123:105 *1123:116 3.89 
20 *1123:116 *1123:118 7.695 
21 *1123:118 *4888:B 2.05 
22 *1123:118 *1261:DIODE 1.6 
23 *1123:116 *1275:DIODE 3.43 
24 *1123:99 *1123:139 4.245 
25 *1123:139 *1264:DIODE 1.6 
26 *1123:139 *4893:C 3.085 
27 *1123:4 *1123:157 3.675 
28 *1123:157 *1123:165 28.415 
29 *1123:165 *1244:DIODE 20.71 
30 *1123:165 *1231:DIODE 19.18 
31 *1123:157 *1361:DIODE 1.6 
32 *1251:DIODE *4865:B 3.65 
33 *1244:DIODE *4850:B 10.32 
34 *1231:DIODE *1123:249 4.93 
35 *1123:249 *1235:DIODE 19.715 
36 *1123:249 *4820:A2 1.6 
37 *1235:DIODE *4827:B 3.65 
*END

*D_NET *1124 0.0314802
*CONN
*I *4842:B I *D sky130_fd_sc_hd__nand2_2
*I *4834:B I *D sky130_fd_sc_hd__nand2_2
*I *4908:B I *D sky130_fd_sc_hd__nand2_2
*I *5163:A I *D sky130_fd_sc_hd__clkdlybuf4s25_1
*I *4935:C I *D sky130_fd_sc_hd__and3_2
*I *1241:DIODE I *D sky130_fd_sc_hd__diode_2
*I *1238:DIODE I *D sky130_fd_sc_hd__diode_2
*I *1270:DIODE I *D sky130_fd_sc_hd__diode_2
*I *4901:B I *D sky130_fd_sc_hd__nand2_2
*I *1267:DIODE I *D sky130_fd_sc_hd__diode_2
*I *1358:DIODE I *D sky130_fd_sc_hd__diode_2
*I *4920:A3 I *D sky130_fd_sc_hd__a31o_2
*I *4923:C I *D sky130_fd_sc_hd__and3_2
*I *1281:DIODE I *D sky130_fd_sc_hd__diode_2
*I *1285:DIODE I *D sky130_fd_sc_hd__diode_2
*I *4929:C I *D sky130_fd_sc_hd__and3_2
*I *1289:DIODE I *D sky130_fd_sc_hd__diode_2
*I *1278:DIODE I *D sky130_fd_sc_hd__diode_2
*I *1360:DIODE I *D sky130_fd_sc_hd__diode_2
*I *1362:DIODE I *D sky130_fd_sc_hd__diode_2
*I *5164:A I *D sky130_fd_sc_hd__clkdlybuf4s25_1
*I *5165:X O *D sky130_fd_sc_hd__clkdlybuf4s25_1
*CAP
1 *4842:B 2.51931e-05
2 *4834:B 2.12116e-05
3 *4908:B 9.91504e-05
4 *5163:A 5.17204e-05
5 *4935:C 7.80048e-05
6 *1241:DIODE 0.000396403
7 *1238:DIODE 8.14544e-05
8 *1270:DIODE 0.000470283
9 *4901:B 3.90122e-05
10 *1267:DIODE 0
11 *1358:DIODE 0.000553041
12 *4920:A3 0
13 *4923:C 9.05245e-05
14 *1281:DIODE 0
15 *1285:DIODE 3.76639e-05
16 *4929:C 0.0001422
17 *1289:DIODE 0.000164971
18 *1278:DIODE 2.35498e-05
19 *1360:DIODE 2.59446e-05
20 *1362:DIODE 0.000103328
21 *5164:A 5.90471e-05
22 *5165:X 4.71433e-05
23 *1124:203 0.00111755
24 *1124:171 0.000430955
25 *1124:169 0.000919972
26 *1124:162 0.00103479
27 *1124:124 0.000194824
28 *1124:111 0.000207123
29 *1124:100 0.000600062
30 *1124:73 0.000950739
31 *1124:65 0.000614747
32 *1124:56 0.00145234
33 *1124:44 0.00231471
34 *1124:42 0.00145332
35 *1124:19 6.69561e-05
36 *1124:10 0.000147202
37 *1241:DIODE *4833:A2 0.000197512
38 *1241:DIODE *4833:B1 0.000249475
39 *1241:DIODE *1125:93 0.00011504
40 *1241:DIODE *1127:77 0.000158288
41 *1231:DIODE *1124:56 0.000926621
42 *1248:DIODE *1124:162 9.27255e-06
43 *1250:DIODE *1124:162 0.00016211
44 *1266:DIODE *1270:DIODE 3.87723e-05
45 *1266:DIODE *1124:203 0.00016635
46 *1268:DIODE *1124:162 4.66108e-05
47 *1286:DIODE *1124:100 0.000133984
48 *1290:DIODE *1289:DIODE 9.75195e-05
49 *1290:DIODE *1124:73 1.03833e-05
50 *1302:DIODE *1124:100 0.000765908
51 *1356:DIODE *1124:203 5.30144e-05
52 *1359:DIODE *5163:A 1.83756e-05
53 *4689:C *1124:44 0.000162325
54 *4692:A *1124:56 2.16833e-05
55 *4738:C *1124:73 7.26579e-05
56 *4741:C *1124:10 0.000134509
57 *4741:D *1124:10 0.000134509
58 *4743:B *1124:73 8.06744e-05
59 *4795:B *1124:73 5.11148e-06
60 *4832:B *1124:203 0.000114492
61 *4834:A *1238:DIODE 8.57024e-05
62 *4834:A *1241:DIODE 3.83041e-05
63 *4834:A *4834:B 4.82863e-05
64 *4837:A2 *1124:203 0.000294421
65 *4903:B1 *4901:B 4.66108e-05
66 *4903:B1 *1124:169 0.000271308
67 *4908:A *1270:DIODE 1.91597e-05
68 *4908:A *4908:B 8.8266e-05
69 *4912:A2 *1270:DIODE 0.00050398
70 *4922:A2 *1124:65 4.35348e-05
71 *4926:A1 *4923:C 4.99619e-05
72 *4932:A1 *4929:C 4.21973e-05
73 *4932:A2 *4923:C 2.49909e-05
74 *4932:A2 *1124:100 4.9968e-05
75 *4932:A2 *1124:111 0.000139933
76 *4932:A2 *1124:124 0.00015829
77 *4932:B1 *1124:100 0.000105486
78 *4935:B *1124:100 0.000120655
79 *4937:A *1124:73 9.82856e-06
80 *4938:A1 *1124:100 5.17188e-05
81 *4938:A2 *1124:73 6.31891e-05
82 *4938:A2 *1124:100 2.75145e-05
83 *4938:B1 *1124:73 6.71803e-06
84 *4940:A1 *1124:73 0.000206817
85 *4940:A2 *1124:100 5.83121e-06
86 *4969:C1 *1124:65 2.8185e-05
87 *4983:B *1124:44 0.000199039
88 *4986:B *1358:DIODE 0.000714655
89 *4986:B *5163:A 0.000119756
90 *4987:C *1124:44 6.95753e-05
91 *4987:C *1124:56 8.53113e-06
92 *5051:CLK *4901:B 8.40269e-05
93 *5127:A *1124:42 0.000136406
94 *5127:A *1124:44 0.00106657
95 *5127:A *1124:56 0.000183036
96 *5131:A *1124:203 3.86607e-05
97 *5132:A *1124:203 0.000219783
98 *5194:A *1124:203 0.000114492
99 *220:10 *1124:73 0.000129226
100 *663:12 *1124:73 0.000106648
101 *664:12 *1124:73 9.30717e-05
102 *765:32 *1124:44 5.39961e-05
103 *847:12 *1124:203 0
104 *913:16 *4842:B 4.66108e-05
105 *923:22 *1270:DIODE 5.83121e-06
106 *925:14 *4929:C 0.000120655
107 *925:14 *1124:100 0.00033791
108 *926:12 *4935:C 7.66083e-05
109 *926:22 *4935:C 4.99619e-05
110 *933:10 *1124:56 2.99555e-05
111 *933:10 *1124:65 4.82919e-05
112 *963:11 *1124:56 0.000495377
113 *963:45 *1124:162 2.46089e-05
114 *966:12 *5164:A 0.00010877
115 *983:105 *1124:100 0
116 *983:105 *1124:111 0
117 *983:105 *1124:124 0
118 *986:152 *1124:73 2.88436e-05
119 *987:88 *1124:56 1.33293e-05
120 *988:79 *1124:162 0.000313857
121 *988:85 *1270:DIODE 0.000287995
122 *990:20 *1124:73 0.000273702
123 *991:30 *1360:DIODE 0.000201508
124 *991:30 *5164:A 8.40213e-05
125 *991:30 *1124:19 0.000235568
126 *994:132 *1124:162 0.000236521
127 *994:142 *1124:162 1.19928e-05
128 *1011:30 *1270:DIODE 2.97004e-06
129 *1011:45 *1270:DIODE 0.00099676
130 *1012:30 *1124:56 0
131 *1012:30 *1124:65 0.000124895
132 *1012:42 *1278:DIODE 4.99619e-05
133 *1012:42 *1124:65 7.40446e-05
134 *1023:83 *4923:C 4.7101e-05
135 *1029:67 *5164:A 0.000271308
136 *1029:67 *1124:19 0.000188063
137 *1029:78 *1360:DIODE 0.000190633
138 *1029:78 *1124:19 4.82863e-05
139 *1029:147 *1124:203 0.000192976
140 *1118:27 *1289:DIODE 1.71013e-05
141 *1118:27 *1124:73 6.44663e-05
142 *1118:62 *1124:124 0
143 *1118:97 *1124:73 2.06083e-05
144 *1119:118 *1289:DIODE 0
145 *1119:141 *1124:65 8.49205e-05
146 *1119:141 *1124:73 0.000263489
147 *1123:157 *1124:42 4.82863e-05
148 *1123:165 *1124:42 0.000250609
149 *1123:165 *1124:44 0.0016589
150 *1123:165 *1124:56 9.42145e-05
*RES
1 *5165:X *1124:10 7.235 
2 *1124:10 *5164:A 4.12 
3 *1124:10 *1124:19 2.175 
4 *1124:19 *1362:DIODE 1.6 
5 *1124:19 *1360:DIODE 3.43 
6 *1362:DIODE *1124:42 6.96 
7 *1124:42 *1124:44 20.505 
8 *1124:44 *1124:56 28.125 
9 *1124:56 *1278:DIODE 2.05 
10 *1124:56 *1124:65 3.21 
11 *1124:65 *1124:73 15.665 
12 *1124:73 *1289:DIODE 5.175 
13 *1124:73 *1124:100 15.655 
14 *1124:100 *4929:C 5.43 
15 *1124:100 *1124:111 1.635 
16 *1124:111 *1285:DIODE 4.05 
17 *1124:111 *1124:124 4.145 
18 *1124:124 *1281:DIODE 1.6 
19 *1124:124 *4923:C 3.445 
20 *1124:65 *4920:A3 1.6 
21 *1124:44 *1358:DIODE 10.26 
22 *1124:42 *1124:162 16.98 
23 *1124:162 *1267:DIODE 1.6 
24 *1124:162 *1124:169 2.865 
25 *1124:169 *1124:171 0.36 
26 *1124:171 *4901:B 2.755 
27 *1124:171 *1270:DIODE 18.935 
28 *1124:169 *1124:203 17.965 
29 *1124:203 *1238:DIODE 2.395 
30 *1124:203 *1241:DIODE 12.65 
31 *1289:DIODE *4935:C 4.34 
32 *1358:DIODE *5163:A 4.34 
33 *1270:DIODE *4908:B 5.045 
34 *1238:DIODE *4834:B 3.65 
35 *1241:DIODE *4842:B 3.65 
*END

*D_NET *1125 0.0180497
*CONN
*I *4889:B1 I *D sky130_fd_sc_hd__o211a_2
*I *4915:B1 I *D sky130_fd_sc_hd__o211a_2
*I *4857:B1 I *D sky130_fd_sc_hd__o211a_2
*I *4881:B1 I *D sky130_fd_sc_hd__o211a_2
*I *4873:B1 I *D sky130_fd_sc_hd__o211a_2
*I *4833:B1 I *D sky130_fd_sc_hd__o211a_2
*I *4843:B1 I *D sky130_fd_sc_hd__o211a_2
*I *4828:B1 I *D sky130_fd_sc_hd__o211a_2
*I *4851:B1 I *D sky130_fd_sc_hd__o211a_2
*I *4866:B1 I *D sky130_fd_sc_hd__o211a_2
*I *5166:X O *D sky130_fd_sc_hd__clkdlybuf4s25_1
*CAP
1 *4889:B1 0.00049772
2 *4915:B1 0
3 *4857:B1 0
4 *4881:B1 2.22788e-05
5 *4873:B1 0.00010168
6 *4833:B1 0.000200022
7 *4843:B1 3.11146e-05
8 *4828:B1 6.56636e-05
9 *4851:B1 0
10 *4866:B1 0
11 *5166:X 0.000220301
12 *1125:93 0.000366396
13 *1125:80 0.00230173
14 *1125:59 0.00252608
15 *1125:40 0.000627508
16 *1125:34 0.000545977
17 *1125:30 0.000559518
18 *1125:22 0.000568132
19 *1125:12 0.000375898
20 *1125:6 0.000820965
21 *4828:B1 *4828:A2 3.12328e-05
22 *4828:B1 *1127:77 2.53366e-05
23 *4833:B1 *4833:A2 0.00016687
24 *1125:12 *4915:A2 9.50342e-06
25 *1125:30 *4857:A2 9.53428e-06
26 *1125:30 *4889:A2 1.54318e-05
27 *1125:30 *1127:8 0.000267846
28 *1125:30 *1127:12 6.81237e-05
29 *1125:30 *1127:127 7.81826e-05
30 *1125:34 *1127:12 5.53249e-06
31 *1125:40 *1127:47 1.15146e-05
32 *1125:59 *4851:A2 3.79555e-05
33 *1125:59 *4866:A2 1.18384e-05
34 *1125:59 *1127:47 0.000801145
35 *1125:80 *4851:A2 1.43124e-05
36 *1125:93 *1127:77 0.000159535
37 *1241:DIODE *4833:B1 0.000249475
38 *1241:DIODE *1125:93 0.00011504
39 *1259:DIODE *1125:22 0
40 *1263:DIODE *1125:34 8.1858e-05
41 *4741:C *4881:B1 4.82863e-05
42 *4828:C1 *4828:B1 9.50342e-06
43 *4833:C1 *4833:B1 0.000187071
44 *4851:A1 *1125:59 9.34171e-06
45 *4851:C1 *1125:59 7.03626e-05
46 *4857:C1 *1125:22 2.97004e-06
47 *4857:C1 *1125:30 2.68526e-05
48 *4866:C1 *1125:40 0.000105624
49 *4874:B2 *4873:B1 6.1357e-05
50 *4881:C1 *1125:30 0.000201574
51 *4881:C1 *1125:34 8.53113e-06
52 *4916:A2 *4889:B1 3.51596e-05
53 *4916:A2 *1125:12 0.00029067
54 *4916:A2 *1125:22 8.08153e-06
55 *4916:B1 *4889:B1 1.16578e-05
56 *4916:B1 *1125:6 0.000107424
57 *4917:A1 *4889:B1 7.22514e-05
58 *4917:A2 *4889:B1 2.93678e-05
59 *4972:B *4828:B1 4.82919e-05
60 *4981:C1 *1125:80 0
61 *4985:D1 *1125:80 5.05437e-05
62 *4986:D *1125:80 0
63 *5302:A *1125:59 0.000259967
64 *373:31 *1125:59 1.91521e-05
65 *373:31 *1125:80 0.000400461
66 *373:40 *1125:80 4.21973e-05
67 *653:39 *1125:30 2.16917e-05
68 *653:52 *1125:59 0
69 *656:68 *1125:6 4.7101e-05
70 *656:83 *1125:12 0.000154223
71 *768:12 *4873:B1 1.19928e-05
72 *768:12 *1125:34 0.000116853
73 *911:34 *1125:80 0.000120655
74 *911:67 *1125:80 0.000495112
75 *914:32 *1125:59 0
76 *966:12 *1125:30 4.88135e-05
77 *984:20 *1125:22 0.000266727
78 *984:28 *1125:22 5.53249e-06
79 *984:36 *4873:B1 2.58137e-05
80 *984:36 *1125:34 0.000142533
81 *984:47 *4873:B1 6.07768e-05
82 *984:47 *1125:34 2.92496e-05
83 *984:47 *1125:40 0.000280041
84 *984:53 *1125:40 3.59531e-06
85 *986:88 *4873:B1 0.000158965
86 *987:159 *4828:B1 0.000102874
87 *987:159 *4833:B1 0.00019889
88 *987:159 *1125:93 0.000216105
89 *991:30 *1125:22 0
90 *994:156 *1125:34 0.000153218
91 *994:156 *1125:40 0.000331459
92 *1008:24 *1125:80 0.000207076
93 *1008:40 *1125:59 9.57985e-06
94 *1008:40 *1125:80 0.000631858
95 *1025:6 *4833:B1 4.82919e-05
96 *1029:27 *1125:22 0
97 *1123:105 *1125:22 6.27529e-05
*RES
1 *5166:X *1125:6 4.465 
2 *1125:6 *1125:12 7.42 
3 *1125:12 *1125:22 9.775 
4 *1125:22 *1125:30 9.095 
5 *1125:30 *1125:34 6.675 
6 *1125:34 *1125:40 8.3975 
7 *1125:40 *4866:B1 1.6 
8 *1125:40 *1125:59 14.53 
9 *1125:59 *4851:B1 1.6 
10 *1125:59 *1125:80 36.7125 
11 *1125:80 *4828:B1 5.43 
12 *1125:80 *1125:93 4.695 
13 *1125:93 *4843:B1 4.05 
14 *1125:93 *4833:B1 10.53 
15 *1125:34 *4873:B1 6.135 
16 *1125:30 *4881:B1 4.05 
17 *1125:22 *4857:B1 1.6 
18 *1125:12 *4915:B1 1.6 
19 *1125:6 *4889:B1 8.995 
*END

*D_NET *1126 0.0215178
*CONN
*I *4746:B1 I *D sky130_fd_sc_hd__o211a_2
*I *4755:B1 I *D sky130_fd_sc_hd__o211a_2
*I *4762:B1 I *D sky130_fd_sc_hd__o211a_2
*I *4776:B1 I *D sky130_fd_sc_hd__o211a_2
*I *4814:B1 I *D sky130_fd_sc_hd__o211a_2
*I *4806:B1 I *D sky130_fd_sc_hd__o211a_2
*I *4736:B1 I *D sky130_fd_sc_hd__o21ai_2
*I *4790:B1 I *D sky130_fd_sc_hd__o211a_2
*I *4785:B1 I *D sky130_fd_sc_hd__o211a_2
*I *4769:B1 I *D sky130_fd_sc_hd__o211a_2
*I *5167:X O *D sky130_fd_sc_hd__clkdlybuf4s25_1
*CAP
1 *4746:B1 0
2 *4755:B1 0
3 *4762:B1 0
4 *4776:B1 4.34138e-05
5 *4814:B1 0.000199633
6 *4806:B1 0
7 *4736:B1 4.76313e-05
8 *4790:B1 3.4525e-05
9 *4785:B1 0.000210356
10 *4769:B1 2.13437e-05
11 *5167:X 9.74148e-05
12 *1126:120 0.00132058
13 *1126:101 0.00147667
14 *1126:88 0.00176769
15 *1126:74 0.00172734
16 *1126:51 0.000834694
17 *1126:36 0.000725498
18 *1126:28 0.000709356
19 *1126:20 0.0007208
20 *1126:10 0.000447525
21 *1199:DIODE *1126:10 3.86607e-05
22 *1203:DIODE *1126:20 2.49909e-05
23 *1203:DIODE *1126:28 4.30866e-05
24 *1208:DIODE *1126:28 3.09233e-05
25 *1212:DIODE *4776:B1 3.69913e-05
26 *1212:DIODE *1126:74 3.86529e-05
27 *4706:B2 *1126:51 5.23362e-05
28 *4736:A1 *1126:120 0
29 *4744:B *1126:20 0.000351867
30 *4746:A1 *1126:10 4.82863e-05
31 *4746:C1 *1126:10 5.53249e-06
32 *4746:C1 *1126:20 1.26626e-05
33 *4747:A1 *1126:20 0
34 *4747:B1 *1126:10 7.21296e-06
35 *4755:A1 *1126:28 1.92486e-06
36 *4755:A2 *1126:28 9.53428e-06
37 *4755:C1 *1126:20 9.50342e-06
38 *4756:A2 *1126:20 7.36562e-05
39 *4757:A1 *1126:28 0.000197264
40 *4758:A2 *1126:20 0
41 *4759:B *1126:28 0.000190883
42 *4759:B *1126:36 0.00015481
43 *4769:A1 *4769:B1 3.48139e-06
44 *4773:A *1126:51 0.000152595
45 *4773:B *4785:B1 4.82863e-05
46 *4773:C *4785:B1 0.00013521
47 *4775:B *1126:51 9.33942e-05
48 *4776:C1 *4776:B1 4.55864e-06
49 *4778:C1 *1126:74 0
50 *4781:A *1126:51 0
51 *4785:A2 *4785:B1 0.000156728
52 *4785:C1 *4785:B1 8.40213e-05
53 *4785:C1 *1126:51 0.00011379
54 *4785:C1 *1126:74 0.000312958
55 *4786:A1 *4785:B1 0
56 *4790:A1 *4736:B1 8.8266e-05
57 *4790:A1 *1126:101 0.000449024
58 *4792:B1 *1126:88 7.35078e-05
59 *4792:B1 *1126:101 0.000201508
60 *4804:A *4814:B1 0
61 *4804:A *1126:120 0
62 *4806:C1 *4814:B1 8.42239e-05
63 *4806:C1 *1126:120 5.53249e-06
64 *4812:A *4814:B1 1.01661e-05
65 *4814:A2 *4814:B1 0.000553422
66 *4814:C1 *4814:B1 0.000105068
67 *5055:RESET_B *1126:88 0.000270415
68 *5061:RESET_B *1126:88 0.000649228
69 *5156:A *1126:88 2.3192e-05
70 *5159:A *4790:B1 5.19573e-05
71 *5193:A *1126:88 0.000114024
72 *626:22 *1126:51 3.09164e-05
73 *657:10 *4736:B1 4.99619e-05
74 *698:12 *1126:74 0
75 *716:10 *4814:B1 0
76 *716:25 *4814:B1 0
77 *928:10 *1126:20 0
78 *931:44 *1126:51 2.49909e-05
79 *931:46 *1126:51 0.000325441
80 *932:30 *4785:B1 4.60584e-05
81 *932:49 *1126:51 0
82 *953:12 *1126:120 0.000153193
83 *983:23 *1126:20 0.000103242
84 *983:35 *1126:28 0.000425134
85 *983:39 *1126:28 8.7152e-06
86 *983:39 *1126:36 0.000811832
87 *983:43 *4785:B1 2.92496e-05
88 *983:60 *4785:B1 4.66108e-05
89 *983:77 *1126:88 0.000231316
90 *983:90 *4736:B1 5.55927e-05
91 *983:90 *1126:120 9.27255e-06
92 *983:105 *4814:B1 9.50342e-06
93 *983:105 *1126:120 0.00200163
94 *985:65 *1126:36 1.03423e-05
95 *985:65 *1126:51 4.92935e-05
96 *985:95 *1126:51 1.47256e-05
97 *985:133 *1126:120 0
98 *987:203 *4785:B1 0.000198051
99 *987:203 *1126:74 0.00060517
100 *1005:31 *1126:28 0
101 *1023:16 *1126:88 0.00012657
102 *1119:74 *1126:28 0
103 *1122:12 *1126:10 0.000116158
104 *1122:30 *1126:10 5.98004e-06
105 *1122:65 *1126:28 0.000177568
106 *1122:71 *1126:28 7.23602e-05
107 *1122:77 *1126:28 1.52945e-05
108 *1122:83 *1126:36 0.000265784
*RES
1 *5167:X *1126:10 5.685 
2 *1126:10 *1126:20 8.975 
3 *1126:20 *1126:28 12.14 
4 *1126:28 *1126:36 12.35 
5 *1126:36 *4769:B1 1.96 
6 *1126:36 *1126:51 12.055 
7 *1126:51 *4785:B1 10.91 
8 *1126:51 *1126:74 8.75 
9 *1126:74 *1126:88 21.68 
10 *1126:88 *4790:B1 6.215 
11 *1126:88 *1126:101 6.315 
12 *1126:101 *4736:B1 3.355 
13 *1126:101 *1126:120 27.53 
14 *1126:120 *4806:B1 3.6 
15 *1126:120 *4814:B1 10.08 
16 *1126:74 *4776:B1 4.47 
17 *1126:28 *4762:B1 3.6 
18 *1126:20 *4755:B1 1.6 
19 *1126:10 *4746:B1 3.6 
*END

*D_NET *1127 0.0187447
*CONN
*I *4915:A2 I *D sky130_fd_sc_hd__o211a_2
*I *4857:A2 I *D sky130_fd_sc_hd__o211a_2
*I *4889:A2 I *D sky130_fd_sc_hd__o211a_2
*I *4881:A2 I *D sky130_fd_sc_hd__o211a_2
*I *4873:A2 I *D sky130_fd_sc_hd__o211a_2
*I *4833:A2 I *D sky130_fd_sc_hd__o211a_2
*I *4843:A2 I *D sky130_fd_sc_hd__o211a_2
*I *4828:A2 I *D sky130_fd_sc_hd__o211a_2
*I *4851:A2 I *D sky130_fd_sc_hd__o211a_2
*I *4866:A2 I *D sky130_fd_sc_hd__o211a_2
*I *5168:X O *D sky130_fd_sc_hd__clkdlybuf4s25_1
*CAP
1 *4915:A2 0.000186878
2 *4857:A2 1.85694e-05
3 *4889:A2 0.00035314
4 *4881:A2 0
5 *4873:A2 0
6 *4833:A2 0.000143526
7 *4843:A2 8.77232e-05
8 *4828:A2 2.47218e-05
9 *4851:A2 2.57507e-05
10 *4866:A2 1.4537e-05
11 *5168:X 0.000307791
12 *1127:127 0.000262671
13 *1127:77 0.000420358
14 *1127:66 0.00285744
15 *1127:47 0.00313032
16 *1127:30 0.000949152
17 *1127:22 0.00077443
18 *1127:12 0.000356959
19 *1127:8 0.000659894
20 *1241:DIODE *4833:A2 0.000197512
21 *1241:DIODE *1127:77 0.000158288
22 *1251:DIODE *1127:30 0
23 *1263:DIODE *4889:A2 0
24 *4741:C *1127:22 5.98028e-05
25 *4828:A1 *4828:A2 6.21023e-05
26 *4828:A1 *1127:77 0.0004485
27 *4828:B1 *4828:A2 3.12328e-05
28 *4828:B1 *1127:77 2.53366e-05
29 *4833:A1 *4833:A2 0.000515291
30 *4833:A1 *1127:77 4.27167e-05
31 *4833:B1 *4833:A2 0.00016687
32 *4843:A1 *4843:A2 3.34044e-05
33 *4851:A1 *4851:A2 6.46393e-05
34 *4851:A1 *1127:47 0.000391409
35 *4857:A1 *4915:A2 1.12643e-05
36 *4857:C1 *1127:127 4.77757e-05
37 *4858:B2 *4915:A2 4.9253e-06
38 *4866:A1 *1127:30 1.20741e-05
39 *4867:B1 *4866:A2 0
40 *4867:C1 *4866:A2 0
41 *4867:C1 *1127:30 2.75145e-05
42 *4881:A1 *1127:22 1.12643e-05
43 *4881:C1 *4889:A2 7.27402e-06
44 *4881:C1 *1127:8 2.16833e-05
45 *4889:A1 *4889:A2 0.000743341
46 *4889:C1 *4889:A2 5.72004e-05
47 *4916:A2 *4915:A2 3.31282e-05
48 *4960:B *4843:A2 2.62405e-05
49 *4965:B *1127:66 5.15596e-05
50 *4972:B *1127:66 0.000110612
51 *4973:D_N *1127:66 0
52 *4987:A *1127:66 0.00114753
53 *1:10 *1127:66 5.49633e-05
54 *373:31 *4851:A2 1.00714e-05
55 *653:26 *1127:8 1.34594e-05
56 *653:26 *1127:22 7.58604e-05
57 *653:39 *4889:A2 0
58 *653:52 *4915:A2 0.000181376
59 *656:83 *4915:A2 0.000330441
60 *913:46 *4843:A2 0
61 *966:12 *4915:A2 0.000155491
62 *966:12 *1127:127 0.000275642
63 *984:30 *4889:A2 3.23112e-05
64 *984:30 *1127:12 0.000136884
65 *984:36 *1127:12 8.53113e-06
66 *984:36 *1127:22 0.000244014
67 *984:36 *1127:30 9.50342e-06
68 *984:47 *1127:30 5.66018e-05
69 *984:74 *1127:66 0
70 *986:88 *1127:30 0.000204668
71 *988:32 *1127:30 2.86623e-05
72 *988:47 *1127:30 8.34426e-05
73 *1008:40 *4851:A2 8.18333e-06
74 *1120:23 *1127:66 0
75 *1120:29 *1127:30 0
76 *1120:42 *1127:30 0
77 *1120:61 *1127:22 9.78798e-05
78 *1120:96 *4915:A2 4.31189e-05
79 *1123:45 *1127:22 0.000118744
80 *1123:45 *1127:30 0
81 *1123:47 *1127:30 0
82 *1125:12 *4915:A2 9.50342e-06
83 *1125:30 *4857:A2 9.53428e-06
84 *1125:30 *4889:A2 1.54318e-05
85 *1125:30 *1127:8 0.000267846
86 *1125:30 *1127:12 6.81237e-05
87 *1125:30 *1127:127 7.81826e-05
88 *1125:34 *1127:12 5.53249e-06
89 *1125:40 *1127:47 1.15146e-05
90 *1125:59 *4851:A2 3.79555e-05
91 *1125:59 *4866:A2 1.18384e-05
92 *1125:59 *1127:47 0.000801145
93 *1125:80 *4851:A2 1.43124e-05
94 *1125:93 *1127:77 0.000159535
*RES
1 *5168:X *1127:8 6.81 
2 *1127:8 *1127:12 3.635 
3 *1127:12 *1127:22 9.665 
4 *1127:22 *1127:30 10.325 
5 *1127:30 *4866:A2 1.96 
6 *1127:30 *1127:47 11.5325 
7 *1127:47 *4851:A2 4.47375 
8 *1127:47 *1127:66 6.1072 
9 *1127:66 *4828:A2 4.3425 
10 *1127:66 *1127:77 5.8425 
11 *1127:77 *4843:A2 5.115 
12 *1127:77 *4833:A2 9.57 
13 *1127:22 *4873:A2 3.6 
14 *1127:12 *4881:A2 1.6 
15 *1127:8 *4889:A2 12.63 
16 *5168:X *1127:127 4.12 
17 *1127:127 *4857:A2 1.96 
18 *1127:127 *4915:A2 11.015 
*END
